TITLE="results for TO code"
VARIABLES = "x", "y", "z", "density", "sigmaxx", "sigmayy", "sigmazz", "sigmaxy", "sigmaxz", "sigmayz"
ZONE T="load step 1", NODES= 12221, ELEMENTS= 10000, DATAPACKING=POINT, ZONETYPE=FEBRICK
               0.00000000                0.00000000                0.00000000                1.00000000               -0.00000000               -0.00000000                2.50331633                0.00000000                0.66891028                1.49059168
               1.00000000                0.00000000                0.00000000                1.00000000                0.00000000                0.00000000                1.64668479                0.00000000               -0.01090118                0.92283683
               2.00000000                0.00000000                0.00000000                1.00000000                0.00000000               -0.00000000                0.67272205               -0.00000000               -0.22362208                0.35715153
               3.00000000                0.00000000                0.00000000                1.00000000               -0.00000000                0.00000000                0.01444450                0.00000000               -0.08690723                0.01427144
               4.00000000                0.00000000                0.00000000                1.00000000               -0.00000000                0.00000000               -0.02956425               -0.00000000                0.02097065               -0.03549083
               5.00000000                0.00000000                0.00000000                1.00000000                0.00000000                0.00000000               -0.00959850               -0.00000000                0.04686180               -0.00751278
               6.00000000                0.00000000                0.00000000                1.00000000               -0.00000000                0.00000000               -0.00415752                0.00000000                0.03121982                0.00724161
               7.00000000                0.00000000                0.00000000                1.00000000                0.00000000                0.00000000               -0.09730291               -0.00000000               -0.03193355               -0.07373716
               8.00000000                0.00000000                0.00000000                1.00000000               -0.00000000                0.00000000               -0.81242015                0.00000000               -0.06784688               -0.53679900
               9.00000000                0.00000000                0.00000000                1.00000000                0.00000000               -0.00000000               -2.05838973                0.00000000                0.33122355               -1.20967059
              10.00000000                0.00000000                0.00000000                1.00000000               -0.00000000                0.00000000               -3.32434394                0.00000000                1.25645378               -1.77774465
               0.00000000                1.00000000                0.00000000                1.00000000               -0.00000000                0.00000000                2.05243631               -0.00000000                1.01415945                0.77648454
               1.00000000                1.00000000                0.00000000                1.00000000               -0.00000000               -0.00000000                1.16092807                0.00000000                0.36804396                0.42317349
               2.00000000                1.00000000                0.00000000                1.00000000                0.00000000               -0.00000000                0.34560044                0.00000000                0.09630289                0.07083540
               3.00000000                1.00000000                0.00000000                1.00000000                0.00000000               -0.00000000                0.00247030               -0.00000000                0.04609151               -0.03088813
               4.00000000                1.00000000                0.00000000                1.00000000                0.00000000               -0.00000000               -0.00174420                0.00000000                0.02758039               -0.02408817
               5.00000000                1.00000000                0.00000000                1.00000000                0.00000000               -0.00000000               -0.00292095               -0.00000000                0.02661019               -0.00382553
               6.00000000                1.00000000                0.00000000                1.00000000                0.00000000               -0.00000000               -0.00657482               -0.00000000                0.04250689                0.01062528
               7.00000000                1.00000000                0.00000000                1.00000000                0.00000000               -0.00000000               -0.04107977                0.00000000                0.09620472               -0.01329740
               8.00000000                1.00000000                0.00000000                1.00000000               -0.00000000               -0.00000000               -0.27383466               -0.00000000                0.23113375               -0.12275658
               9.00000000                1.00000000                0.00000000                1.00000000               -0.00000000                0.00000000               -1.35598744                0.00000000                0.63391085               -0.52816617
              10.00000000                1.00000000                0.00000000                1.00000000                0.00000000               -0.00000000               -2.94969056               -0.00000000                1.54215498               -0.85681678
               0.00000000                2.00000000                0.00000000                1.00000000               -0.00000000               -0.00000000                2.02114401               -0.00000000                1.14654991                0.37421786
               1.00000000                2.00000000                0.00000000                1.00000000                0.00000000                0.00000000                0.82562946                0.00000000                0.46527245                0.16592900
               2.00000000                2.00000000                0.00000000                1.00000000               -0.00000000               -0.00000000                0.05662022                0.00000000                0.18011550               -0.02093915
               3.00000000                2.00000000                0.00000000                1.00000000               -0.00000000               -0.00000000                0.00010671                0.00000000                0.07016056               -0.01449273
               4.00000000                2.00000000                0.00000000                1.00000000               -0.00000000                0.00000000                0.00179404                0.00000000                0.02577875               -0.01159542
               5.00000000                2.00000000                0.00000000                1.00000000               -0.00000000                0.00000000               -0.00008083                0.00000000                0.01527594               -0.00391203
               6.00000000                2.00000000                0.00000000                1.00000000               -0.00000000                0.00000000               -0.00040654                0.00000000                0.02823921               -0.00270320
               7.00000000                2.00000000                0.00000000                1.00000000               -0.00000000                0.00000000               -0.00973913                0.00000000                0.07183672               -0.01943579
               8.00000000                2.00000000                0.00000000                1.00000000                0.00000000               -0.00000000                0.05068515                0.00000000                0.17117748               -0.07841461
               9.00000000                2.00000000                0.00000000                1.00000000                0.00000000               -0.00000000               -0.68903585                0.00000000                0.45733433               -0.20072288
              10.00000000                2.00000000                0.00000000                1.00000000               -0.00000000                0.00000000               -2.35430618               -0.00000000                1.46270106               -0.18264038
               0.00000000                3.00000000                0.00000000                1.00000000               -0.00000000                0.00000000                1.92528037                0.00000000                1.11002752                0.11424631
               1.00000000                3.00000000                0.00000000                1.00000000               -0.00000000                0.00000000                0.53300976               -0.00000000                0.44012591                0.04200595
               2.00000000                3.00000000                0.00000000                1.00000000               -0.00000000               -0.00000000               -0.05189767               -0.00000000                0.18561706               -0.03045468
               3.00000000                3.00000000                0.00000000                1.00000000                0.00000000               -0.00000000                0.01167951                0.00000000                0.07440937               -0.00701401
               4.00000000                3.00000000                0.00000000                1.00000000                0.00000000               -0.00000000                0.00084912               -0.00000000                0.02921470               -0.00434850
               5.00000000                3.00000000                0.00000000                1.00000000                0.00000000                0.00000000                0.00027831                0.00000000                0.01613764               -0.00336241
               6.00000000                3.00000000                0.00000000                1.00000000                0.00000000                0.00000000               -0.00121795                0.00000000                0.02152896               -0.00603079
               7.00000000                3.00000000                0.00000000                1.00000000               -0.00000000               -0.00000000               -0.00313205               -0.00000000                0.04611033               -0.01903699
               8.00000000                3.00000000                0.00000000                1.00000000               -0.00000000                0.00000000                0.00301030               -0.00000000                0.09757994               -0.05215485
               9.00000000                3.00000000                0.00000000                1.00000000               -0.00000000                0.00000000               -0.26323880                0.00000000                0.22291335               -0.09367230
              10.00000000                3.00000000                0.00000000                1.00000000                0.00000000               -0.00000000               -1.20697882                0.00000000                0.94471493                0.04138322
               0.00000000                4.00000000                0.00000000                1.00000000                0.00000000                0.00000000                1.75962159               -0.00000000                0.99419982               -0.03855623
               1.00000000                4.00000000                0.00000000                1.00000000                0.00000000               -0.00000000                0.33425407                0.00000000                0.39522116               -0.03407786
               2.00000000                4.00000000                0.00000000                1.00000000                0.00000000                0.00000000               -0.08065221               -0.00000000                0.18538820               -0.03032269
               3.00000000                4.00000000                0.00000000                1.00000000               -0.00000000               -0.00000000                0.01278315                0.00000000                0.07488793               -0.00397597
               4.00000000                4.00000000                0.00000000                1.00000000               -0.00000000                0.00000000                0.00121085                0.00000000                0.02947678               -0.00157151
               5.00000000                4.00000000                0.00000000                1.00000000               -0.00000000               -0.00000000                0.00037564               -0.00000000                0.01538483               -0.00207433
               6.00000000                4.00000000                0.00000000                1.00000000               -0.00000000                0.00000000               -0.00040548                0.00000000                0.01624321               -0.00475532
               7.00000000                4.00000000                0.00000000                1.00000000               -0.00000000                0.00000000               -0.00370451                0.00000000                0.02968674               -0.01180233
               8.00000000                4.00000000                0.00000000                1.00000000               -0.00000000                0.00000000                0.01209169                0.00000000                0.05786811               -0.02274231
               9.00000000                4.00000000                0.00000000                1.00000000               -0.00000000               -0.00000000               -0.20989739               -0.00000000                0.13143666               -0.00065778
              10.00000000                4.00000000                0.00000000                1.00000000                0.00000000               -0.00000000               -1.03747925                0.00000000                0.72017101                0.09112633
               0.00000000                5.00000000                0.00000000                1.00000000                0.00000000               -0.00000000                1.57348040                0.00000000                0.86270851               -0.12270281
               1.00000000                5.00000000                0.00000000                1.00000000               -0.00000000                0.00000000                0.14870207               -0.00000000                0.34623537               -0.07808159
               2.00000000                5.00000000                0.00000000                1.00000000               -0.00000000               -0.00000000               -0.09700769                0.00000000                0.17902490               -0.02836793
               3.00000000                5.00000000                0.00000000                1.00000000                0.00000000               -0.00000000                0.01405925                0.00000000                0.07324100               -0.00192665
               4.00000000                5.00000000                0.00000000                1.00000000                0.00000000               -0.00000000                0.00107172                0.00000000                0.02861117               -0.00011564
               5.00000000                5.00000000                0.00000000                1.00000000               -0.00000000                0.00000000                0.00054688                0.00000000                0.01409450               -0.00088405
               6.00000000                5.00000000                0.00000000                1.00000000               -0.00000000               -0.00000000               -0.00024226               -0.00000000                0.01284635               -0.00255119
               7.00000000                5.00000000                0.00000000                1.00000000                0.00000000                0.00000000               -0.00220209                0.00000000                0.02161703               -0.00499861
               8.00000000                5.00000000                0.00000000                1.00000000                0.00000000               -0.00000000                0.00861019                0.00000000                0.04310177               -0.00244621
               9.00000000                5.00000000                0.00000000                1.00000000               -0.00000000                0.00000000               -0.14845272               -0.00000000                0.10752373                0.05532535
              10.00000000                5.00000000                0.00000000                1.00000000               -0.00000000                0.00000000               -0.90268242                0.00000000                0.61069461                0.13374906
               0.00000000                6.00000000                0.00000000                1.00000000                0.00000000                0.00000000                1.37780125               -0.00000000                0.73314781               -0.16161083
               1.00000000                6.00000000                0.00000000                1.00000000               -0.00000000               -0.00000000               -0.01929003               -0.00000000                0.30392239               -0.09887123
               2.00000000                6.00000000                0.00000000                1.00000000                0.00000000               -0.00000000               -0.10439458                0.00000000                0.17265799               -0.02448563
               3.00000000                6.00000000                0.00000000                1.00000000               -0.00000000               -0.00000000                0.01425889                0.00000000                0.07064614                0.00013492
               4.00000000                6.00000000                0.00000000                1.00000000               -0.00000000                0.00000000                0.00099255                0.00000000                0.02711947                0.00130295
               5.00000000                6.00000000                0.00000000                1.00000000               -0.00000000                0.00000000                0.00058235               -0.00000000                0.01276346                0.00013259
               6.00000000                6.00000000                0.00000000                1.00000000                0.00000000               -0.00000000               -0.00004387                0.00000000                0.01105796               -0.00095891
               7.00000000                6.00000000                0.00000000                1.00000000               -0.00000000               -0.00000000               -0.00154390               -0.00000000                0.01880279               -0.00071885
               8.00000000                6.00000000                0.00000000                1.00000000               -0.00000000               -0.00000000                0.00521764                0.00000000                0.04039618                0.00864732
               9.00000000                6.00000000                0.00000000                1.00000000                0.00000000                0.00000000               -0.07890803               -0.00000000                0.09880192                0.08796612
              10.00000000                6.00000000                0.00000000                1.00000000               -0.00000000                0.00000000               -0.77940714                0.00000000                0.50900966                0.17175829
               0.00000000                7.00000000                0.00000000                1.00000000                0.00000000                0.00000000                1.17747412                0.00000000                0.61496678               -0.17179121
               1.00000000                7.00000000                0.00000000                1.00000000               -0.00000000                0.00000000               -0.17406166                0.00000000                0.27289517               -0.09856571
               2.00000000                7.00000000                0.00000000                1.00000000               -0.00000000               -0.00000000               -0.10858330                0.00000000                0.16859760               -0.01481380
               3.00000000                7.00000000                0.00000000                1.00000000                0.00000000               -0.00000000                0.01405591                0.00000000                0.06708222                0.00495310
               4.00000000                7.00000000                0.00000000                1.00000000               -0.00000000                0.00000000                0.00078614               -0.00000000                0.02443202                0.00357194
               5.00000000                7.00000000                0.00000000                1.00000000               -0.00000000                0.00000000                0.00058920               -0.00000000                0.01102387                0.00097153
               6.00000000                7.00000000                0.00000000                1.00000000               -0.00000000                0.00000000                0.00001623               -0.00000000                0.00977596               -0.00062461
               7.00000000                7.00000000                0.00000000                1.00000000                0.00000000                0.00000000               -0.00079679               -0.00000000                0.01870507                0.00045393
               8.00000000                7.00000000                0.00000000                1.00000000               -0.00000000               -0.00000000                0.00051176                0.00000000                0.04348310                0.01435378
               9.00000000                7.00000000                0.00000000                1.00000000                0.00000000                0.00000000                0.00461112               -0.00000000                0.09701945                0.11012642
              10.00000000                7.00000000                0.00000000                1.00000000               -0.00000000                0.00000000               -0.65005923                0.00000000                0.40792331                0.19359529
               0.00000000                8.00000000                0.00000000                1.00000000               -0.00000000               -0.00000000                0.96913272                0.00000000                0.51091056               -0.17057671
               1.00000000                8.00000000                0.00000000                1.00000000                0.00000000                0.00000000               -0.31694541               -0.00000000                0.25373402               -0.06790842
               2.00000000                8.00000000                0.00000000                1.00000000               -0.00000000               -0.00000000               -0.11844242                0.00000000                0.16433575                0.01427642
               3.00000000                8.00000000                0.00000000                1.00000000                0.00000000                0.00000000                0.01313361               -0.00000000                0.05803773                0.01786250
               4.00000000                8.00000000                0.00000000                1.00000000                0.00000000               -0.00000000                0.00059878                0.00000000                0.01855923                0.00638472
               5.00000000                8.00000000                0.00000000                1.00000000               -0.00000000                0.00000000                0.00048910               -0.00000000                0.00925761                0.00095860
               6.00000000                8.00000000                0.00000000                1.00000000               -0.00000000                0.00000000                0.00015689                0.00000000                0.00830138               -0.00074642
               7.00000000                8.00000000                0.00000000                1.00000000                0.00000000                0.00000000               -0.00036502                0.00000000                0.01651945               -0.00318537
               8.00000000                8.00000000                0.00000000                1.00000000               -0.00000000               -0.00000000               -0.00244426               -0.00000000                0.05219873                0.01025132
               9.00000000                8.00000000                0.00000000                1.00000000               -0.00000000                0.00000000                0.10346285               -0.00000000                0.11164561                0.12376072
              10.00000000                8.00000000                0.00000000                1.00000000               -0.00000000                0.00000000               -0.53034053                0.00000000                0.32462042                0.19757717
               0.00000000                9.00000000                0.00000000                1.00000000                0.00000000               -0.00000000                0.72025203               -0.00000000                0.39545205               -0.19987497
               1.00000000                9.00000000                0.00000000                1.00000000                0.00000000               -0.00000000               -0.43935806                0.00000000                0.21954934                0.04211895
               2.00000000                9.00000000                0.00000000                1.00000000               -0.00000000                0.00000000               -0.16462032                0.00000000                0.13647769                0.10456977
               3.00000000                9.00000000                0.00000000                1.00000000                0.00000000               -0.00000000                0.01700537                0.00000000                0.03388427                0.03791666
               4.00000000                9.00000000                0.00000000                1.00000000                0.00000000                0.00000000               -0.00018296                0.00000000                0.01538015                0.00444198
               5.00000000                9.00000000                0.00000000                1.00000000               -0.00000000                0.00000000                0.00057111               -0.00000000                0.00887860                0.00079039
               6.00000000                9.00000000                0.00000000                1.00000000                0.00000000               -0.00000000                0.00013076               -0.00000000                0.00769176               -0.00077062
               7.00000000                9.00000000                0.00000000                1.00000000               -0.00000000               -0.00000000                0.00072381               -0.00000000                0.01158611               -0.00569884
               8.00000000                9.00000000                0.00000000                1.00000000                0.00000000               -0.00000000               -0.00778549                0.00000000                0.04132825               -0.02397117
               9.00000000                9.00000000                0.00000000                1.00000000               -0.00000000               -0.00000000                0.28183232                0.00000000                0.15208557                0.08094201
              10.00000000                9.00000000                0.00000000                1.00000000                0.00000000                0.00000000               -0.43758385               -0.00000000                0.28790009                0.22138103
               0.00000000               10.00000000                0.00000000                1.00000000                0.00000000                0.00000000                0.54916048               -0.00000000                0.00868962               -0.36053280
               1.00000000               10.00000000                0.00000000                1.00000000               -0.00000000                0.00000000               -0.59447865                0.00000000               -0.01157381                0.32019059
               2.00000000               10.00000000                0.00000000                1.00000000                0.00000000               -0.00000000               -0.34970952               -0.00000000                0.14501441                0.33898115
               3.00000000               10.00000000                0.00000000                1.00000000               -0.00000000                0.00000000               -0.00401955                0.00000000                0.08049977                0.05519186
               4.00000000               10.00000000                0.00000000                1.00000000               -0.00000000                0.00000000               -0.00407618               -0.00000000                0.03014761                0.01057318
               5.00000000               10.00000000                0.00000000                1.00000000                0.00000000               -0.00000000               -0.00014948               -0.00000000                0.01255158                0.00220507
               6.00000000               10.00000000                0.00000000                1.00000000               -0.00000000                0.00000000                0.00095591                0.00000000                0.01122409               -0.00200801
               7.00000000               10.00000000                0.00000000                1.00000000               -0.00000000                0.00000000                0.00479269                0.00000000                0.02238099               -0.01087157
               8.00000000               10.00000000                0.00000000                1.00000000               -0.00000000               -0.00000000                0.02478473               -0.00000000                0.04680961               -0.06357081
               9.00000000               10.00000000                0.00000000                1.00000000                0.00000000                0.00000000                0.42780648               -0.00000000                0.04680718               -0.17355336
              10.00000000               10.00000000                0.00000000                1.00000000                0.00000000               -0.00000000               -0.45977115                0.00000000                0.03201497                0.39433896
               0.00668910                0.01490592                1.02503316                1.00000000               -0.67981146               -0.71410714                2.47213271               -0.22250569               -0.12852060                0.72430237
               0.99989099                0.00922837                1.01646685                1.00000000               -0.44626618               -0.49966333                1.64308872               -0.18777494               -0.47775787                0.23879222
               1.99776378                0.00357152                1.00672722                0.70061026               -0.03800303               -0.28631613                0.80934787               -0.13435773               -0.55172139               -0.06049069
               2.99913093                0.00014271                1.00014444                0.51371952                0.12229637               -0.04515956                0.09070781               -0.06332244               -0.04302246               -0.10278175
               4.00020971               -0.00035491                0.99970436                0.44592853                0.06688452                0.01140266               -0.20680707               -0.00428237                0.59227221               -0.14756581
               5.00046862               -0.00007513                0.99990402                0.44638904                0.00512458                0.00368725               -0.10131938                0.00111462                0.82526216               -0.02568878
               6.00031220                0.00007242                0.99995842                0.50242959               -0.03939767                0.00338366               -0.04991730               -0.02182511                0.67826512                0.08684827
               6.99968066               -0.00073737                0.99902697                0.62818032               -0.04953335                0.06043976               -0.44701668               -0.14388205                0.13906182                0.02067865
               7.99932153               -0.00536799                0.99187580                0.87225825                0.18157855                0.41404243               -1.32306939               -0.26898609               -0.40835065                0.10938110
               9.00331224               -0.01209671                0.97941610                1.00000000                0.66215033                0.68150442               -2.27524223               -0.31778552               -0.39196458               -0.21126259
              10.01256454               -0.01777745                0.96675656                1.00000000                0.92523023                0.92092787               -3.14269541               -0.28237286               -0.00693963               -0.95400451
               0.01014159                1.00776485                1.02052436                1.00000000               -0.64611549               -0.55818691                2.17421813               -0.11449123                0.20430767                0.59099531
               1.00368044                1.00423173                1.01160928                0.92372647               -0.45892828               -0.37845391                1.37365034               -0.11473775               -0.04727590                0.08234368
               2.00096303                1.00070835                1.00345600                0.22050731               -0.16097623               -0.18904534                0.58356960               -0.02516202                0.06065725               -0.19766763
               3.00046092                0.99969112                1.00002470                0.00010000               -0.03436125               -0.01438208                0.07631808                0.03107211                0.43229771               -0.16504829
               4.00027580                0.99975912                0.99998256                0.00010000               -0.00974066                0.01194771               -0.13828630                0.01593534                0.62577376               -0.15918819
               5.00026610                0.99996174                0.99997079                0.00010000                0.00746325                0.00180038               -0.08553893                0.00156379                0.69714247               -0.00082421
               6.00042507                1.00010625                0.99993425                0.00010000                0.03479726               -0.00497240               -0.09284055               -0.00622623                0.73370856                0.16464796
               7.00096205                0.99986703                0.99958920                0.10497157                0.09431343                0.02715069               -0.40221847               -0.01480579                0.70787671                0.18189846
               8.00231134                0.99877243                0.99726165                0.44025473                0.26885307                0.22919220               -1.21111635               -0.13792220                0.36415902                0.26472590
               9.00633911                0.99471834                0.98644013                1.00000000                0.65551062                0.50447386               -1.94358128               -0.30397471               -0.08056424                0.06664913
              10.01542155                0.99143183                0.97050309                1.00000000                0.90824413                0.79755214               -2.81613268               -0.22552697                0.03887607               -0.43882347
               0.01146550                2.00374218                1.02021144                1.00000000               -0.68127746               -0.33111911                2.01729660               -0.16035483                0.12567635                0.48343782
               1.00465272                2.00165929                1.00825629                0.67963436               -0.48321721               -0.19058377                1.15605875               -0.16153753                0.06491889               -0.01475623
               2.00180115                1.99979061                1.00056620                0.07217574               -0.19755595               -0.05064504                0.24421337               -0.04555378                0.53192569               -0.24095420
               3.00070161                1.99985507                1.00000107                0.00010000               -0.07716838                0.01193706               -0.46191621                0.01883080                1.09829874               -0.38579282
               4.00025779                1.99988405                1.00001794                0.00010000               -0.02744231                0.00986984               -0.03134673                0.00610750                1.27855246               -0.05444967
               5.00015276                1.99996088                0.99999919                0.00010000                0.00123023                0.00023156                0.01120391               -0.00079017                1.30642877                0.09811828
               6.00028239                1.99997297                0.99999593                0.00010000                0.02828039               -0.00832803                0.03509068               -0.01825084                1.35750511                0.24519717
               7.00071837                1.99980564                0.99990261                0.00010000                0.07146913               -0.00286979               -0.16235722               -0.06290290                1.55444052                0.39186166
               8.00171177                1.99921585                1.00050685                0.20296548                0.19274880                0.03530086               -1.19273374               -0.15742045                1.12053641                0.14317723
               9.00457334                1.99799277                0.99310964                0.71678700                0.64576179                0.21724694               -1.74157671               -0.25761164                0.20363366                0.17237725
              10.01462701                1.99817360                0.97645694                1.00000000                1.00536673                0.44910000               -2.94498334               -0.28063753                0.15182551                0.34175764
               0.01110028                3.00114246                1.01925280                1.00000000               -0.66990161               -0.20638704                1.89153983               -0.14841541                0.05559339                0.21425632
               1.00440126                3.00042006                1.00533010                0.60368371               -0.46220523               -0.10000343                0.87535413               -0.10737614                0.21593701               -0.08178152
               2.00185617                2.99969545                0.99948102                0.03872555               -0.18285827               -0.00469177               -0.18544261               -0.02187363                0.91918333               -0.21631792
               3.00074409                2.99992986                1.00011680                0.00010000               -0.07820118                0.00525838               -0.96407561                0.01541678                1.45170401               -0.41319046
               4.00029215                2.99995651                1.00000849                0.00010000               -0.02913587                0.00501195               -0.06956107                0.00367482                1.68634502               -0.01267527
               5.00016138                2.99996638                1.00000278                0.00010000               -0.00384287                0.00091885                0.08367098               -0.00078670                1.76622673                0.17479390
               6.00021529                2.99993969                0.99998782                0.00010000                0.01498635               -0.00102606                0.20632487               -0.01383529                1.77366611                0.33490294
               7.00046110                2.99980963                0.99996868                0.00010000                0.03802549                0.00381673                0.51520194               -0.04413703                1.63777443                0.55803354
               8.00097580                2.99947845                1.00003010                0.17538776                0.08840151                0.02783615               -0.31591278               -0.09397235                1.31995399                0.26094951
               9.00222913                2.99906328                0.99736761                0.64773561                0.42356749                0.10003255               -1.75556599               -0.11617979                0.78058966                0.02648637
              10.00944715                3.00041383                0.98793021                1.00000000                0.72180157                0.13688335               -3.46405884               -0.23620950                0.73585550                0.37737215
               0.00994200                3.99961444                1.01759622                1.00000000               -0.59897867               -0.11847456                1.75705463               -0.11918114                0.07545836                0.03103905
               1.00395221                3.99965922                1.00334254                0.56182355               -0.40440581               -0.06004377                0.54500982               -0.04282850                0.37057671               -0.11832253
               2.00185388                3.99969677                0.99919348                0.02240322               -0.16016661                0.00104338               -0.73779273                0.01175487                1.14949177               -0.23199703
               3.00074888                3.99996024                1.00012783                0.00010000               -0.07795571                0.00254368               -1.12504774                0.01379141                1.79468089               -0.28842732
               4.00029477                3.99998428                1.00001211                0.00010000               -0.02975155                0.00211643               -0.10211596                0.00064906                2.04531818                0.02857339
               5.00015385                3.99997926                1.00000376                0.00010000               -0.00661678                0.00123918                0.16702508               -0.00261348                2.14465509                0.22815211
               6.00016243                3.99995245                0.99999595                0.00010000                0.00715095                0.00173980                0.43560863               -0.00920531                2.12915697                0.42373231
               7.00029687                3.99988198                0.99996295                0.00010000                0.02081245                0.00701919                1.09007297               -0.02124014                1.86543826                0.68564455
               8.00057868                3.99977258                1.00012092                0.17165840                0.05087496                0.02485432                0.51482789               -0.02166681                1.31655106                0.46314429
               9.00131437                3.99999342                0.99790103                0.63786052                0.33115145                0.07449882               -1.35161127               -0.00076049                0.84445395                0.06576369
              10.00720171                4.00091126                0.98962521                1.00000000                0.58873434                0.04618292               -3.31297327               -0.07522605                0.77054146                0.08185753
               0.00862709                4.99877297                1.01573480                1.00000000               -0.51647314               -0.06152730                1.60492010               -0.08590478                0.08960403               -0.07128532
               1.00346235                4.99921918                1.00148702                0.53383205               -0.34184180               -0.03239668                0.23832469                0.00151806                0.50564158               -0.15438972
               2.00179025                4.99971632                0.99902992                0.01324989               -0.13649718                0.00291853               -1.28064691                0.03171237                1.33702653               -0.24110550
               3.00073241                4.99998073                1.00014059                0.00010000               -0.07520687                0.00205545               -1.14377811                0.01200525                2.09544137               -0.16415802
               4.00028611                4.99999884                1.00001072                0.00010000               -0.02957325                0.00143723               -0.09931867               -0.00065735                2.36552408                0.07611844
               5.00014094                4.99999116                1.00000547                0.00010000               -0.00788241                0.00110346                0.26554451               -0.00252846                2.48039925                0.25639990
               6.00012846                4.99997449                0.99999758                0.00010000                0.00376127                0.00189821                0.66460792               -0.00464991                2.46641517                0.46068445
               7.00021617                4.99995001                0.99997798                0.00010000                0.01512771                0.00554174                1.75152836               -0.00538948                2.07439800                0.78654685
               8.00043102                4.99997554                1.00008610                0.17653650                0.04295335                0.01569481                1.37984346                0.02142602                1.34939919                0.58650841
               9.00107524                5.00055325                0.99851547                0.64230254                0.28379642                0.04431195               -0.81113578                0.05178027                0.93116911                0.24628149
              10.00610695                5.00133749                0.99097318                1.00000000                0.50317087                0.04031598               -2.96209034               -0.02715696                0.83445058                0.20975103
               0.00733148                5.99838389                1.01377801                1.00000000               -0.42922542               -0.02454420                1.44465508               -0.06113127                0.11195371               -0.12886965
               1.00303922                5.99901129                0.99980710                0.51491533               -0.28024491               -0.01024206               -0.04987770                0.03189249                0.63499207               -0.16179502
               2.00172658                5.99975514                0.99895605                0.00870342               -0.11663813                0.00677706               -1.79288569                0.04428942                1.49585250               -0.21550639
               3.00070646                6.00000135                1.00014259                0.00010000               -0.07276926                0.00343987               -1.10057997                0.00981490                2.34237730               -0.06570018
               4.00027119                6.00001303                1.00000993                0.00010000               -0.02894134                0.00184379               -0.07694509               -0.00209074                2.63518275                0.10471625
               5.00012763                6.00000133                1.00000582                0.00010000               -0.00803076                0.00092779                0.37074229               -0.00266624                2.77620678                0.24716633
               6.00011058                5.99999041                0.99999956                0.00010000                0.00301966                0.00096329                0.89459359               -0.00196092                2.77119189                0.44312948
               7.00018803                5.99999281                0.99998456                0.00010000                0.01466911                0.00272627                2.53205420                0.00334713                2.26391327                0.83042910
               8.00040396                6.00008647                1.00005218                0.18611860                0.03999957                0.00839999                2.23899307                0.04453315                1.41969398                0.64400880
               9.00098802                6.00087966                0.99921092                0.65419310                0.23430674                0.02740054               -0.22504173                0.07630334                1.04776518                0.35656459
              10.00509010                6.00171758                0.99220593                1.00000000                0.41020774                0.02992311               -2.51726098               -0.01759347                0.90399820                0.29785823
               0.00614967                6.99828209                1.01177474                1.00000000               -0.34207162               -0.00448294                1.27582874               -0.03789312                0.14155798               -0.16293134
               1.00272895                6.99901434                0.99825938                0.50584810               -0.22318459                0.01548140               -0.31727042                0.05339452                0.75966213               -0.14495081
               2.00168598                6.99985186                0.99891417                0.00845282               -0.10290648                0.01938103               -2.25795017                0.04759828                1.63140590               -0.14591321
               3.00067082                7.00004953                1.00014056                0.00010000               -0.07208279                0.00886379               -1.05972790                0.00288867                2.53236671                0.01088500
               4.00024432                7.00003572                1.00000786                0.00010000               -0.02802917                0.00254089               -0.04818047               -0.00627090                2.84928874                0.10241740
               5.00011024                7.00000972                1.00000589                0.00010000               -0.00732803                0.00041300                0.47279599               -0.00385120                3.02037530                0.18880852
               6.00009776                6.99999375                1.00000016                0.00010000                0.00384060                0.00010625                1.11480192               -0.00163709                3.02932703                0.35251721
               7.00018705                7.00000454                0.99999203                0.00228922                0.01685357               -0.00123326                3.44674378                0.00634752                2.40351124                0.77819738
               8.00043483                7.00014354                1.00000512                0.20123997                0.03915719                0.00080200                3.04861142                0.06073752                1.52119111                0.60685408
               9.00097019                7.00110126                1.00004611                0.67557262                0.18222011                0.01789730                0.34970560                0.09604260                1.18590540                0.40237846
              10.00407923                7.00193595                0.99349941                1.00000000                0.31090386                0.01290944               -2.04618422               -0.00872576                0.97571377                0.33252499
               0.00510911                7.99829423                1.00969133                1.00000000               -0.25717654               -0.01404188                1.09383563               -0.00708908                0.17425751               -0.20876958
               1.00253734                7.99932092                0.99683055                0.51613565               -0.17328741                0.07034233               -0.56055033                0.06575365                0.86984605               -0.09188971
               2.00164336                8.00014276                0.99881558                0.01476330               -0.09784815                0.05969179               -2.64343267                0.02682551                1.73632408               -0.02151752
               3.00058038                8.00017863                1.00013134                0.00010000               -0.07288826                0.01648178               -1.07075122               -0.02054482                2.66435162                0.08828309
               4.00018559                8.00006385                1.00000599                0.00010000               -0.02439006                0.00043502               -0.02727709               -0.01297789                2.99423906                0.06518154
               5.00009258                8.00000959                1.00000489                0.00010000               -0.00512893               -0.00009057                0.56308384               -0.00463821                3.20354937                0.06435164
               6.00008301                7.99999254                1.00000157                0.00010000                0.00363092               -0.00007301                1.30470690               -0.00311409                3.21828011                0.17086783
               7.00016519                7.99996815                0.99999635                0.01504650                0.02194868               -0.00307638                4.51644066                0.00193939                2.43989447                0.57794306
               8.00052199                8.00010251                0.99997556                0.22884953                0.04756308               -0.01916247                3.74689347                0.06239562                1.64594309                0.46006740
               9.00111646                8.00123761                1.00103463                0.71986316                0.13621084               -0.01459221                0.86728846                0.12119599                1.32522116                0.41515765
              10.00324620                8.00197577                0.99469659                1.00000000                0.21297481                0.01389287               -1.58168607                0.01380484                1.02272041                0.30655243
               0.00395452                8.99800125                1.00720252                1.00000000               -0.17590271               -0.09497804                0.89282294               -0.00911656                0.21210180               -0.23734997
               1.00219549                9.00042119                0.99560642                0.57180641               -0.12948718                0.19404951               -0.77428075                0.01956845                0.92509328               -0.01044483
               2.00136478                9.00104570                0.99835380                0.03698397               -0.09283254                0.16235237               -2.85033160               -0.01176181                1.79462930                0.12037360
               3.00033884                9.00037917                1.00017005                0.00010000               -0.06054877                0.01866468               -1.21357645               -0.03883287                2.74174117                0.19328680
               4.00015380                9.00004442                0.99999817                0.00010000               -0.01250284                0.00209423               -0.01038888               -0.01276895                3.08596275               -0.00457060
               5.00008879                9.00000790                1.00000571                0.00010000               -0.00384420                0.00062323                0.62861238               -0.00095931                3.30136836               -0.15671541
               6.00007692                8.99999229                1.00000131                0.00010000                0.00135376               -0.00063079                1.41318004               -0.00178326                3.34014014               -0.15939159
               7.00011586                8.99994301                1.00000724                0.04381499                0.01681825               -0.00384310                5.66205734               -0.00866951                2.36723074                0.23616557
               8.00041328                8.99976029                0.99992215                0.29037185                0.07024973               -0.03691106                4.24676333                0.04062586                1.79097278                0.24675803
               9.00152086                9.00080942                1.00281832                0.82734892                0.12328592               -0.14865704                1.24997319                0.09025689                1.43380851                0.32382100
              10.00287900                9.00221381                0.99562416                1.00000000                0.13581452                0.09838090               -1.13755088               -0.00586370                0.93030793                0.22796289
               0.00008690                9.99639467                1.00549160                1.00000000               -0.02026343               -0.16065783                0.69211685                0.29396096               -0.03901863               -0.29110424
               0.99988426               10.00320191                0.99405521                0.83519956                0.06816240                0.27807164               -0.95804160                0.11863381                0.69561674                0.13126529
               2.00145014               10.00338981                0.99650290                0.53777002                0.04603679                0.23441138               -2.97277567               -0.12396264                1.71040233                0.41533829
               3.00080500               10.00055192                0.99995980                0.44132109               -0.05743340                0.01727519               -1.31629652               -0.11758848                2.97818757                0.27300136
               4.00030148               10.00010573                0.99995924                0.42669784               -0.03397410                0.00613120                0.04142281               -0.01172593                3.30139045               -0.07230097
               5.00012552               10.00002205                0.99999851                0.44071547               -0.00946176                0.00141468                0.73680831               -0.00261761                3.47297835               -0.46847626
               6.00011224                9.99997992                1.00000956                0.47579371                0.00491470               -0.00123739                1.54974856               -0.00300599                3.34793414               -0.84794046
               7.00022381                9.99989128                1.00004793                0.54541101                0.01779276               -0.00517273                6.23713177               -0.01998652                2.26835997               -0.17763401
               8.00046810                9.99936429                1.00024785                0.69109091                0.01221310               -0.03959964                4.54544823               -0.07585954                1.91212323                0.01849532
               9.00046807                9.99826447                1.00427806                0.99324703               -0.00739732               -0.25449536                1.48404295                0.12367650                1.29498736                0.06199273
              10.00032015               10.00394339                0.99540229                1.00000000               -0.01479221                0.17295794               -0.82635943                0.31200720                0.56306361                0.24754441
               0.01456222                0.02350365                2.04944265                1.00000000               -0.58114335               -0.68620184                2.44533725               -0.16585698               -0.43082105                0.34988430
               1.00875079                0.01449098                2.03286177                1.00000000               -0.46371218               -0.46335518                1.66202691               -0.17134593               -0.39922860                0.05098319
               2.00528798                0.00533262                2.01618696                0.75932666               -0.12941857               -0.31249529                0.92204672               -0.06438173               -0.33542991               -0.22611396
               3.00616241               -0.00181615                2.00181416                0.54047125                0.33989495               -0.13414368                0.15472115                0.15368186                0.19712681               -0.14239892
               4.01208587               -0.00350772                1.99586386                0.45114800                0.50443809                0.00103706               -0.32903873                0.10679258                1.30023384               -0.10191462
               5.01625118               -0.00064733                1.99797361                0.45081418                0.11782362                0.05356658               -0.22282901                0.03864942                1.95410179                0.00038229
               6.01444235                0.00178531                1.99900165                0.52900916               -0.26936565                0.14701380               -0.18344869                0.05816313                1.42229543                0.08220044
               7.01086386               -0.00071089                1.99105967                0.70083103               -0.14992456                0.34732212               -0.76388120                0.07815701                0.38306897                0.12724836
               8.01144386               -0.00858409                1.97353861                1.00000000                0.32080418                0.52475528               -1.55949993                0.02071979               -0.13368601               -0.00073131
               9.01727995               -0.01827330                1.95449516                1.00000000                0.68682181                0.59127414               -2.26026032               -0.11272072               -0.10374075                0.11860211
              10.02518029               -0.02657316                1.93714609                1.00000000                0.79003451                0.80963108               -2.96345131               -0.08285679               -0.10947419               -0.24224532
               0.02191632                1.01664163                2.04348436                1.00000000               -0.57934775               -0.62816660                2.29652837               -0.08534030               -0.01211011                0.49488274
               1.01612284                1.00985743                2.02747301                1.00000000               -0.45592977               -0.42534601                1.52129695               -0.11205667                0.03984518                0.11371484
               2.01279772                1.00220767                2.01167139                0.38639228               -0.20017201               -0.30883608                0.73360851                0.02953757                0.32051701               -0.33199500
               3.01211940                0.99684241                2.00152636                0.01619710               -0.01141675               -0.29958986                0.07748732                0.53234052                0.85147624               -0.68729061
               4.01256939                0.99650265                1.99723427                0.00010000                0.09358776                0.11963954               -0.31648963                0.82664888                1.40170383               -0.10038291
               5.01399116                0.99988834                1.99828922                0.00010000                0.12431859                0.12888498               -0.20989209                0.83261007                1.69480906                0.07559050
               6.01505576                1.00325545                1.99814319                0.01167680                0.14194885                0.15325316               -0.17761528                0.78391654                1.51002825                0.30171698
               7.01683013                1.00276233                1.99195563                0.27625872                0.26882488                0.40843229               -0.71573273                0.65610231                0.89953916                0.40852902
               8.02043226                0.99666346                1.97577767                0.78472295                0.41585708                0.43395915               -1.55415733                0.13184762                0.56987423               -0.12514747
               9.02514727                0.98763944                1.96112837                1.00000000                0.61096633                0.53966781               -2.25137962               -0.21488358                0.51546362               -0.04383422
              10.03265158                0.98152315                1.94367735                1.00000000                0.75043096                0.79905966               -2.80139386               -0.05354782                0.26989930               -0.69386809
               0.02642382                2.01094032                2.04034593                1.00000000               -0.54802021               -0.48706394                2.07786043               -0.14357763                0.19744252                0.57487095
               1.02094362                2.00598406                2.02312117                1.00000000               -0.37650383               -0.32896517                1.29593931               -0.19083694                0.23378705                0.04458738
               2.01889374                1.99915590                2.00488427                0.19901075                0.07853105               -0.25806499                0.31369061               -0.14963803                0.43926067               -0.57715557
               3.02251424                1.99219205                1.99076168                0.00010000                0.33395917               -0.26164929               -0.54713938                0.80581942                1.81236702               -1.17122451
               4.02557292                1.99888507                1.99937307                0.00010000                0.18181722                0.16248366               -0.20279197                1.55049230                2.92234926                0.03097885
               5.02615058                2.00193037                2.00022408                0.00010000                0.08368803                0.18014870               -0.05418089                1.36596755                2.69473973                0.27936170
               6.02724669                2.00485037                2.00070181                0.00010000                0.22136562                0.17212994               -0.03204866                1.29895247                2.56909790                0.55968484
               7.03057789                2.00745776                1.99675286                0.12109873                0.09785051                0.41689966               -0.18601947                0.55638970                1.52820600                1.22970980
               8.02920370                2.00009510                1.97614533                0.46459129               -0.12276534                0.44707300               -1.22456753               -0.31849037                1.04247254                0.74994551
               9.02812259                1.99252006                1.96516847                1.00000000                0.35691106                0.40494495               -2.20090467               -0.40613247                0.90154617               -0.28576178
              10.03634192                1.98940804                1.94110033                1.00000000                0.82193300                0.64280104               -2.97301101               -0.26418599                0.01703581               -1.46303832
               0.02895728                3.00690035                2.03783080                1.00000000               -0.48667595               -0.34007676                1.89373819               -0.18258774                0.21780523                0.49923988
               1.02409052                3.00327812                2.01750708                0.93749227               -0.26801556               -0.22537161                1.01674876               -0.24916642                0.28626234               -0.14543848
               2.02359697                2.99704637                1.99629115                0.15534567                0.22080458               -0.16723687               -0.22261614               -0.21789469                0.60396013               -0.82701477
               3.02850661                2.99160943                1.98071849                0.00010000                0.51219717                0.10078023               -1.21560829                0.76333555                2.70449248               -0.80965045
               4.03384091                2.99975233                1.99860878                0.00010000                0.34192964                0.08420841               -0.32992594                1.36697004                4.12763741               -0.02344120
               5.03534521                3.00349131                2.00167342                0.00010000                0.08332568                0.13149918                0.09485827                1.18522029                3.63401262                0.38029411
               6.03550743                3.00669805                2.00412650                0.00010000               -0.13159996                0.18072573                0.39393230                1.14931335                3.83332066                0.77117107
               7.03271321                3.01110032                2.01030404                0.11398684               -0.32536393                0.31229177                0.81975513                0.27563883                2.74020773                1.73928485
               8.02900015                3.00560492                1.99368174                0.43461834               -0.25007609                0.45558959               -0.35486097               -0.80863637                0.83406897                1.64074587
               9.02771168                2.99573834                1.96488868                1.00000000                0.22958816                0.38236772               -2.03563551               -0.59817746                0.00075914                0.03565206
              10.03359191                2.99437917                1.93071882                1.00000000                0.58802262                0.45930757               -3.50007081               -0.35488940               -0.48171527               -1.03691251
               0.03001652                4.00413878                2.03514109                1.00000000               -0.42022453               -0.22539268                1.72992050               -0.19969710                0.13457965                0.37988336
               1.02581427                4.00147663                2.01090020                0.88378448               -0.19059865               -0.14152384                0.67403640               -0.28002147                0.17200244               -0.23464722
               2.02620454                3.99581116                1.98524415                0.13275920                0.46303575               -0.08155260               -0.85099596               -0.13894901                1.09384651               -0.97489656
               3.03507499                3.99420766                1.97749905                0.00010000                0.74129470                0.25463279               -1.61653210                0.85897514                3.63552619               -0.31176687
               4.04103044                4.00056924                1.99795768                0.00010000                0.39171390                0.08861126               -0.39972612                1.19786966                4.92418876                0.07986429
               5.04290927                4.00456036                2.00334050                0.00010000                0.07967511                0.08173088                0.27097327                1.10857836                4.48841491                0.47315168
               6.04262394                4.00846489                2.00871217                0.00010000               -0.28627358                0.12560123                0.87434898                1.14958011                4.85985359                0.91075748
               7.03718379                4.01370359                2.02180146                0.11590831               -0.71154954                0.23045031                1.85401617                0.47141134                3.72655010                1.83645638
               8.02839295                4.00920689                2.01029656                0.43503462               -0.48995025                0.30969919                0.53554654               -0.70429179                0.99797240                1.71689741
               9.02738479                4.00016741                1.97296777                1.00000000                0.17847582                0.39386968               -1.55183173               -0.52940381               -0.38247819                0.63047065
              10.03196247                3.99859419                1.93374053                1.00000000                0.45776781                0.36175629               -3.34561574               -0.24823786               -0.65935835               -0.07865680
               0.03028765                5.00239250                2.03209840                1.00000000               -0.34699348               -0.13780554                1.56854121               -0.18626593                0.08748239                0.27426629
               1.02681771                5.00044765                2.00476649                0.84588134               -0.11003442               -0.07424446                0.32486355               -0.26348279                0.03865175               -0.24224760
               2.02808696                4.99541531                1.97438706                0.11787419                0.70551603               -0.00027657               -1.47937675               -0.01842741                1.66019534               -0.95890170
               3.04092803                4.99670208                1.97712444                0.00010000                0.96793233                0.22391868               -1.83815522                0.84139628                4.56055364               -0.04096533
               4.04744561                5.00152455                1.99801363                0.00010000                0.43465458                0.07639696               -0.38895797                1.01169153                5.53355627                0.17986474
               5.04962112                5.00512593                2.00531089                0.00010000                0.09550940                0.01912734                0.47658549                1.01553779                5.23056963                0.52007968
               6.04935579                5.00921007                2.01329216                0.00010000               -0.41108446                0.01975577                1.37539937                1.17022797                5.87553624                0.93578177
               7.04139944                5.01570933                2.03503057                0.12206014               -1.04526516                0.14454688                2.92594939                0.53153464                4.67458121                2.08266057
               8.02845049                5.01179891                2.02759687                0.44482165               -0.68315636                0.18771367                1.44990631               -0.56595118                1.14863545                1.81005655
               9.02773631                5.00361574                1.98377728                1.00000000                0.16615579                0.27166203               -0.94167998               -0.43839231               -0.65853639                0.86929571
              10.03177361                5.00161430                1.94075819                1.00000000                0.40372974                0.24183730               -2.99413738               -0.19376970               -0.78621136                0.28764387
               0.03018090                6.00138267                2.02889310                1.00000000               -0.26591000               -0.07822193                1.40546666               -0.16038190                0.05061033                0.19051195
               1.02752180                5.99999174                1.99900245                0.81999081               -0.02996694               -0.01850545               -0.01776489               -0.21704686               -0.09812571               -0.23176705
               2.02958156                5.99580563                1.96414229                0.10839164                0.91359376                0.09034503               -2.07886505                0.06771381                2.23154165               -0.87443319
               3.04579367                5.99868603                1.97798840                0.00010000                1.16294298                0.17634353               -1.93978271                0.74585796                5.44160205                0.10613777
               4.05284042                6.00209718                1.99846110                0.00010000                0.48704125                0.02638669               -0.33335349                0.79658551                6.02862502                0.22744585
               5.05553450                6.00494290                2.00741485                0.00010000                0.13023399               -0.06744140                0.69689455                0.87784520                5.88484621                0.49753768
               6.05544510                6.00886000                2.01789187                0.00010000               -0.51544247               -0.10808681                1.89255929                1.14481165                6.92948180                0.88105953
               7.04522565                6.01659453                2.05064108                0.13117888               -1.31387897               -0.00785860                4.04327278                0.53834947                5.56667114                2.29652680
               8.02916752                6.01296116                2.04477986                0.46139078               -0.82120495                0.02073960                2.37014312               -0.45373112                1.20067947                1.78357468
               9.02880155                6.00560065                1.99549917                1.00000000                0.14612127                0.13040620               -0.28514275               -0.35213590               -0.85739304                0.95314198
              10.03208995                6.00343093                1.94965478                1.00000000                0.32883948                0.12727672               -2.54716309               -0.17526826               -0.82540267                0.46737105
               0.02986188                7.00082806                2.02551657                1.00000000               -0.18080583               -0.04929203                1.23712305               -0.12376143                0.02417501                0.11003353
               1.02805382                7.00007754                1.99365459                0.80646266                0.04425335                0.04117165               -0.34569191               -0.14274857               -0.22513369               -0.19307953
               2.03074694                6.99722221                1.95484100                0.10367470                1.07499115                0.21621958               -2.63085382                0.09977728                2.73606509               -0.69788622
               3.04955364                7.00022895                1.97880544                0.00010000                1.31867498                0.15250687               -1.98911098                0.55665084                6.22165196                0.14162503
               4.05712044                7.00205229                1.99903639                0.00010000                0.54307827               -0.03919296               -0.26740608                0.53594780                6.44653730                0.21392974
               5.06041521                7.00377710                2.00945592                0.00010000                0.17399793               -0.18278448                0.91233166                0.67684788                6.44673819                0.39437251
               6.06060040                7.00704834                2.02229604                0.00010000               -0.61749678               -0.27218967                2.41412042                1.03520496                8.03960218                0.71284843
               7.04806527                7.01555216                2.06893488                0.14385481               -1.51153287               -0.25254369                5.16929483                0.43818073                6.37499110                2.44212140
               8.03036974                7.01221370                2.06097223                0.48567444               -0.89207257               -0.18384199                3.24919447               -0.33076182                1.08610141                1.59840830
               9.03022382                7.00622386                2.00699411                1.00000000                0.11189697               -0.00348563                0.36439137               -0.25360162               -1.00205171                0.90556413
              10.03260768                7.00415983                1.95907632                1.00000000                0.23838644                0.02876810               -2.06991016               -0.15437617               -0.80975291                0.53574101
               0.02920671                8.00039683                2.02187671                1.00000000               -0.09340404               -0.06876677                1.06204665               -0.07954781                0.00347857                0.01965447
               1.02827267                8.00081517                1.98878899                0.81173629                0.11094893                0.12444492               -0.65062599               -0.04850186               -0.32487442               -0.12517919
               2.03142569                8.00013002                1.94713135                0.10585689                1.19119740                0.37489643               -3.09524706                0.07515035                3.10073878               -0.34020826
               3.05209662                8.00173617                1.97858498                0.00010000                1.42927675                0.19041574               -2.05341248                0.24100560                6.81148065                0.04607566
               4.06001123                8.00131332                1.99945446                0.00010000                0.59893931               -0.10484740               -0.22326532                0.21571011                6.80514095                0.14600331
               5.06407541                8.00128721                2.01126168                0.00010000                0.21814585               -0.34525126                1.10287305                0.38559573                6.90267204                0.19183840
               6.06437414                8.00341621                2.02609414                0.00010000               -0.76257527               -0.51220793                2.90819299                0.82286585                9.22650694                0.38400967
               7.04882390                8.01154366                2.09032881                0.16394415               -1.62467802               -0.54402123                6.22021785                0.26133085                7.05540066                2.42377672
               8.03188058                8.00928432                2.07493787                0.52512724               -0.85202575               -0.37754150                4.02364971               -0.16870434                0.72510632                1.20355640
               9.03178339                8.00553094                2.01734577                1.00000000                0.06249464               -0.14954383                0.96050854               -0.12638450               -1.08755853                0.69887355
              10.03313048                8.00400629                1.96836628                1.00000000                0.13470899               -0.01531349               -1.59557783               -0.13312466               -0.74451435                0.55396449
               0.02743424                8.99945272                2.01785646                1.00000000               -0.00836488               -0.13985415                0.89643989               -0.04434383               -0.02153193               -0.05015250
               1.02735059                9.00256644                1.98451438                0.82352151                0.19473570                0.24562739               -0.93654725               -0.00521088               -0.33012724               -0.04937252
               2.03132895                9.00472014                1.94299337                0.11742629                1.29199304                0.59392649               -3.39547807               -0.08257020                3.19520048                0.06824997
               3.05319045                9.00403727                1.97572847                0.00010000                1.52773229                0.20721791               -2.17802249               -0.03770038                7.03338427                0.00757285
               4.06188360                8.99995534                1.99979222                0.00010000                0.64168901               -0.13407384               -0.21499896               -0.05936540                7.19310767                0.03987944
               5.06602423                8.99687208                2.01257225                0.00010000                0.24588392               -0.53211635                1.25473462                0.10913400                7.21852442               -0.04122291
               6.06680128                8.99680418                2.02826360                0.00010000               -0.93002264               -1.01957618                3.36089948                0.51673871               10.42698386                0.02034871
               7.04742378                9.00467173                2.11324115                0.19332698               -1.68964526               -0.75888566                6.95464929                0.20818514                7.56212455                1.65831859
               8.03300837                9.00466287                2.08493527                0.58275864               -0.72248117               -0.47829093                4.58528737                0.03464966                0.09639170                0.67928402
               9.03297415                9.00323298                2.02499946                1.00000000               -0.00069443               -0.36052848                1.44275394               -0.09236932               -1.08967453                0.38075992
              10.03299448                9.00385356                1.97724898                1.00000000                0.00203281                0.06941697               -1.16247806               -0.14382452               -0.56291695                0.43996642
               0.02209241                9.99759975                2.01384234                1.00000000                0.08086247               -0.18529766                0.65505352                0.27861437               -0.02584611               -0.04043545
               1.02290103               10.00572772                1.98083917                0.89641933                0.31055228                0.31612818               -1.18492464                0.27548474               -0.31106104               -0.03869850
               2.02830346               10.01200855                1.94054449                0.56226982                1.66031916                0.72884067               -3.51757609               -0.29490922                3.14841582                0.23119972
               3.05610742               10.00588053                1.97367407                0.44965484                1.88428263                0.18432579               -2.23800269               -0.37713840                7.29688185               -0.06569291
               4.06598911                9.99863184                2.00082846                0.42874041                0.66509140               -0.13234927               -0.19552409               -0.35123087                7.63293802               -0.15707091
               5.06940925                9.99064489                2.01473617                0.44859906                0.04600764               -0.62271909                1.32793185               -0.44185625                7.48310660               -0.25099872
               6.06690926                9.98302469                2.03099497                0.50238967               -1.21401675               -1.37794903                3.54694027                0.29685129               10.92746687               -0.26101825
               7.04512891                9.99636594                2.12474264                0.60643109               -1.64484671               -0.83057921                7.31896551                0.60520410                7.74036642                0.81990029
               8.03401233                9.99971850                2.09090896                0.80696254               -0.71918026               -0.49443687                4.94915289                0.19811708               -0.17343796                0.39156768
               9.03074531                9.99832037                2.02968086                1.00000000               -0.24997511               -0.49126123                1.84691592                0.06092183               -1.06197661                0.25453706
              10.02901282               10.00539463                1.98347281                1.00000000               -0.17324814                0.15410701               -0.70998485                0.30926055               -0.38104870                0.25643887
               0.03123444                0.03382019                3.07393991                1.00000000               -0.60723287               -0.70609639                2.46084161               -0.21069575               -0.35626419                0.39833338
               1.02516211                0.02102557                3.04970739                1.00000000               -0.45658213               -0.47789360                1.67832807               -0.17417091               -0.37828150                0.00141188
               2.02210280                0.00808037                3.02516816                0.73981841               -0.08827752               -0.27092228                0.89471045               -0.03604061               -0.24351757               -0.31143989
               3.02339656               -0.00212968                3.00323887                0.53476460                0.39760639               -0.08725382                0.16845669                0.19237958                0.51704619               -0.09405707
               4.03005493               -0.00513403                2.99312358                0.44955778                0.65081478               -0.06237151               -0.23957001                0.22075815                1.81928739               -0.04084746
               5.03641286               -0.00069870                2.99544743                0.45041212                0.28085629               -0.00782112               -0.27395370                0.11242030                2.54823383                0.02326635
               6.03567205                0.00343335                2.99628945                0.52958808               -0.18038862                0.10070782               -0.34475523                0.16443552                1.89776300                0.08406585
               7.03280509                0.00001567                2.98374935                0.69929713               -0.12298655                0.23287500               -0.76728789                0.18662145                0.73332119                0.09746107
               8.03321232               -0.00986074                2.96068580                0.99189853                0.24124275                0.35235094               -1.34464952               -0.01796280                0.03133344                0.23024147
               9.03762994               -0.02299110                2.93421090                1.00000000                0.59304296                0.61594452               -2.10578457               -0.17932956               -0.20154012                0.08570475
              10.04507318               -0.03568486                2.90748753                1.00000000                0.74432403                0.92850911               -2.97229003               -0.20453498               -0.23546642               -0.30488458
               0.04192210                1.02675922                3.06645493                1.00000000               -0.56317899               -0.64635114                2.27684698               -0.11978806               -0.00770283                0.53205045
               1.03629031                1.01624663                3.04203522                1.00000000               -0.43010447               -0.42543027                1.44051463               -0.08800306                0.03141995               -0.00815020
               2.03332001                1.00537114                3.01812817                0.35656469               -0.21813779               -0.22263128                0.63216349                0.07971119                0.43594899               -0.50023016
               3.03192756                0.99699779                3.00157445                0.01094402               -0.08864967               -0.03159342                0.02335806                0.39673471                1.18399048               -0.62997871
               4.03154702                0.99424225                2.99365277                0.00010000                0.06629051                0.21315750               -0.33941258                1.07063728                2.04022680                0.00105687
               5.03325337                0.99922309                2.99577295                0.00010000                0.27061019                0.14313077               -0.26461659                1.32520637                2.49002884                0.11263482
               6.03695922                1.00444043                2.99638195                0.02287543                0.40324893                0.08750008               -0.22385649                1.12924239                2.05575234                0.20433173
               7.04131835                1.00234442                2.98527455                0.29054816                0.37884269                0.30178814               -0.62298062                0.61281142                1.26086423                0.51798645
               8.04453608                0.99366277                2.96617851                0.77233144                0.37151804                0.30857152               -1.01310001                0.08786100                0.61429143                0.39344074
               9.04874871                0.98316834                2.94141253                1.00000000                0.55927567                0.57541657               -1.91544240               -0.00216123                0.21719493                0.12554393
              10.05572159                0.97360023                2.91447522                1.00000000                0.69728844                0.87781075               -2.80868794               -0.05527091                0.06494510               -0.51463903
               0.04986386                2.02089316                3.06176865                1.00000000               -0.50737334               -0.52135612                2.09483356               -0.12853499                0.06072071                0.66549997
               1.04479013                2.01251696                3.03417508                0.97629538               -0.34589980               -0.32571814                1.13371260               -0.09447905                0.09855600               -0.04391834
               2.04294587                2.00362774                3.00684001                0.17606237               -0.11649912               -0.12879322                0.24361228                0.10627244                0.58037020               -0.67831043
               3.04246015                1.99723846                2.98905828                0.00010000                0.31482514                0.00008474               -0.22793202                0.80450658                2.06123278               -0.96032686
               4.04924237                1.99912912                2.99596210                0.00010000                0.51293291                0.33304112               -0.34823024                1.76342009                3.26493498                0.04983820
               5.05271881                2.00216392                2.99891557                0.00010000                0.29466011                0.26163728               -0.18679397                2.00623900                3.09531330                0.29165919
               6.05513557                2.00518336                2.99935496                0.00010000                0.15600848                0.14561607               -0.12572953                1.75896866                2.89549067                0.51595653
               7.05583898                2.00605143                2.99618222                0.13410871               -0.04949786                0.36011531               -0.01631996                0.77595003                1.76065576                1.32666163
               8.05414562                1.99631069                2.97601550                0.45663332                0.09051416                0.22396823               -0.29894556                0.05011295                0.73400053                0.93927310
               9.05764926                1.98851723                2.94909155                1.00000000                0.44791882                0.44043328               -1.51815331                0.10095952                0.35696666                0.15106903
              10.06310399                1.98187135                2.91699672                1.00000000                0.54547331                0.67175757               -2.30825504               -0.04303938               -0.03513004               -0.87206328
               0.05610381                3.01633210                3.05712757                1.00000000               -0.44376527               -0.39743320                1.88056596               -0.09740721                0.06461805                0.61881879
               1.05166615                3.00973227                3.02566507                0.90100209               -0.26899196               -0.24050479                0.86005290               -0.05188716                0.12965540               -0.10670300
               2.05072397                3.00279528                2.99502870                0.13827446                0.04250789               -0.07624068               -0.07870199                0.07266546                0.70296912               -0.71485289
               3.05251631                2.99699948                2.97580463                0.00010000                0.55829976                0.00402481               -0.45965399                0.81967579                2.96006124               -0.64546125
               4.06188996                3.00090308                2.99340997                0.00010000                0.74037987                0.15238021               -0.47042927                1.55755347                4.49541354               -0.05907174
               5.06732391                3.00445583                3.00189995                0.00010000                0.31805601                0.18204520               -0.04085172                1.64492637                4.11989321                0.35458610
               6.06825108                3.00735275                3.00786647                0.00010000               -0.08069495                0.19092895                0.29976390                1.44269311                4.23243498                0.82716875
               7.06571001                3.00954672                3.01636378                0.13430547               -0.25892730                0.29165730                0.52152922                0.40969454                2.88278358                1.75306019
               8.06307254                2.99814214                2.99293288                0.43599230               -0.02513866                0.19423538               -0.13462761               -0.11717579                0.79356875                1.18657932
               9.06520724                2.99197701                2.95665490                0.99610734                0.25400101                0.25985006               -0.85535371                0.07324059                0.17614237                0.28772455
              10.06815256                2.98703538                2.91792880                1.00000000                0.29453201                0.37137021               -1.39448422               -0.02591131               -0.02798635               -0.76971162
               0.06111538                4.01294450                3.05219463                1.00000000               -0.38261758               -0.29129058                1.65949431               -0.07692627                0.06785343                0.54818262
               1.05728921                4.00770687                3.01682327                0.85453590               -0.19917099               -0.17301429                0.62937448               -0.02804989                0.12669788               -0.14702675
               2.05713196                4.00210293                2.98217356                0.11942139                0.17283302               -0.05775669               -0.29359294                0.07621651                1.13785426               -0.74050789
               3.06074587                3.99731895                2.96779719                0.00010000                0.79025615                0.08362949               -0.78568993                0.79372001                3.85676985               -0.27100651
               4.07293709                4.00217672                2.99201759                0.00010000                0.92108934                0.10948227               -0.53814171                1.46833441                5.44373968                0.10363622
               5.07916765                4.00580482                3.00542322                0.00010000                0.29807298                0.09312870                0.14793487                1.44875544                5.06368314                0.42076633
               6.07889855                4.00900194                3.01748292                0.00010000               -0.29620851                0.10788350                0.77081360                1.28740920                5.46197565                0.86889049
               7.07324348                4.01188458                3.03704328                0.14066269               -0.47633661                0.16084386                1.19207187                0.24432689                3.70379492                1.74563223
               8.06937181                4.00019540                3.01083185                0.44400491               -0.15113291                0.17756145                0.03150352               -0.32929365                0.87056443                1.11685629
               9.07022083                3.99371423                2.96686439                0.99997797                0.15486046                0.17153837               -0.57660260               -0.06803477                0.06042190                0.41815050
              10.07246902                3.98929876                2.92271289                1.00000000                0.22481970                0.20703707               -1.11140771               -0.02813021               -0.01792196               -0.46321551
               0.06504055                5.01050629                3.04710563                1.00000000               -0.30938206               -0.20842709                1.44801922               -0.07294997                0.06682069                0.47474631
               1.06194673                5.00627198                3.00798429                0.81864249               -0.12021688               -0.11095085                0.37322398               -0.01639123                0.11673198               -0.16284984
               2.06263621                5.00164015                2.96944239                0.10418879                0.31850946               -0.01451912               -0.51030465                0.13197919                1.72883822               -0.69860051
               3.06831692                4.99867207                2.96337749                0.00010000                1.00672866                0.15620739               -1.07197704                0.79631988                4.79784181               -0.02618280
               4.08277078                5.00309272                2.99223156                0.00010000                1.05784439                0.06812300               -0.54151651                1.30632505                6.19996502                0.21673524
               5.08947381                5.00631841                3.00953718                0.00010000                0.25743633                0.00011151                0.36991324                1.28219170                5.89159569                0.45049352
               6.08791951                5.00951042                3.02750556                0.00010000               -0.50353610               -0.01971070                1.27027721                1.15103115                6.61160293                0.86952406
               7.07940308                5.01276360                3.05849697                0.14858134               -0.66312509                0.00672315                1.78687470                0.17864587                4.44879982                1.72631374
               8.07465701                5.00169337                3.02908423                0.45605429               -0.23299493                0.10936037                0.16811431               -0.35840840                0.93803669                1.02779899
               9.07474319                4.99540778                2.97968187                1.00000000                0.08819457                0.15057210               -0.37908901               -0.08864150                0.01186716                0.47742255
              10.07642090                4.99117612                2.93109043                1.00000000                0.16777156                0.17240622               -0.95764911               -0.03307595               -0.02931303               -0.25062474
               0.06812500                6.00877596                3.04188735                1.00000000               -0.22974707               -0.15035705                1.23894819               -0.06298161                0.06871898                0.39476698
               1.06582753                6.00548785                2.99945180                0.79124295               -0.03767688               -0.04528887                0.10813037               -0.00041425                0.10447319               -0.15442290
               2.06737146                6.00181255                2.95737875                0.09166664                0.46960825                0.06324655               -0.73304379                0.17877336                2.38566843               -0.61935607
               3.07521969                6.00044310                2.96134693                0.00010000                1.20228958                0.18066927               -1.26567630                0.71590933                5.75159413                0.12650201
               4.09141725                6.00353918                2.99334286                0.00010000                1.15870474                0.01141166               -0.50098398                1.05588765                6.83541757                0.25030143
               5.09839379                6.00580705                3.01394371                0.00010000                0.20283636               -0.11340371                0.60990416                1.06900439                6.65020508                0.43136895
               6.09547398                6.00860772                3.03785075                0.00010000               -0.68801621               -0.17309841                1.77681496                0.98516625                7.74456978                0.84424263
               7.08463346                6.01201904                3.08085002                0.15836772               -0.79572538               -0.18021812                2.26629133                0.16912425                5.13933041                1.66907697
               8.07955947                6.00238261                3.04745504                0.47268719               -0.28341108                0.01301652                0.31791126               -0.29263764                0.92606737                0.92496527
               9.07896524                5.99672567                2.99350806                0.99935461                0.03556717                0.09790832               -0.18153336               -0.07769192               -0.03467802                0.46472557
              10.08027081                5.99274688                2.94126267                1.00000000                0.13055739                0.13815764               -0.82458889               -0.03293579               -0.02856586               -0.13804418
               0.07035713                7.00749915                3.03651720                1.00000000               -0.14552785               -0.12142597                1.03366439               -0.05183826                0.06959420                0.30817153
               1.06890186                7.00536620                2.99134555                0.77108818                0.04496463                0.02348448               -0.15997481                0.01818111                0.09027170               -0.12489394
               2.07125643                7.00290508                2.94629709                0.08113660                0.60033055                0.16868410               -0.95882676                0.17049721                3.02257157               -0.49293083
               3.08090847                7.00228546                2.96035834                0.00010000                1.36340805                0.18670043               -1.37759685                0.48415328                6.65533656                0.16021551
               4.09852459                7.00332095                2.99465974                0.00010000                1.24384437               -0.06555505               -0.44782761                0.69796690                7.39694416                0.21297586
               5.10578535                7.00405033                3.01825253                0.00010000                0.14431295               -0.25385120                0.84732412                0.79200271                7.37671887                0.36405399
               6.10141085                7.00604846                3.04828257                0.00010000               -0.83873360               -0.34512774                2.27071512                0.75904713                8.86636363                0.78081837
               7.08901068                7.00915924                3.10337793                0.17018283               -0.86566123               -0.39408147                2.56907378                0.18506274                5.77637100                1.52185687
               8.08409762                7.00195370                3.06498901                0.49387265               -0.30928048               -0.10860024                0.48469319               -0.16728036                0.82958752                0.77338315
               9.08282507                6.99736594                3.00733394                0.99852224               -0.01889275                0.02420268                0.03577880               -0.05213920               -0.07488201                0.40386689
              10.08371977                6.99393927                2.95210120                1.00000000                0.08946948                0.10677566               -0.68264961               -0.04046254               -0.02046192               -0.07537973
               0.07135412                8.00634744                3.03093226                1.00000000               -0.05688979               -0.12332857                0.83575205               -0.04644524                0.07318421                0.22413419
               1.07078522                8.00595754                2.98381803                0.75489918                0.12540176                0.10086797               -0.42989607                0.01964860                0.09521117               -0.08183594
               2.07386215                8.00518623                2.93691063                0.07254911                0.68508304                0.30462401               -1.19549648                0.05089219                3.54944267               -0.28379561
               3.08448688                8.00417711                2.95906309                0.00010000                1.48747796                0.15780364               -1.43145977                0.01705304                7.42319231                0.06306168
               4.10361171                8.00222808                2.99554068                0.00010000                1.35097292               -0.19264717               -0.41284997                0.26002534                7.93491748                0.10970486
               5.11150634                8.00073003                3.02206235                0.00010000                0.09671530               -0.41706891                1.05914584                0.48398132                8.08451243                0.26596830
               6.10554602                8.00170517                3.05816543                0.00140893               -0.95384304               -0.52750108                2.72500900                0.49721160                9.93856733                0.70133268
               7.09242948                8.00413741                3.12440071                0.18394066               -0.87694293               -0.52318385                2.55857754                0.20907199                6.37582716                1.14646784
               8.08800716                8.00021060                3.08044855                0.51929201               -0.32463001               -0.22894111                0.67445227               -0.02212532                0.68262204                0.51648257
               9.08593688                7.99720973                3.02024480                0.99842094               -0.08461294               -0.06382072                0.28125468               -0.03698158               -0.09399492                0.30602984
              10.08631490                7.99488239                2.96278504                0.99988890                0.03780225                0.09836654               -0.54111487               -0.06264032               -0.00691992               -0.06214847
               0.07020803                9.00503258                3.02513132                1.00000000                0.02480097               -0.13666158                0.64857657               -0.05379136                0.08453883                0.14797280
               1.07045604                9.00738356                2.97687547                0.71023422                0.19233354                0.19104157               -0.71945555                0.00703273                0.18656393               -0.04976213
               2.07405470                9.00899756                2.93044424                0.05926824                0.68758173                0.38626708               -1.50949472               -0.21103134                3.90501641               -0.05559398
               3.08420767                9.00544153                2.95660960                0.00010000                1.65587389               -0.04151231               -1.37339891               -0.37788800                8.00598447               -0.07053620
               4.10717218                8.99946801                2.99569819                0.00010000                1.58901110               -0.36681178               -0.42592724               -0.07230717                8.48858655               -0.01360902
               5.11598790                8.99570896                3.02510040                0.00010000                0.03877587               -0.50278932                1.21736814                0.20726099                8.79735489                0.15861903
               6.10794770                8.99549843                3.06721930                0.00051398               -1.06506048               -0.62041763                3.11995551                0.30478489               10.74002127                0.50419192
               7.09468669                8.99869556                3.13910022                0.18694703               -0.86824481               -0.54255484                2.15432095                0.22820537                6.83373348                0.58051000
               8.09058280                8.99737487                3.09162789                0.52445856               -0.36365184               -0.24811766                0.89915912                0.07239616                0.70519819                0.21276694
               9.08741365                8.99608953                3.03167340                0.99979788               -0.17305873               -0.16086547                0.61813916               -0.03702256               -0.02808616                0.19970428
              10.08712162                8.99590661                2.97237460                0.99967752               -0.02920246                0.08710570               -0.41520805               -0.07827369               -0.01798594               -0.09235044
               0.06557631               10.00361421                3.01859268                1.00000000                0.13845794               -0.14183694                0.38976652                0.15324457                0.22145261                0.14279030
               1.06696089               10.00977837                2.97035672                0.81842932                0.30036234                0.23948055               -1.04081300                0.11535332                0.43777974               -0.05581247
               2.07158356               10.01291157                2.92615138                0.51971469                0.97488869                0.39140117               -1.82213466               -0.56868951                4.28442585                0.00031905
               3.08645867               10.00334686                2.95519975                0.43798035                2.01572905               -0.20946666               -1.36771776               -0.67588702                8.49739288               -0.31125788
               4.11189814                9.99489185                2.99604876                0.42726392                1.65812338               -0.45761647               -0.51981382               -0.16103501                8.76779030               -0.10780666
               5.11962113                9.99067424                3.02655714                0.44731825               -0.16215155               -0.50347168                1.19616155                0.08357209                9.05554339                0.15836787
               6.10865511                9.98929681                3.07094836                0.49472187               -1.22519939               -0.62016207                3.22666894                0.20134499               11.22483204                0.68412775
               7.09511715                9.99328631                3.14642724                0.58242521               -0.82969979               -0.54092484                2.01937029                0.34061765                7.33807692                0.36191439
               8.09206111                9.99524825                3.09923091                0.74160057               -0.42262262               -0.21266238                1.16924567                0.18313659                0.91314515                0.06267729
               9.08666469                9.99399242                3.04121638                1.00000000               -0.34729212               -0.20971115                1.04433570               -0.00608272                0.23401749                0.24030614
              10.08511527                9.99662451                2.98120259                0.99999962               -0.15494219                0.07179031               -0.13910452                0.06257377                0.15141212               -0.17739778
               0.05590198                0.04644027                4.09865949                1.00000000               -0.59450710               -0.69863729                2.44908662               -0.18770183               -0.36920105                0.42937955
               1.04995691                0.02986355                4.06642834                1.00000000               -0.45079189               -0.46368209                1.66423142               -0.15071574               -0.36487640               -0.01702862
               2.04688614                0.01318378                4.03408117                0.72917819               -0.07044993               -0.26525789                0.89707470               -0.00246713               -0.19991941               -0.37156503
               3.04854791               -0.00036846                4.00518329                0.53050984                0.46884567               -0.12081182                0.21408014                0.24433027                0.73880786               -0.07082589
               4.05626306               -0.00538303                3.99107246                0.44982183                0.77510371               -0.09316960               -0.18820977                0.26800831                2.34218276               -0.03768575
               5.06404998               -0.00083303                3.99249454                0.45300514                0.39163196               -0.04940759               -0.30676257                0.13449020                3.14254292                0.02099429
               6.06409569                0.00328164                3.99210655                0.53317829               -0.14580234                0.09949355               -0.45372927                0.20839913                2.31634252                0.06016086
               7.06113394               -0.00181207                3.97571391                0.70076344               -0.12433600                0.25012582               -0.84781510                0.19937639                0.89803678                0.07278818
               8.06160897               -0.01496467                3.94664562                0.98634528                0.26567360                0.41672508               -1.45609847                0.03959227                0.02840829                0.24354894
               9.06644741               -0.03096248                3.91237946                1.00000000                0.61543561                0.62321471               -2.19634161               -0.10937186               -0.22423733                0.06920460
              10.07391769               -0.04664621                3.87770029                1.00000000                0.74702773                0.83674038               -2.93325390               -0.17763075               -0.24754670               -0.33535771
               0.07060168                1.03945390                4.08902130                1.00000000               -0.55236874               -0.64312964                2.22872900               -0.07654757               -0.00431792                0.58275942
               1.06507800                1.02522673                4.05628330                1.00000000               -0.43121052               -0.41938552                1.42548628               -0.05181168                0.04352541               -0.02750827
               2.06197747                1.01053120                4.02431466                0.32727575               -0.24016882               -0.22473097                0.64165127                0.09642515                0.55220659               -0.61428386
               3.06027462                0.99842343                4.00199352                0.00010000               -0.14010242               -0.04381050                0.07039528                0.46114828                1.53202226               -0.72439137
               4.05917542                0.99368527                3.99044602                0.00010000                0.03939661                0.27538308               -0.28484985                1.25003725                2.70502421                0.06127428
               5.06106255                0.99867290                3.99299689                0.00048657                0.37468914                0.12347922               -0.27873716                1.56026516                3.32881934                0.13537415
               6.06666921                1.00427657                3.99366606                0.02337525                0.55941524                0.02016735               -0.30016690                1.29052249                2.64989760                0.20099259
               7.07225086                1.00068919                3.97949602                0.28091078                0.49554465                0.23569124               -0.61399868                0.64612684                1.55153803                0.73921294
               8.07658010                0.98920258                3.95551567                0.74116173                0.44718030                0.35454262               -1.13930701                0.19729428                0.73299723                0.57318443
               9.08119446                0.97526967                3.92281953                1.00000000                0.56225088                0.56307736               -1.85377887                0.01759516                0.20422747                0.14469685
              10.08782512                0.96172119                3.88750359                1.00000000                0.66306555                0.75797031               -2.60619445               -0.05928374                0.05349883               -0.52417787
               0.08282537                2.03357768                4.08224260                1.00000000               -0.49819978               -0.53015744                2.01807185               -0.08153657                0.06264514                0.72396287
               1.07784337                2.02147584                4.04579543                0.95390847               -0.36037106               -0.33654263                1.17529156               -0.05920077                0.09295747               -0.07989723
               2.07561795                2.00868916                4.00975651                0.16113928               -0.16132820               -0.15577195                0.34150270                0.14094090                0.71267780               -0.89191061
               3.07461681                1.99875533                3.98620304                0.00010000                0.26981917                0.07689326               -0.26753653                1.02437068                2.78112145               -1.30960537
               4.08101433                2.00012463                3.99240846                0.00010000                0.50235903                0.44150671               -0.30533188                2.06798309                4.10427197                0.04358276
               5.08466399                2.00163656                3.99648820                0.00010000                0.34377615                0.27012453               -0.24034733                2.28921891                3.87137508                0.32072545
               6.08788985                2.00368498                3.99818722                0.00010000                0.22332412                0.04184432               -0.14586521                2.01441410                3.66324462                0.60423354
               7.08913047                2.00290175                3.99642646                0.13267616                0.15422622                0.23056408               -0.08276857                1.07463999                2.39960691                1.69424781
               8.09097438                1.99212618                3.97016641                0.44376490                0.25751168                0.26587929               -0.68380814                0.26988094                0.94941603                1.21040519
               9.09428070                1.98029907                3.93480540                1.00000000                0.44272992                0.42251598               -1.42099039                0.07155841                0.27247197                0.24718820
              10.09982898                1.96851319                3.89493523                1.00000000                0.55482732                0.57737891               -2.15061040               -0.04562405                0.04603496               -0.72018006
               0.09317463                3.02885075                4.07544212                1.00000000               -0.43921346               -0.42266529                1.80504054               -0.07094073                0.06092113                0.69011011
               1.08878250                3.01849588                4.03470814                0.88917902               -0.28289179               -0.26294831                0.91790528               -0.04545291                0.10828646               -0.13414518
               2.08751679                3.00741576                3.99471711                0.12892169                0.02720346               -0.10509243                0.02156209                0.19175892                0.96163985               -0.96241720
               3.08932657                2.99996129                3.97152541                0.00010000                0.50685345                0.12296663               -0.36100356                1.14245968                3.81283860               -0.89432310
               4.09765386                3.00251541                3.98920019                0.00010000                0.69800050                0.18478752               -0.34516405                1.76894828                5.45593912               -0.10893587
               5.10328658                3.00407539                4.00085639                0.00010000                0.40192139                0.18509481               -0.11253954                1.83258279                5.03782359                0.42109820
               6.10569229                3.00511346                4.01012178                0.00010000                0.10079427                0.12593081                0.14806688                1.67893133                5.10680420                1.01876664
               7.10530246                3.00530047                4.02073462                0.13835395               -0.05559446                0.17906486                0.30457712                0.90935022                3.36764835                1.98159380
               8.10458040                2.99452016                3.99098919                0.42998908                0.04680795                0.16332438               -0.22454571                0.17141345                0.83180861                1.50272246
               9.10623862                2.98371999                3.94778161                0.97933562                0.29519966                0.26021904               -0.93416936                0.05900406                0.06712514                0.32926924
              10.11048440                2.97326877                3.90282914                1.00000000                0.42457760                0.38275263               -1.58037076               -0.04121985                0.04714973               -0.68473083
               0.10211630                4.02512437                4.06833098                1.00000000               -0.37470033               -0.33280228                1.59057697               -0.05614482                0.06107281                0.63540226
               1.09836930                4.01621687                4.02348769                0.84718026               -0.20642956               -0.19668794                0.67530054               -0.02519811                0.11061283               -0.16360532
               2.09798771                4.00658731                3.97937229                0.11243680                0.19985298               -0.05888276               -0.24426714                0.23757634                1.45519182               -0.98026557
               3.10236636                4.00121467                3.96178525                0.00010000                0.71457454                0.13336947               -0.47068535                1.10011006                4.93318350               -0.39340700
               4.11227920                4.00382038                3.98719485                0.00010000                0.81756163                0.10092901               -0.36522437                1.58775685                6.60019094                0.06030062
               5.11871759                4.00533845                4.00629920                0.00010000                0.39820987                0.07699607                0.06477741                1.56378384                6.21993657                0.51165492
               6.12024340                4.00620360                4.02412844                0.00010000               -0.04034101                0.05596358                0.51785516                1.40401850                6.50448250                1.10268374
               7.11791077                4.00648305                4.04564290                0.14796944               -0.21301360                0.05641990                0.69160379                0.63416874                4.16267372                1.93953390
               8.11598313                3.99539267                4.01092663                0.44239763               -0.05992937                0.06057664                0.02498957                0.02331574                0.76075154                1.40415301
               9.11671218                3.98550345                3.96143572                0.98688304                0.19619499                0.14002619               -0.58852330                0.02522040                0.00898301                0.43151323
              10.11990703                3.97616824                3.91151238                1.00000000                0.31948437                0.23916318               -1.20536121               -0.03922879                0.04326591               -0.53288541
               0.10986673                5.02219470                4.06105879                1.00000000               -0.30511420               -0.26289685                1.37597216               -0.04775533                0.05836071                0.57936992
               1.10681559                5.01456212                4.01223097                0.81161643               -0.12981037               -0.13374236                0.43270792               -0.01030180                0.10890748               -0.17372235
               2.10727053                5.00623811                3.96418097                0.09763039                0.36400537               -0.00117548               -0.50341904                0.27393258                2.10737885               -0.93845222
               3.11409570                5.00262868                3.95568490                0.00010000                0.90073442                0.15102756               -0.58893797                1.03954883                6.10317834               -0.04528123
               4.12528522                5.00453399                3.98718330                0.00010000                0.90416660                0.04273234               -0.36222836                1.38297099                7.58479470                0.21098996
               5.13217903                5.00561531                4.01270915                0.00010000                0.36714242               -0.02417587                0.27310784                1.35059327                7.30583177                0.56454081
               6.13262806                5.00623273                4.03869770                0.00010000               -0.16911316               -0.06178748                0.90048900                1.20001776                7.83158736                1.10207434
               7.12879677                5.00642887                4.07076806                0.15713566               -0.33008731               -0.06939725                1.01548906                0.49980817                4.91002686                1.88695704
               8.12602632                4.99573170                4.03095916                0.45589678               -0.14146584                0.00815095                0.22040631               -0.04303293                0.71493435                1.33982962
               9.12596745                4.98652051                3.97619550                1.00000000                0.11719591                0.08698240               -0.36288822               -0.00457425               -0.01838860                0.50207712
              10.12837024                4.97805203                3.92160521                1.00000000                0.24027837                0.17455144               -0.98760194               -0.04172838                0.03071516               -0.36965520
               0.11642637                6.01986644                4.05367207                1.00000000               -0.23065113               -0.21240644                1.16248624               -0.04592406                0.05478772                0.51898198
               1.11411986                6.01354203                4.00116505                0.78181983               -0.05132853               -0.06743411                0.18044815               -0.00194303                0.10461937               -0.16329137
               2.11539980                6.00656380                3.94948141                0.08401617                0.53707997                0.07968038               -0.77832805                0.28041229                2.87091585               -0.85379765
               3.12486146                6.00423522                3.95267487                0.00010000                1.07760977                0.15442151               -0.66553430                0.91566225                7.29431728                0.17669252
               4.13695199                6.00467503                3.98844142                0.00010000                0.95846273               -0.02100050               -0.33601833                1.12498208                8.42982953                0.26980519
               5.14403071                6.00485494                4.01961293                0.00010000                0.32391009               -0.13378818                0.49344347                1.12202719                8.32398465                0.56591352
               6.14343019                6.00496785                4.05342817                0.00010000               -0.28113716               -0.19413546                1.26310472                1.02071884                9.12800690                1.06681822
               7.13840797                6.00509511                4.09596691                0.16668097               -0.41996867               -0.19951306                1.27286539                0.43386601                5.62795592                1.80884977
               8.13503082                5.99555569                4.05113809                0.47155375               -0.20538018               -0.05219232                0.41260491               -0.04364203                0.66273747                1.24695991
               9.13430036                5.98724310                3.99186850                0.99938182                0.04893023                0.05219747               -0.16514034               -0.01249428               -0.03002515                0.51730505
              10.13600942                5.97965927                3.93316300                1.00000000                0.17090617                0.15389186               -0.82147180               -0.04369885                0.01910727               -0.24749301
               0.12159707                7.01794657                4.04618986                1.00000000               -0.15177108               -0.18005191                0.95293864               -0.04968913                0.05243278                0.45764739
               1.12007936                7.01321343                3.99045510                0.75523451                0.02942531                0.00532484               -0.08251747               -0.00180964                0.10482569               -0.13683664
               2.12218558                7.00783172                3.93566446                0.07084328                0.71091795                0.18715792               -1.07133596                0.21366822                3.65525416               -0.72216069
               3.13429772                7.00571711                3.95125350                0.00010000                1.24897800                0.12554590               -0.72002798                0.66756124                8.45481002                0.23211742
               4.14716514                7.00411398                3.99007984                0.00010000                1.00145150               -0.11030300               -0.29971575                0.79903762                9.19915544                0.23668116
               5.15432675                7.00293955                4.02640240                0.00010000                0.28185650               -0.25481173                0.70578545                0.86731218                9.30438935                0.51774796
               6.15280227                7.00235002                4.06771034                0.00297033               -0.37202491               -0.32308565                1.58010638                0.84380014               10.39468825                0.98301299
               7.14688625                7.00243861                4.12031635                0.17613365               -0.48983929               -0.31721947                1.45566386                0.39935914                6.30399654                1.62729322
               8.14300548                6.99468785                4.07066609                0.48830478               -0.26361364               -0.12903004                0.62362982               -0.01080159                0.60799352                1.08291091
               9.14161398                6.98756446                4.00770969                0.99857856               -0.01707857                0.00344874                0.04242803               -0.01456727               -0.02751793                0.46966571
              10.14266391                6.98112987                3.94542332                1.00000000                0.10499319                0.14153283               -0.66756330               -0.04835082                0.01148859               -0.19895075
               0.12489886                8.01626540                4.03859175                1.00000000               -0.07003435               -0.15974054                0.74880215               -0.05970608                0.06044236                0.40563125
               1.12419852                8.01364852                3.98019107                0.72463719                0.11353098                0.09095321               -0.36497037               -0.01344232                0.13331085               -0.11220436
               2.12716948                8.01030696                3.92322142                0.05670249                0.88659491                0.32678992               -1.40700600                0.03035926                4.38443274               -0.53007920
               3.14193042                8.00674614                3.94995578                0.00010000                1.42704130                0.03863841               -0.77364534                0.29602332                9.54121069                0.15871695
               4.15571031                8.00246897                3.99119746                0.00010000                1.06052441               -0.24694473               -0.27103546                0.45059772                9.94884546                0.12889455
               5.16314091                7.99975870                4.03244459                0.00010000                0.25484125               -0.36949385                0.88547559                0.60803205               10.25518693                0.42419231
               6.16080714                7.99850614                4.08059432                0.00465567               -0.45417934               -0.41224710                1.82642000                0.68958137               11.55934175                0.82579708
               7.15405732                7.99875072                4.14150036                0.18229647               -0.55591021               -0.40916012                1.55715696                0.36362731                6.92717427                1.23291252
               8.14968893                7.99297509                4.08842691                0.50045372               -0.32451601               -0.22759975                0.87698035                0.00475150                0.63166216                0.81302441
               9.14756700                7.98731207                4.02297086                0.99847550               -0.08886657               -0.06544890                0.28149460               -0.02167072                0.01049101                0.38231443
              10.14791160                7.98248993                3.95754398                0.99971793                0.03445989                0.12295670               -0.50591398               -0.05379181                0.00638539               -0.22084237
               0.12563670                9.01475176                4.03082799                1.00000000                0.01322484               -0.13662795                0.54361540               -0.06720121                0.07918047                0.31520245
               1.12576895                9.01503250                3.97012527                0.66673351                0.20292241                0.20002267               -0.68857253               -0.02424242                0.25055354               -0.10227120
               2.12969515                9.01436751                3.91280347                0.03573751                1.11436165                0.51468362               -1.84436198               -0.32815807                5.07563462               -0.31217473
               3.14805618                9.00648988                3.94826049                0.00010000                1.67346894               -0.21355310               -0.83045976               -0.04824750               10.54733230                0.04799836
               4.16316453                8.99917508                3.99127368                0.00010000                1.11970192               -0.33471931               -0.26650815                0.16685006               10.65298622                0.01357714
               5.17045022                8.99554967                4.03691961                0.00010000                0.22186760               -0.44299672                0.99470532                0.37047979               11.09727338                0.27511807
               6.16760188                8.99410508                4.09066271                0.00010000               -0.53801850               -0.46285152                1.94154905                0.47172037               12.49101850                0.54052092
               7.15968985                8.99425540                4.15632757                0.17508640               -0.65313624               -0.49002569                1.72726623                0.27906818                7.50084503                0.65697562
               8.15453916                8.99013586                4.10291845                0.48807651               -0.40120644               -0.36045318                1.25541231               -0.01013829                0.89953591                0.46545352
               9.15166572                8.98625549                4.03736225                0.99958636               -0.16533950               -0.16357715                0.57665903               -0.03299429                0.15766078                0.27242486
              10.15123237                8.98358900                3.96894482                0.99943861               -0.04333566                0.08503834               -0.30799360               -0.05879583                0.00380484               -0.24148867
               0.12299337               10.01353284                4.02163767                1.00000000                0.11045508               -0.12189258                0.27866303                0.14728064                0.24589284                0.25925800
               1.12409792               10.01764898                3.96002291                0.80390928                0.30777857                0.26164767               -1.03368988                0.18628701                0.52279718               -0.09294580
               2.12914894               10.02060064                3.90410179                0.50914180                1.60299902                0.62331204               -2.26310095               -0.81331584                5.72817674               -0.11922427
               3.15615790               10.00247507                3.94631971                0.43472431                2.04192901               -0.40148050               -0.98534345               -0.43113080               11.35659186               -0.03962154
               4.16998752                9.99577458                3.99043218                0.42781852                0.97313017               -0.34005008               -0.34980626                0.10348399               11.08492717                0.02818061
               5.17562051                9.99089877                4.03865940                0.44915783                0.07741421               -0.46509013                1.02479074                0.19075473               11.59987457                0.18999897
               6.17153581                9.98924911                4.09552835                0.49609470               -0.60062983               -0.48559723                2.05802078                0.29596441               13.17164984                0.37146948
               7.16360791                9.98895020                4.16513004                0.58002561               -0.70248617               -0.53052006                1.96214501                0.21765147                8.17336529                0.34260126
               8.15748608                9.98576602                4.11429388                0.73031939               -0.50769698               -0.43698334                1.62193100                0.04920916                1.34846454                0.17973972
               9.15345397                9.98404053                4.05056757                1.00000000               -0.27087166               -0.22149539                0.91106140                0.10005833                0.46995515                0.20565961
              10.15206865                9.98419070                3.98069072                0.99986932               -0.13853189                0.06016943               -0.03096197                0.09864488                0.17181042               -0.23789449
               0.08831272                0.06168415                5.12292164                1.00000000               -0.58698173               -0.68528518                2.39928815               -0.17100508               -0.39748260                0.46330440
               1.08244291                0.04097507                5.08299201                1.00000000               -0.44816329               -0.46456928                1.65378739               -0.13264781               -0.38731376               -0.02581814
               2.07934946                0.02018208                5.04310965                0.72246031               -0.06307387               -0.27719552                0.91991460                0.02336027               -0.17420531               -0.42768004
               3.08118143                0.00283334                5.00752047                0.52611856                0.51189385               -0.13431275                0.25925834                0.28467395                0.92330381               -0.06848221
               4.08958733               -0.00463487                4.98935939                0.44961449                0.85240990               -0.12333887               -0.15184304                0.29983759                2.75724050               -0.03839755
               5.09822963               -0.00128352                4.98931218                0.45503259                0.45960997               -0.07795720               -0.32447633                0.14563055                3.62623702                0.01570223
               6.09877953                0.00151755                4.98721487                0.53479068               -0.10014384                0.08620592               -0.52347158                0.22738785                2.65381391                0.05612448
               7.09622675               -0.00609279                4.96679304                0.69967908               -0.08323005                0.25089166               -0.93864967                0.21490384                1.03786685                0.07150229
               8.09711493               -0.02272986                4.93156383                0.98409927                0.29318879                0.43355287               -1.53880341                0.05604100                0.02639615                0.26395287
               9.10209052               -0.04248713                4.89028406                1.00000000                0.61828303                0.61234793               -2.20063268               -0.08795572               -0.27556695                0.08627112
              10.10948059               -0.06199861                4.84882246                1.00000000                0.73900679                0.78803397               -2.84233867               -0.15686218               -0.29548518               -0.37487540
               0.10731175                1.05483129                5.11102951                1.00000000               -0.54442883               -0.63662693                2.17595410               -0.06527217               -0.00576687                0.62560808
               1.10186746                1.03632937                5.07054495                1.00000000               -0.43289141               -0.42404457                1.42746752               -0.03643546                0.04728520               -0.04722354
               2.09865392                1.01741012                5.03096120                0.30711175               -0.27154100               -0.23974963                0.68972452                0.13015988                0.66192998               -0.69697519
               3.09643664                1.00149021                5.00298235                0.00010000               -0.20048920               -0.06594385                0.12936340                0.54854089                1.84116176               -0.82008204
               4.09464414                0.99413174                4.98795577                0.00084193                0.00865378                0.29407386               -0.21866148                1.39510054                3.28364018                0.10204628
               5.09660972                0.99793691                4.99019821                0.00175677                0.44069548                0.10012227               -0.27908845                1.71928971                4.04473540                0.14478861
               6.10345805                1.00237961                4.99037861                0.02017846                0.69448879               -0.03526205               -0.36492975                1.40809452                3.17182788                0.19168206
               7.11049949                0.99641613                4.97299457                0.26794519                0.62072335                0.23952849               -0.70234043                0.74256151                1.81462088                0.84393893
               8.11587251                0.98160567                4.94339237                0.71828831                0.51729240                0.38875689               -1.25076401                0.24301390                0.82010156                0.63424500
               9.12084534                0.96363635                4.90433696                1.00000000                0.57754654                0.54930241               -1.84924757                0.02577089                0.22847641                0.19305995
              10.12742345                0.94588173                4.86235133                1.00000000                0.65781040                0.70704048               -2.47668311               -0.06123979                0.07699186               -0.50337371
               0.12401112                2.04895161                5.10213009                1.00000000               -0.48757490               -0.53926838                1.96752077               -0.07182168                0.06088177                0.77525266
               1.11913537                2.03249418                5.05768091                0.93530186               -0.36096519               -0.34861345                1.19344203               -0.04375476                0.09329912               -0.11447414
               2.11679181                2.01538708                5.01367007                0.14489113               -0.18523704               -0.17394791                0.42524405                0.17529318                0.80715586               -1.01541463
               3.11543063                2.00151446                4.98370755                0.00010000                0.21254157                0.10202974               -0.19710528                1.18564384                3.29176384               -1.38695151
               4.12104265                2.00124660                4.98985546                0.00010000                0.44684581                0.49031177               -0.21454086                2.31190477                4.91383048                0.05790656
               5.12436755                2.00071893                4.99410863                0.00010000                0.37097804                0.25649433               -0.23426724                2.50573950                4.69179772                0.35927012
               6.12846221                2.00081231                4.99643766                0.00010000                0.37421886               -0.02963730               -0.22762389                2.25148668                4.46484467                0.67575542
               7.13185192                1.99869778                4.99452685                0.12188330                0.31463929                0.17730156               -0.28559074                1.29645166                2.92715451                1.95371874
               8.13475499                1.98504528                4.96233934                0.42499059                0.32389787                0.29153517               -0.84979064                0.32951725                1.01794659                1.38659316
               9.13832988                1.96849891                4.92067174                1.00000000                0.45050163                0.41478631               -1.42091983                0.04806878                0.31186421                0.34832466
              10.14376503                1.95214220                4.87398451                1.00000000                0.54351458                0.54409426               -2.06967038               -0.05681930                0.05297244               -0.59342046
               0.13879018                3.04404593                5.09322838                1.00000000               -0.42332887               -0.44578667                1.75859987               -0.06826683                0.04646535                0.74400356
               1.13455689                3.02935711                5.04402318                0.87798613               -0.28253412               -0.27911245                0.93698295               -0.03949892                0.09264826               -0.16873680
               2.13313950                3.01393116                4.99545994                0.11667992               -0.01334461               -0.11766637                0.10977749                0.26600636                1.19598010               -1.07325825
               3.13429000                3.00353081                4.96858456                0.00010000                0.42691354                0.18884297               -0.19079585                1.30815793                4.48723296               -0.85445389
               4.14167777                3.00393797                4.98650669                0.00010000                0.64344000                0.20765144               -0.22222485                1.94601482                6.37075515               -0.10610739
               5.14715880                3.00306680                4.99964916                0.00010000                0.44155803                0.17331096               -0.12385602                2.00570680                6.01421204                0.50951767
               6.15050893                3.00178687                5.01082780                0.00010000                0.25183808                0.08336859                0.00347702                1.90388260                6.01497408                1.19269375
               7.15219556                2.99996216                5.02245532                0.13102204                0.10763988                0.09720174                0.04969389                1.17481795                3.93058469                2.21956927
               8.15266173                2.98743637                4.98844197                0.41780973                0.12571164                0.16316101               -0.31232009                0.30044690                0.92807992                1.59902117
               9.15470979                2.97193207                4.93797151                0.97614935                0.31693799                0.27158416               -0.99811183                0.04060494                0.07287935                0.39333782
              10.15900049                2.95676362                4.88632138                1.00000000                0.42906929                0.38613881               -1.65074935               -0.04604553                0.01640121               -0.56491750
               0.15202342                4.04003587                5.08400617                1.00000000               -0.35632686               -0.36466633                1.54787267               -0.05873425                0.04773899                0.69551355
               1.14846016                4.02691193                5.03032928                0.84019621               -0.20425927               -0.21184688                0.68721488               -0.02781571                0.09551732               -0.18363212
               2.14793824                4.01303376                4.97728822                0.10208385                0.15634108               -0.05845922               -0.17889518                0.32848818                1.82175468               -1.06147857
               3.15158698                4.00529132                4.95838348                0.00010000                0.62443568                0.16730051               -0.21636276                1.27270169                5.75520592               -0.38724859
               4.16042695                4.00539963                4.98471310                0.00010000                0.75229052                0.10639881               -0.19152512                1.73292385                7.67290629                0.08810377
               5.16663279                4.00418515                5.00671877                0.00010000                0.46087728                0.06143483                0.02526825                1.69986436                7.38757239                0.63790704
               6.16964450                4.00247968                5.02784003                0.00010000                0.15329937                0.02326598                0.27406449                1.62200453                7.55147630                1.33364006
               7.16969878                4.00064182                5.05087535                0.14277991               -0.04252398                0.01082841                0.41573454                0.94877107                4.71146374                2.19799683
               8.16879402                3.98830850                5.01133164                0.43349515                0.00579795                0.04210639                0.01041735                0.20776541                0.83101514                1.41125200
               9.16981473                3.97393060                4.95509393                0.98893283                0.21935034                0.15422360               -0.65505820                0.02880217                0.00488807                0.41558219
              10.17318103                3.95986498                4.89860567                1.00000000                0.33662914                0.26843899               -1.30658832               -0.04579689                0.00291466               -0.52478744
               0.16386339                5.03675260                5.07462507                1.00000000               -0.28606938               -0.30056764                1.33830383               -0.05267573                0.04634522                0.65281428
               1.16100270                5.02512017                5.01663845                0.80476185               -0.12667624               -0.14570137                0.44107707               -0.01701052                0.09897494               -0.18807391
               2.16132986                5.01276198                4.95937401                0.08769906                0.31877306                0.01096720               -0.45817897                0.35491829                2.59849018               -1.02257828
               3.16737816                5.00687682                4.95159873                0.00010000                0.80562780                0.15585098               -0.27972304                1.19315102                7.10092109               -0.03886024
               4.17744242                5.00606595                4.98498699                0.00010000                0.83489390                0.03195565               -0.15986814                1.50337549                8.85927246                0.26036034
               5.18407604                5.00429549                5.01499934                0.00010000                0.45249657               -0.03765375                0.19333373                1.47200872                8.69206437                0.71708315
               6.18649235                5.00225219                5.04551534                0.00010000                0.06330665               -0.07741178                0.55433811                1.39594339                9.00014828                1.34975695
               7.18534217                5.00017873                5.07880675                0.15265880               -0.14820493               -0.09970358                0.71302460                0.79051013                5.41507433                2.13618337
               8.18352825                4.98827850                5.03349235                0.44786247               -0.08064052               -0.03468142                0.25220957                0.14782143                0.76785259                1.36021698
               9.18372936                4.97501654                4.97242411                1.00000000                0.13437683                0.08134963               -0.39198373                0.01894913               -0.00342557                0.46148489
              10.18621579                4.96213240                4.91133839                1.00000000                0.24864325                0.20569661               -1.04732514               -0.04426855                0.00263190               -0.43104602
               0.17423477                6.03402452                5.06513707                1.00000000               -0.21242065               -0.25100965                1.12951957               -0.05206542                0.04312875                0.61291901
               1.17211057                6.02399790                5.00306076                0.77289848               -0.04774100               -0.07583571                0.18734794               -0.01251732                0.10036541               -0.17857103
               2.17327995                6.01325310                4.94181219                0.07365481                0.50177299                0.09799394               -0.75147433                0.33218397                3.50611389               -0.95842199
               3.18214603                6.00840834                4.94803625                0.00010000                0.98979160                0.13850404               -0.34909594                1.04983893                8.48661304                0.19300358
               4.19307579                6.00603874                4.98662249                0.00010000                0.88703490               -0.03837057               -0.12939763                1.24700546                9.90683305                0.34226796
               5.19988673                6.00343207                5.02381258                0.00010000                0.43021737               -0.13609328                0.36129368                1.25296535                9.92262332                0.72959086
               6.20168013                6.00093145                5.06311284                0.00010000               -0.02020310               -0.18548081                0.81451532                1.20569911               10.39365179                1.30653311
               7.19948266                5.99864774                5.10630732                0.16152155               -0.23837510               -0.20035391                0.96118190                0.67380577                6.10707686                2.04069943
               8.19691263                5.98761487                5.05570714                0.46221478               -0.15714217               -0.09777068                0.47728389                0.11228742                0.72666157                1.30778691
               9.19633982                5.97555759                4.99020526                0.99942808                0.05756592                0.03201746               -0.16812780                0.00760827               -0.00223125                0.48775999
              10.19806395                5.96397891                4.92483323                1.00000000                0.17241296                0.17234427               -0.84527056               -0.04254417                0.00689909               -0.34797462
               0.18287532                7.03173241                5.05557598                1.00000000               -0.13515536               -0.21012928                0.92072942               -0.05641775                0.04248199                0.57776447
               1.18152377                7.02360345                4.98969520                0.74218511                0.03438880                0.00226866               -0.08146203               -0.01496735                0.10974743               -0.16152568
               2.18356310                7.01472186                4.92487037                0.05936305                0.70327597                0.20962657               -1.07197609                0.22747944                4.45178579               -0.86645634
               3.19558929                7.00964690                4.94595778                0.00010000                1.18978495                0.09680587               -0.45597699                0.78828516                9.84946341                0.23819585
               4.20735880                7.00529854                4.98866542                0.00010000                0.93266743               -0.12133056               -0.10551023                0.94753749               10.86779504                0.32926591
               5.21424264                7.00157363                5.03236823                0.00010000                0.40159316               -0.23677047                0.51399272                1.02852613               11.09370068                0.67156230
               6.21539066                6.99854257                5.07988470                0.00010000               -0.10538886               -0.28313547                1.04656341                1.02974835               11.72741653                1.18847267
               7.21213486                6.99617165                5.13249121                0.16862307               -0.32632534               -0.29316495                1.18124662                0.57191089                6.79062535                1.82604177
               8.20886416                6.98632309                5.07746160                0.47519234               -0.23086895               -0.16980675                0.71937513                0.08712567                0.73158168                1.18857942
               9.20751748                6.97565689                5.00818250                0.99857278               -0.01709437               -0.01770669                0.05530717               -0.00269974                0.01332622                0.46835734
              10.20852227                6.96557928                4.93874994                1.00000000                0.10047859                0.14825703               -0.66530252               -0.04614014                0.00338117               -0.31450772
               0.18936433                8.02982194                5.04590830                1.00000000               -0.05425548               -0.17208481                0.70907762               -0.06177896                0.05282890                0.54711498
               1.18882177                8.02404327                4.97651862                0.70614267                0.12108856                0.09514253               -0.37481436               -0.02042248                0.14804731               -0.16184967
               2.19178610                8.01744563                4.90877051                0.04339251                0.92566396                0.35759147               -1.44373729                0.00851303                5.35457284               -0.75840823
               3.20733505                8.01034446                4.94359018                0.00010000                1.41568543                0.01953316               -0.62664999                0.36306639               11.12577676                0.14874576
               4.22009981                8.00361213                4.99011997                0.00010000                0.99390829               -0.23968522               -0.09751615                0.62830942               11.78048498                0.24836160
               5.22721322                7.99869666                5.03977186                0.00010000                0.37886373               -0.32885576                0.63293914                0.79791477               12.19342530                0.53488486
               6.22767708                7.99526874                5.09469383                0.00044800               -0.20364257               -0.35838739                1.24323526                0.85286144               12.95118573                0.95676023
               7.22314036                7.99278445                5.15554385                0.17123968               -0.42535894               -0.39831264                1.43343798                0.46314914                7.48842141                1.42613716
               8.21916990                7.98421873                5.09798816                0.48167475               -0.30553674               -0.27530524                1.01808025                0.05468455                0.85340166                0.99988179
               9.21702963                7.97520346                5.02587469                0.99856038               -0.09367660               -0.08577883                0.30404579               -0.01258374                0.06741688                0.41852843
              10.21729637                7.96694405                4.95266676                0.99966626                0.02667398                0.11754056               -0.47394183               -0.05042545                0.00696408               -0.33345050
               0.19319707                9.02829071                5.03600363                1.00000000                0.02945549               -0.13209619                0.48947467               -0.06047259                0.05996219                0.44101196
               1.19349163                9.02550630                4.96310402                0.65094167                0.21175511                0.20404564               -0.70121740               -0.01430438                0.23934596               -0.16941157
               2.19743217                9.02187369                4.89355700                0.02254005                1.15962447                0.52424064               -1.89308495               -0.37022759                6.19972028               -0.56905870
               3.21668412                9.01003756                4.94000041                0.00010000                1.70703056               -0.19542356               -0.86711514               -0.07218941               12.22917203                0.04929300
               4.23157279                9.00050483                4.99036803                0.00010000                1.09301071               -0.32368399               -0.11263894                0.30580730               12.61162772                0.13424001
               5.23854433                8.99499651                5.04499451                0.00010000                0.33936627               -0.38510090                0.70357763                0.50896130               13.15551961                0.30963703
               6.23836011                8.99137482                5.10605028                0.00010000               -0.30482406               -0.41369062                1.39430860                0.55746316               13.99810186                0.55140060
               7.23244785                8.98820540                5.17364555                0.16569591               -0.54106369               -0.51255290                1.80197236                0.30603589                8.25028647                0.85076823
               8.22753884                8.98081698                5.11673614                0.47211220               -0.39536781               -0.40632738                1.42300055                0.00794450                1.19247446                0.67857672
               9.22454049                8.97394132                5.04320658                0.99970213               -0.17531316               -0.17542492                0.59300901               -0.01247830                0.18010372                0.32862261
              10.22403257                8.96793009                4.96621473                0.99942938               -0.05079196                0.07153849               -0.25437586               -0.05068169                0.00073585               -0.32083618
               0.19372369               10.02718001                5.02416594                1.00000000                0.12290210               -0.11106992                0.22729258                0.14707899                0.26915225                0.35630129
               1.19495271               10.02812419                4.94968292                0.80198374                0.30632997                0.26178812               -1.01836156                0.18362984                0.56065425               -0.17318685
               2.19985029               10.02793044                4.88088936                0.50373301                1.61537035                0.60567577               -2.25177195               -0.84259848                6.99729424               -0.46364143
               3.22726012               10.00643599                4.93549288                0.43267472                2.07033566               -0.36015735               -1.11085700               -0.48199951               13.07891726                0.03851404
               4.24125700                9.99713845                4.98905263                0.42803122                0.96311689               -0.33663789               -0.17613791                0.19635439               13.24362568                0.07574839
               5.24652245                9.99099465                5.04705296                0.45037181                0.21802305               -0.40018684                0.73407494                0.29063596               13.83991604                0.19663202
               6.24561746                9.98699493                5.11210878                0.49690587               -0.33517654               -0.43798955                1.51548741                0.30267221               14.84714787                0.31153182
               7.23981892                9.98253339                5.18567014                0.57900996               -0.60122946               -0.56720092                2.09891917                0.19197045                9.05505516                0.51114241
               8.23359287                9.97609219                5.13166953                0.72822918               -0.50759852               -0.47247944                1.74267622                0.06348211                1.75553431                0.46648112
               9.22966695                9.97169496                5.05943761                1.00000000               -0.26438448               -0.22463582                0.88562080                0.12677761                0.51927784                0.26881280
              10.22830518                9.96837482                4.98058335                0.99987921               -0.13617696                0.04447270                0.00273694                0.09524713                0.18716143               -0.29200045
               0.12781158                0.07949062                6.14664525                1.00000000               -0.57889548               -0.67330044                2.34885314               -0.16053980               -0.43638760                0.49914243
               1.12202263                0.05424132                6.09950408                1.00000000               -0.44690002               -0.46479649                1.65022497               -0.12123847               -0.42333331               -0.03192531
               2.11887358                0.02892708                6.05247946                0.71891426               -0.06291887               -0.28957996                0.95576802                0.04534869               -0.17736590               -0.47508261
               3.12076425                0.00733813                6.01036846                0.52299029                0.53712865               -0.15034247                0.31353546                0.32036265                1.05881732               -0.06727480
               4.12961615               -0.00334374                5.98803560                0.44949895                0.89774993               -0.14261334               -0.11193934                0.32016452                3.09651597               -0.04657106
               5.13871925               -0.00229103                5.98600501                0.45648202                0.50374792               -0.09367478               -0.33589174                0.15253666                4.02915078                0.00911514
               6.13969111               -0.00192336                5.98163712                0.53534804               -0.05884685                0.08107807               -0.58746997                0.23712573                2.92934738                0.05123004
               7.13754231               -0.01278508                5.95694092                0.69843128               -0.05226163                0.26192463               -1.01819766                0.22775413                1.12494777                0.07138454
               8.13864588               -0.03334269                5.91586955                0.98365329                0.30675677                0.44546583               -1.58398129                0.07149940               -0.00067124                0.26816316
               9.14367744               -0.05734284                5.86836681                1.00000000                0.61426601                0.60860309               -2.18236293               -0.08018058               -0.32017750                0.10726321
              10.15093120               -0.08120147                5.82085352                1.00000000                0.72537539                0.76931277               -2.76737290               -0.14536180               -0.33191874               -0.38180870
               0.15145548                1.07275761                6.13254038                1.00000000               -0.53634660               -0.63033778                2.12876052               -0.05993697               -0.00938579                0.66854379
               1.14609201                1.04959336                6.08483265                1.00000000               -0.43384068               -0.42666011                1.42878349               -0.02897954                0.04737066               -0.05678990
               2.14277866                1.02603128                6.03810915                0.29523348               -0.29943622               -0.25224759                0.73628555                0.15510974                0.74729624               -0.76028062
               3.14010329                1.00583471                6.00458079                0.00010000               -0.25731427               -0.09620154                0.18858524                0.63506413                2.11631334               -0.90879203
               4.13763238                0.99523012                5.98607279                0.00179571               -0.02844332                0.30377914               -0.16473431                1.51056133                3.79499684                0.13843939
               5.13953442                0.99677222                5.98741512                0.00299700                0.48385094                0.08310172               -0.28311506                1.84279007                4.65542800                0.14762942
               6.14730940                0.99888742                5.98636746                0.01738624                0.79975478               -0.06628725               -0.43519912                1.50696765                3.61667766                0.17592324
               7.15552952                0.98983416                5.96544921                0.25894581                0.71651768                0.26502309               -0.79446365                0.82270587                2.01882005                0.91892248
               8.16163975                0.97111197                5.93050039                0.70434687                0.56377568                0.40755640               -1.30961400                0.27257843                0.88977594                0.67883645
               9.16680503                0.94874319                5.88583458                1.00000000                0.58482302                0.54869213               -1.85242551                0.02875298                0.25894196                0.25859409
              10.17333621                0.92649166                5.83796993                1.00000000                0.65311812                0.69380984               -2.42385966               -0.05856895                0.09573848               -0.47241259
               0.17294135                2.06688386                6.12159302                1.00000000               -0.47719809               -0.54514370                1.92672700               -0.06463104                0.06530908                0.82683254
               1.16816937                2.04570812                6.06966427                0.91840167               -0.36034617               -0.35602938                1.20073030               -0.03449246                0.10105702               -0.13762531
               2.16573443                2.02388213                6.01826139                0.13277301               -0.19513408               -0.18494140                0.48454802                0.19011666                0.88930166               -1.11994984
               3.16426669                2.00541410                5.98226093                0.00010000                0.15777173                0.11807864               -0.09925045                1.33854499                3.74507338               -1.38929001
               4.16888986                2.00273184                5.98811764                0.00010000                0.38255296                0.51527507               -0.14401391                2.51644479                5.63426854                0.10093127
               5.17191775                1.99937101                5.99180285                0.00010000                0.39393321                0.24416864               -0.23375667                2.68671713                5.40078866                0.39204192
               6.17676853                1.99675090                5.99363475                0.00010000                0.49270657               -0.06612293               -0.32154611                2.45102911                5.12772487                0.72258922
               7.18177188                1.99251538                5.99071464                0.11244810                0.42099457                0.17545927               -0.44708565                1.44140088                3.28751686                2.08185865
               8.18518842                1.97480844                5.95317060                0.40982523                0.35504682                0.31981579               -0.95345213                0.35508437                1.12674205                1.54700943
               9.18887281                1.95363101                5.90638700                1.00000000                0.45372340                0.42106840               -1.44090339                0.04390278                0.37244077                0.46188998
              10.19426288                1.93267473                5.85354182                1.00000000                0.53900701                0.54287990               -2.03508639               -0.05680360                0.06947881               -0.51431720
               0.19251434                3.06185474                6.11061411                1.00000000               -0.41104402               -0.46229566                1.72043004               -0.06402177                0.03976108                0.79854553
               1.18840390                3.04247277                6.05344780                0.86420410               -0.28196600               -0.28895820                0.94613326               -0.03470327                0.08248766               -0.19750824
               2.18687502                3.02233245                5.99691266                0.10617302               -0.01897112               -0.12192250                0.17208392                0.31788403                1.47031781               -1.19050767
               3.18802448                3.00819628                5.96770949                0.00010000                0.35646749                0.25207119               -0.01504663                1.44910381                5.15307661               -0.71194962
               4.19400437                3.00553562                5.98475570                0.00010000                0.56126142                0.21851593               -0.14008248                2.09857471                7.16614620               -0.06128605
               5.19924970                3.00165560                5.99837926                0.00010000                0.45906197                0.16877046               -0.13380835                2.17268507                6.87202120                0.59070909
               6.20318561                2.99756496                6.01019132                0.00010000                0.35251429                0.07189822               -0.11310489                2.10177823                6.80435893                1.32276026
               7.20629999                2.99334335                6.02172850                0.12268432                0.22201021                0.07880929               -0.17570330                1.34099385                4.46971782                2.39521293
               8.20762581                2.97750829                5.98474279                0.40628485                0.17584032                0.18794410               -0.41632368                0.35088263                1.11258635                1.76483681
               9.20981680                2.95716456                5.92781937                0.96400737                0.32434388                0.28657481               -1.03417072                0.02520352                0.07481934                0.47648948
              10.21411269                2.93734926                5.86981415                1.00000000                0.42958928                0.39903782               -1.65729168               -0.04758286                0.02538211               -0.50142650
               0.21042485                4.05763795                6.09928843                1.00000000               -0.34272589               -0.38673284                1.51031694               -0.05827198                0.03908621                0.75762617
               1.20699759                4.03992896                6.03723198                0.83044352               -0.20281261               -0.22018095                0.69218821               -0.02760076                0.08217714               -0.20290146
               2.20636860                4.02144368                5.97579438                0.09318447                0.15239996               -0.05349425               -0.12737389                0.39658004                2.25801544               -1.16002668
               3.21004559                4.01045552                5.95745799                0.00010000                0.55167192                0.20012149               -0.02312929                1.40675712                6.63475881               -0.30539235
               4.21740204                4.00710216                5.98336434                0.00010000                0.66482579                0.11480900               -0.09883804                1.86782908                8.59136684                0.15058537
               5.22334211                4.00274642                6.00680456                0.00010000                0.48571506                0.06037799               -0.00587126                1.86644832                8.39562708                0.75303837
               6.22711634                3.99818886                6.02960973                0.00010000                0.26531624                0.01950463                0.11762007                1.84915791                8.48588208                1.50627019
               7.22864843                3.99409156                6.05395759                0.13566163                0.06342588                0.01886078                0.21609048                1.15998588                5.30980343                2.41586793
               8.22838486                3.97856732                6.01113498                0.42478979                0.04437404                0.05261258               -0.04781458                0.27055670                1.00105668                1.45420710
               9.22953591                3.95936250                5.94833456                0.98321953                0.22784880                0.17371591               -0.69945602                0.01621367                0.00589266                0.43121810
              10.23294183                3.94065549                5.88538061                1.00000000                0.34059194                0.29271444               -1.34458847               -0.04662029                0.00453114               -0.52681922
               0.22676688                5.05412008                6.08782486                1.00000000               -0.27207265               -0.32320193                1.30163796               -0.05425797                0.04074001                0.72739700
               1.22404616                5.03806915                6.02105251                0.79595190               -0.12434148               -0.15075498                0.44071906               -0.02015339                0.09009405               -0.20351819
               2.22428005                5.02126257                5.95501739                0.07942870                0.32274915                0.02276616               -0.41838029                0.41537738                3.17332851               -1.12322345
               3.23050114                5.01219871                5.95009044                0.00010000                0.73950027                0.16403570               -0.09930712                1.31535321                8.18898925                0.00256394
               4.23907006                5.00783180                5.98398593                0.00010000                0.74954134                0.03698979               -0.06981841                1.62873636                9.93806699                0.32523691
               5.24549196                5.00286316                6.01657583                0.00010000                0.48767796               -0.03342810                0.13249198                1.63869845                9.86482599                0.85244906
               6.24882362                4.99795506                6.04978446                0.00010000                0.18146403               -0.07298507                0.36133257                1.62747782               10.04927171                1.54011377
               7.24912125                4.99372056                6.08502855                0.14598383               -0.05288042               -0.09334638                0.55630051                0.99561287                6.03370997                2.33314605
               8.24776601                4.97856054                6.03600335                0.44004020               -0.05341700               -0.04125734                0.23926206                0.20997884                0.92366842                1.37722803
               9.24805291                4.96063888                5.96835583                1.00000000                0.14141522                0.09387039               -0.42066961                0.01183699               -0.00199152                0.43310932
              10.25059431                4.94320355                5.90065871                1.00000000                0.25414070                0.23163725               -1.08376361               -0.04605182                0.00075629               -0.49762901
               0.24144155                6.05117391                6.07626246                1.00000000               -0.19895114               -0.26947261                1.09317688               -0.05393577                0.04020320                0.70194802
               1.23945204                6.03691386                6.00491201                0.76302818               -0.04474816               -0.07720432                0.18235365               -0.01705757                0.09677014               -0.19998577
               2.24054659                6.02189900                5.93445192                0.06547949                0.51656885                0.11408504               -0.72240427                0.37505195                4.21855560               -1.08233227
               3.24978342                6.01373624                5.94569296                0.00010000                0.93828635                0.13641936               -0.21254784                1.14668752                9.77880677                0.19646541
               4.25931232                6.00784195                5.98585347                0.00010000                0.81047022               -0.03149960               -0.05900835                1.36910719               11.15246124                0.41109161
               5.26599282                6.00207785                6.02683880                0.00010000                0.47480856               -0.12258231                0.26518528                1.41883670               11.25602945                0.87010594
               6.26880849                5.99672916                6.06971848                0.00010000                0.09811924               -0.17082842                0.59244616                1.42753973               11.53728125                1.49192940
               7.26795521                5.99222464                6.11519055                0.15447064               -0.15711853               -0.19988221                0.85263303                0.85068128                6.75080182                2.22731835
               8.26566612                5.97774218                6.06068376                0.45374780               -0.14127821               -0.11910605                0.50299124                0.15975440                0.88817946                1.34448519
               9.26512964                5.96123991                5.98850594                0.99947065                0.06126711                0.03116485               -0.17463842                0.00426595                0.00459945                0.45554673
              10.26689146                5.94528823                5.91625759                1.00000000                0.17618162                0.19013190               -0.86712369               -0.04505056                0.00423607               -0.44739732
               0.25420827                7.04873063                6.06460445                1.00000000               -0.12283570               -0.21969330                0.88135596               -0.05589362                0.04183750                0.67934182
               1.25297991                7.03652507                5.98882585                0.73028582                0.03752196                0.00444209               -0.09054085               -0.01705753                0.11166040               -0.19761964
               2.25495871                7.02354427                5.91422494                0.05108038                0.72560107                0.22765867               -1.05233900                0.25224100                5.28870113               -1.03310538
               3.26749194                7.01492710                5.94213397                0.00010000                1.15759374                0.09710919               -0.39211673                0.84853109               11.33804314                0.18285244
               4.27811059                7.00720181                5.98796963                0.00010000                0.87447776               -0.10541783               -0.07008414                1.06552112               12.28842300                0.39831347
               5.28498149                7.00041151                6.03668226                0.00010000                0.45585212               -0.21238657                0.38214749                1.18897054               12.57453162                0.80033720
               6.28722763                6.99453849                6.08864161                0.00010000                0.00701818               -0.26266986                0.81015606                1.22808938               12.96590353                1.35501005
               7.28512186                6.98972292                6.14394128                0.16068718               -0.26409021               -0.30527596                1.14612814                0.71080700                7.48945405                2.02845362
               8.28194582                6.97617842                6.08505359                0.46515035               -0.22648428               -0.20219949                0.77809589                0.11496285                0.91679882                1.27680953
               9.28059217                6.96126218                6.00881583                0.99856054               -0.01745835               -0.02906746                0.06653875               -0.00325689                0.02634891                0.45631439
              10.28159666                6.94700619                5.93211727                1.00000000                0.10044876                0.15339492               -0.66483039               -0.04683476                0.00343943               -0.41929531
               0.26473481                8.04678005                6.05277331                1.00000000               -0.04375551               -0.17081307                0.66241084               -0.05639058                0.05142647                0.65426235
               1.26429726                8.03700270                5.97269478                0.69263534                0.12272846                0.09774481               -0.38281718               -0.01526433                0.14700593               -0.21952842
               2.26718938                8.02645217                5.89434667                0.03502927                0.93996204                0.36616121               -1.42167795                0.02550908                6.29524864               -0.98003876
               3.28309650                8.01567842                5.93742278                0.00010000                1.39744728                0.03229701               -0.64450075                0.38090386               12.80487229                0.04499937
               4.29513833                8.00573360                5.98924714                0.00010000                0.96695302               -0.21372940               -0.10837815                0.72220484               13.38555716                0.30604279
               5.30243556                7.99783012                6.04510338                0.00010000                0.44602709               -0.29750979                0.47533141                0.93195196               13.81103792                0.63168329
               6.30405887                7.99147576                6.10545902                0.00010000               -0.09520690               -0.34101740                1.01835086                0.99871233               14.32196865                1.08133567
               7.30053142                7.98611912                6.17016912                0.16320829               -0.38163744               -0.42892216                1.49472319                0.55551443                8.29021058                1.68203652
               8.29642612                7.97369819                6.10878852                0.47077629               -0.31473404               -0.30761970                1.09895089                0.07106146                1.05527377                1.16010913
               9.29423674                7.96065856                6.02905178                0.99861928               -0.09796857               -0.09985794                0.32476040               -0.00725094                0.07259908                0.43892132
              10.29446675                7.94835613                5.94806514                0.99967282                0.02300088                0.11247495               -0.45294070               -0.04853631                0.00736079               -0.42266519
               0.27263515                9.04531437                6.04061748                1.00000000                0.03673495               -0.12229005                0.43609580               -0.05305921                0.05169526                0.53182755
               1.27300250                9.03847996                5.95610093                0.64184070                0.20790101                0.20123696               -0.69151291               -0.00782779                0.22557700               -0.23483843
               2.27679317                9.03086749                5.87494177                0.01534751                1.14130456                0.51054480               -1.81862704               -0.34057188                7.23441963               -0.78514668
               3.29582859                9.01557304                5.93091819                0.00010000                1.68049058               -0.17090066               -0.92409810               -0.07318924               14.14557249               -0.04312523
               4.31040298                9.00292722                5.98902090                0.00010000                1.10248862               -0.29066264               -0.17179454                0.35249567               14.40535965                0.16827469
               5.31787836                8.99446132                6.05099116                0.00010000                0.42549488               -0.35578049                0.53765884                0.58590185               14.90219089                0.35850123
               6.31891288                8.98771814                6.11854888                0.00010000               -0.19343216               -0.40565113                1.20051244                0.62429390               15.57110429                0.61707502
               7.31400972                8.98114448                6.19236701                0.16089280               -0.50426343               -0.54976222                1.90466032                0.34623654                9.20148692                1.08130636
               8.30882761                8.97002602                6.13137846                0.46545058               -0.41102564               -0.42346572                1.46201503                0.02618591                1.38144008                0.84418909
               9.30578921                8.95926502                6.04922243                0.99978643               -0.17984099               -0.18519150                0.60621581               -0.00406892                0.16089257                0.37022598
              10.30523079                8.94925568                5.96385730                0.99946598               -0.05584161                0.06286548               -0.22456604               -0.04825085               -0.00356310               -0.38163336
               0.27734244               10.04433424                6.02618352                1.00000000                0.12451374               -0.09801255                0.18087410                0.14004860                0.30686036                0.43027476
               1.27858758               10.04102744                5.93965568                0.80185681                0.29712135                0.25474767               -0.98433307                0.17494915                0.60500233               -0.23473687
               2.28328487               10.03666307                5.85906635                0.50114600                1.54927007                0.57955784               -2.12155717               -0.78918175                8.16268203               -0.63526806
               3.30957298               10.01226041                5.92410257                0.43177155                2.00075463               -0.33126280               -1.13294069               -0.46269745               15.18906188               -0.02659326
               4.32329996                9.99992034                5.98690942                0.42828660                0.98948486               -0.30068805               -0.25031617                0.21240306               15.21962227                0.10610203
               5.32936268                9.99071451                6.05334090                0.45106260                0.32808115               -0.37468024                0.56352012                0.32055124               15.75093889                0.20686273
               6.32986158                9.98336274                6.12583810                0.49726305               -0.21072051               -0.43554002                1.32285905                0.31533844               16.58583545                0.33091276
               7.32514827                9.97512387                6.20710842                0.57893319               -0.55161441               -0.60206034                2.16559298                0.20716125               10.13472023                0.68791481
               8.31882930                9.96522887                6.14914740                0.72862322               -0.51112839               -0.47971517                1.73566438                0.09171127                2.02066332                0.60198009
               9.31492570                9.95695473                6.06827999                1.00000000               -0.26544494               -0.23102881                0.88686399                0.13287751                0.54288011                0.30989027
              10.31352040                9.94961344                5.98074546                0.99991387               -0.14053021                0.03577546                0.02913493                0.09483149                0.20525100               -0.33419292
               0.17386730                0.09987673                7.16989870                1.00000000               -0.57252723               -0.66223243                2.30538652               -0.15250965               -0.47962606                0.54026314
               1.16814203                0.06967943                7.11599651                1.00000000               -0.44647685               -0.46460360                1.64839481               -0.11237674               -0.46722959               -0.03423263
               2.16493777                0.03942104                7.06222501                0.71747893               -0.06701977               -0.29984637                0.99099378                0.06058149               -0.19921062               -0.51673813
               3.16680163                0.01306318                7.01379118                0.52133473                0.54716663               -0.16412767                0.36932319                0.34667726                1.15007428               -0.06975498
               4.17588110               -0.00164069                6.98712060                0.44969667                0.92047432               -0.15408351               -0.07214871                0.33363435                3.35768666               -0.05465919
               5.18521112               -0.00392143                6.98259435                0.45763063                0.52747397               -0.09869110               -0.34397135                0.15735581                4.34673570                0.00295668
               6.18643058               -0.00691854                6.97546547                0.53574829               -0.03589263                0.08189891               -0.63653960                0.24468066                3.13665226                0.04977118
               7.18449327               -0.02168169                6.94642909                0.69777705               -0.03774827                0.27025380               -1.06967578                0.23948307                1.17957471                0.07464104
               8.18567561               -0.04662828                6.89988420                0.98383086                0.31048710                0.45096246               -1.60414772                0.08092000               -0.02654149                0.27670066
               9.19070301               -0.07527740                6.84663681                1.00000000                0.60965955                0.60654337               -2.16723752               -0.07680243               -0.35803705                0.12662128
              10.19786880               -0.10386760                6.79347500                1.00000000                0.71657925                0.76127702               -2.72289603               -0.13914878               -0.36015137               -0.38932243
               0.20253950                1.09325440                7.15360472                1.00000000               -0.52933958               -0.62310981                2.08669145               -0.05672591               -0.01420942                0.71851298
               1.19724611                1.06503339                7.09912062                1.00000000               -0.43438986               -0.42764542                1.42813623               -0.02428621                0.04484925               -0.06121374
               2.19385171                1.03642257                7.04568691                0.28899818               -0.32234195               -0.26182278                0.77553634                0.17159642                0.81510321               -0.81521401
               3.19079927                1.01142190                7.00675406                0.00057254               -0.30709803               -0.12316065                0.24312736                0.70350596                2.34799662               -0.98173453
               4.18770975                0.99681848                6.98466108                0.00267963               -0.06878310                0.31115056               -0.12291237                1.59873766                4.22960119                0.17632891
               5.18942361                0.99509166                6.98453590                0.00412555                0.50238833                0.07585272               -0.29405382                1.93685328                5.16518182                0.14991823
               6.19775751                0.99390045                6.98167463                0.01584397                0.86596802               -0.08206078               -0.49427632                1.58017663                3.98074793                0.15875484
               7.20674297                0.98102085                6.95710530                0.25358545                0.77625781                0.28686749               -0.85959071                0.87770177                2.18651765                0.97232785
               8.21328267                0.95788135                6.91720009                0.69552783                0.59058405                0.41856715               -1.34235530                0.28545220                0.95222359                0.71908769
               9.21855465                0.93078803                6.86728845                1.00000000                0.58924231                0.55146593               -1.85771889                0.02841418                0.28553663                0.32124038
              10.22506751                0.90374517                6.81387414                1.00000000                0.65128666                0.69396143               -2.40438675               -0.05547850                0.10992337               -0.44437446
               0.22917480                2.08741453                7.14066463                1.00000000               -0.46866676               -0.54664887                1.88924189               -0.05987466                0.07194856                0.88597897
               1.22448813                2.06112652                7.08169552                0.90397594               -0.35968081               -0.35970838                1.20349358               -0.02839781                0.11158229               -0.15616546
               2.22198119                2.03418458                7.02336103                0.12484874               -0.20061436               -0.19172763                0.52927407                0.19529503                0.97166204               -1.21882560
               3.22047585                2.01059996                6.98172254                0.00010000                0.11024536                0.13364273               -0.01954482                1.45534848                4.14704836               -1.33723922
               4.22418609                2.00458233                6.98697519                0.00010000                0.31951847                0.53235356               -0.09558502                2.68084165                6.26427122                0.15669982
               5.22686622                1.99759562                6.98943349                0.00010000                0.39594118                0.23938060               -0.24005743                2.82989582                5.99184781                0.42364172
               6.23210492                1.99144024                6.99000674                0.00010000                0.56000934               -0.08166839               -0.38968394                2.59746995                5.66882447                0.75134455
               7.23806640                1.98405566                6.98558513                0.10554337                0.47562778                0.18013104               -0.54892451                1.52991499                3.58864697                2.13552742
               8.24161747                1.96174307                6.94327030                0.39759777                0.36705341                0.34436922               -1.00919121                0.36180871                1.24682890                1.70892897
               9.24540747                1.93575192                6.89185367                0.99761723                0.46137428                0.43631356               -1.48064008                0.04243668                0.44399899                0.57030876
              10.25084496                1.91001163                6.83328278                1.00000000                0.54374865                0.55755624               -2.04906085               -0.05147643                0.09467973               -0.45892970
               0.25391803                3.08232142                7.12763698                1.00000000               -0.40099287               -0.47184408                1.68547304               -0.06105774                0.03685645                0.85763129
               1.24990810                3.05783922                7.06294584                0.85008314               -0.28169331               -0.29386687                0.95109637               -0.03118954                0.07839667               -0.22699774
               2.24828416                3.03258802                6.99890162                0.09839069               -0.01998035               -0.12280450                0.21957021                0.35734422                1.77351041               -1.31363437
               3.24950849                3.01409475                6.96828363                0.00010000                0.30233781                0.31012836                0.08677425                1.55569378                5.75095672               -0.54083560
               4.25433092                3.00746555                6.98370504                0.00010000                0.48275552                0.22993881               -0.08509448                2.22530694                7.83974211                0.00073641
               5.25916360                2.99987927                6.99697299                0.00010000                0.44579764                0.17268636               -0.14533282                2.31176268                7.60044953                0.66198711
               6.26324687                2.99226708                7.00856571                0.00010000                0.39374196                0.07858468               -0.19510785                2.24242007                7.45357449                1.41987698
               7.26703844                2.98462347                7.01894126                0.11557827                0.27878569                0.08017297               -0.33778428                1.44024262                4.97200278                2.50286709
               8.26882259                2.96476873                6.98011550                0.39509058                0.20481881                0.21945075               -0.49719146                0.38557715                1.34330565                1.95376641
               9.27113482                2.93951431                6.91728810                0.94762547                0.33479893                0.31332899               -1.08678980                0.02035199                0.08993283                0.55949139
              10.27551856                2.91489630                6.85317555                1.00000000                0.43837451                0.42362028               -1.69879306               -0.04507192                0.03768972               -0.47768692
               0.27691805                4.07797765                7.11421250                1.00000000               -0.33202978               -0.39974542                1.47551938               -0.05760367                0.03264866                0.82180100
               1.27359775                4.05524918                7.04417304                0.81923353               -0.20227526               -0.22347246                0.69456398               -0.02726035                0.07267912               -0.22828985
               2.27287254                4.03172849                6.97474074                0.08643045                0.15572224               -0.04740257               -0.08722266                0.45138498                2.72471323               -1.27383116
               3.27671219                4.01680253                6.95792090                0.00010000                0.50175881                0.22991891                0.06566842                1.50667578                7.44828425               -0.24171036
               4.28290772                4.00918110                6.98273634                0.00010000                0.57938734                0.13080074               -0.04645094                1.98171339                9.37647990                0.22355834
               5.28829994                4.00104935                7.00660134                0.00010000                0.46506999                0.07154838               -0.02867467                2.01206283                9.25311910                0.84820433
               6.29220912                3.99301194                7.03019243                0.00010000                0.30348319                0.03393182                0.02218322                2.01939813                9.30147569                1.63373716
               7.29436960                3.98565912                7.05519716                0.12901337                0.11145327                0.04926078                0.05910390                1.29395939                5.91266445                2.59920435
               8.29443818                3.96613208                7.01037535                0.41546351                0.06586727                0.07527684               -0.10287641                0.31055687                1.22190248                1.53887314
               9.29568695                3.94201850                6.94110481                0.97196222                0.23706778                0.19965202               -0.74723274                0.01256501                0.00328200                0.46439042
              10.29917954                3.91848404                6.87171390                1.00000000                0.34925887                0.32032707               -1.39058095               -0.04811660                0.00599025               -0.54388380
               0.29822289                5.07432652                7.10065783                1.00000000               -0.26108357               -0.33468770                1.26534517               -0.05458990                0.03618121                0.80046473
               1.29561205                5.05336978                7.02545283                0.78631416               -0.12321862               -0.15121691                0.43863289               -0.02138954                0.08396477               -0.22736358
               2.29575851                5.03163997                6.95100640                0.07345409                0.32886737                0.03352068               -0.38602212                0.46604699                3.76615292               -1.23915701
               3.30218940                5.01869313                6.94961259                0.00010000                0.69799268                0.17457955               -0.04534543                1.40250125                9.19848113                0.00050032
               4.30971837                5.01008157                6.98359062                0.00010000                0.66923131                0.05478876               -0.03128117                1.73442761               10.87516573                0.38483092
               5.31557402                5.00131024                7.01764918                0.00010000                0.46533477               -0.01607927                0.09393771                1.78532583               10.86554210                0.95809123
               6.31902506                4.99294572                7.05274200                0.00010000                0.21117308               -0.05495233                0.26066759                1.80816730               11.00787260                1.68343351
               7.31979749                4.98560869                7.08993276                0.13968684               -0.01753585               -0.06888706                0.44161712                1.12461815                6.68768315                2.49182558
               8.31867435                4.96627427                7.03827760                0.43177542               -0.03816598               -0.03388791                0.21392139                0.24106520                1.13001464                1.41731253
               9.31903417                4.94350735                6.96401072                0.99423802                0.14754065                0.10950116               -0.45073133                0.00998005                0.00217689                0.43067207
              10.32162516                4.92130284                6.88966312                1.00000000                0.25909928                0.25441808               -1.11825237               -0.04715897                0.00441776               -0.55244329
               0.31773973                6.07128389                7.08700061                1.00000000               -0.18832235               -0.27590604                1.05419397               -0.05358589                0.03801153                0.78222507
               1.31585650                6.05222484                7.00670784                0.75329871               -0.04348024               -0.07507435                0.17716461               -0.01802747                0.09495773               -0.23050331
               2.31687012                6.03239890                6.92736411                0.05990737                0.52320585                0.12625166               -0.69434739                0.41698887                4.92257651               -1.21851201
               3.32632062                6.02029412                6.94378529                0.00010000                0.90545207                0.14404954               -0.20837918                1.21470171               10.97617505                0.14027517
               4.33497916                6.01027688                6.98544232                0.00010000                0.74108412               -0.01052143               -0.04374727                1.46471222               12.25675215                0.45491112
               5.34114230                6.00072777                7.02911629                0.00010000                0.45474242               -0.09972190                0.20885200                1.55616435               12.40447309                0.97376259
               6.34407401                5.99191289                7.07496176                0.00010000                0.11955549               -0.15217468                0.49380694                1.59891299               12.62348652                1.63429764
               7.34353341                5.98428138                7.12335999                0.14823125               -0.13565927               -0.19232704                0.79176279                0.96279527                7.45425478                2.37751459
               8.34136083                5.96545432                7.06576696                0.44553204               -0.13377155               -0.12598750                0.50617486                0.17891902                1.08810399                1.38774951
               9.34085798                5.94420852                6.98671249                0.99954673                0.06422731                0.03649989               -0.18593190                0.00323449                0.01035029                0.43692557
              10.34264537                5.92357240                6.90749076                1.00000000                0.17873912                0.20414916               -0.88790323               -0.04546170                0.00492894               -0.53408719
               0.33526927                7.06880839                7.07320309                1.00000000               -0.11327768               -0.21948718                0.83856540               -0.05350210                0.04058704                0.76222609
               1.33413649                7.05186829                6.98788438                0.71968609                0.03798728                0.00763945               -0.09560413               -0.01556859                0.11194793               -0.24086248
               2.33602901                7.03416500                6.90382359                0.04576876                0.72344843                0.23645583               -1.02258552                0.28993936                6.08353574               -1.20117199
               3.34860546                7.02157412                6.93811545                0.00010000                1.12749777                0.10830504               -0.42895992                0.89587728               12.72581022                0.07102087
               4.35857897                7.00987114                6.98726374                0.00010000                0.82279186               -0.07975763               -0.08423593                1.14464327               13.58167791                0.42196048
               5.36506130                6.99931580                7.04001118                0.00010000                0.44353690               -0.18531712                0.30889927                1.30554360               13.87618657                0.89091172
               6.36744971                6.98990222                7.09608782                0.00010000                0.02253305               -0.24623569                0.72001454                1.37115204               14.18862144                1.49190045
               7.36551196                6.98176215                7.15541377                0.15456224               -0.25620610               -0.31409674                1.14437044                0.79669816                8.25612444                2.20989954
               8.36232558                6.96375452                7.09302352                0.45656947               -0.22655872               -0.21791367                0.80189438                0.12535460                1.11112896                1.35168795
               9.36098078                6.94423734                7.00951327                0.99856769               -0.01687050               -0.03166180                0.06872712               -0.00108474                0.02939892                0.44684214
              10.36198817                6.92538582                6.92545333                1.00000000                0.10073918                0.15891585               -0.66908773               -0.04657821                0.00246248               -0.50831555
               0.35054990                8.06689415                7.05915652                1.00000000               -0.03613728               -0.16456728                0.61621418               -0.05191047                0.04878072                0.73544508
               1.35018853                8.05237763                6.96886228                0.68199718                0.12065885                0.09901777               -0.38069656               -0.01118724                0.14387433               -0.27627436
               2.35296307                8.03712802                6.88033696                0.03015588                0.91717532                0.36430336               -1.37453638                0.06784396                7.16495934               -1.17895215
               3.36853203                8.02246022                6.93070016                0.00010000                1.35836393                0.04605701               -0.69133396                0.42323428               14.39915373               -0.09171406
               4.38013035                8.00868172                6.98795241                0.00010000                0.93450280               -0.18315480               -0.15007491                0.77946182               14.89042531                0.30820920
               5.38722209                7.99702142                7.04927849                0.00010000                0.44601766               -0.26933903                0.38994256                1.01526603               15.27683014                0.69938562
               6.38905071                7.98698818                7.11506085                0.00010000               -0.08035038               -0.32824889                0.94057669                1.09673314               15.71684354                1.20278865
               7.38561508                7.97799945                7.18543831                0.15805667               -0.38289922               -0.44349621                1.53392043                0.61219634                9.13985018                1.91389903
               8.38139272                7.96109605                7.11996718                0.46267408               -0.32050466               -0.32063204                1.12061449                0.07812398                1.23000159                1.27719037
               9.37920499                7.94357529                7.03236990                0.99864231               -0.09879341               -0.10598592                0.33341583               -0.00233097                0.06627003                0.45138362
              10.37941685                7.92675071                6.94360794                0.99972067                0.02118671                0.11156443               -0.44343322               -0.04728808                0.00713157               -0.49785913
               0.36326409                9.06551705                7.04472554                1.00000000                0.04147833               -0.11203570                0.38934357               -0.04850642                0.04516135                0.59947976
               1.36367888                9.05384864                6.94927377                0.63606997                0.20196052                0.19711567               -0.67315691               -0.00422926                0.21737868               -0.28997524
               2.36730330                9.04145107                6.85718445                0.01210904                1.09187831                0.49239510               -1.73413947               -0.28297122                8.19067894               -0.95133191
               3.38551644                9.02249526                6.92151845                0.00010000                1.61518512               -0.14624339               -0.94008722               -0.02883868               15.96886671               -0.14141237
               4.39960700                9.00620804                6.98693214                0.00010000                1.07718611               -0.25991378               -0.22891463                0.38572631               16.12370199                0.16294889
               5.40706016                8.99392902                7.05574769                0.00010000                0.43996706               -0.32944942                0.44677846                0.62598366               16.53950134                0.39461321
               6.40840635                8.98333725                7.13006053                0.00010000               -0.17060767               -0.39767136                1.13368068                0.67395694               17.17787926                0.69525055
               7.40364801                8.97289222                7.21173875                0.15877648               -0.50470611               -0.55952930                1.93834008                0.37967887               10.16377465                1.26980113
               8.39831222                8.95734188                7.14597644                0.46169468               -0.41842551               -0.42510736                1.45230734                0.03336276                1.53467665                0.94546993
               9.39527950                8.94211763                7.05533090                0.99982629               -0.18103332               -0.18988234                0.61221659               -0.00016297                0.14342640                0.39671661
              10.39469156                8.92761711                6.96172341                0.99951339               -0.05879428                0.05819675               -0.20711585               -0.04693117               -0.00680027               -0.43488213
               0.37291658               10.06465344                7.02778342                1.00000000                0.12533402               -0.08636128                0.14209718                0.13189980                0.33667689                0.48491393
               1.37416992               10.05631995                6.92999626                0.80230026                0.28702252                0.24713027               -0.94951124                0.16522879                0.64977937               -0.28158216
               2.37865703               10.04697592                6.83845822                0.50039912                1.45141832                0.55248539               -2.00803925               -0.70385678                9.23814766               -0.75521757
               3.40319829               10.01953536                6.91283407                0.43167797                1.88770470               -0.29599088               -1.11414824               -0.40643922               17.18785444               -0.07812817
               4.41641112               10.00348345                6.98404631                0.42861823                0.97071342               -0.27245920               -0.30103253                0.22526592               17.11028825                0.10004701
               5.42261255                9.99043243                7.05832336                0.45152970                0.35777587               -0.34965846                0.47155196                0.33280419               17.54669737                0.22695189
               6.42356664                9.97903475                7.13856596                0.49765621               -0.17042656               -0.43024962                1.25749063                0.33485085               18.36175650                0.38330702
               7.41920402                9.96680886                7.22898200                0.57944151               -0.53660337               -0.60833624                2.19143029                0.23355903               11.22490953                0.81742062
               8.41283457                9.95259390                7.16638281                0.72950672               -0.51387633               -0.47479760                1.71441655                0.10067406                2.23722173                0.66978723
               9.40892650                9.93977764                7.07717489                1.00000000               -0.26776568               -0.23399855                0.89174335                0.13073696                0.56615560                0.33885107
              10.40747926                9.92791465                6.98116605                0.99995016               -0.14472361                0.02975395                0.05139253                0.09247132                0.22264332               -0.37296920
               0.22602344                0.12288385                8.19275298                1.00000000               -0.56717105               -0.65218950                2.26822701               -0.14593157               -0.52595624                0.58524324
               1.22035173                0.08730847                8.13247198                1.00000000               -0.44643685               -0.46383889                1.64619013               -0.10525887               -0.51555057               -0.03462011
               2.21709470                0.05166851                8.07229933                0.71712172               -0.07407928               -0.30775339                1.02077391                0.07069826               -0.23377108               -0.55554237
               3.21887014                0.02001727                8.01775492                0.52076861                0.54360079               -0.17486163                0.41977438                0.36257025                1.20578291               -0.07376796
               4.22796672                0.00048211                7.98659262                0.45013548                0.92194764               -0.15799930               -0.03521848                0.34097006                3.55186232               -0.06168372
               5.23730909               -0.00611501                7.97912558                0.45857646                0.53113479               -0.09535504               -0.34677860                0.16012366                4.59016275               -0.00172187
               6.23858941               -0.01334625                7.96890633                0.53611683               -0.02970150                0.08675040               -0.66687014                0.25007074                3.29458602                0.04930843
               7.23671506               -0.03264468                7.93554740                0.69740796               -0.03410390                0.27693580               -1.09824432                0.24722501                1.22028365                0.07822853
               8.23790733               -0.06244044                7.88378660                0.98378269                0.31054227                0.45480720               -1.61359743                0.08592363               -0.04944965                0.28666650
               9.24292591               -0.09611369                7.82502206                1.00000000                0.60722253                0.60648262               -2.16023577               -0.07570730               -0.39289149                0.14482387
              10.25005179               -0.12978619                7.76639560                1.00000000                0.71258753                0.75825770               -2.70239680               -0.13609842               -0.38825564               -0.39828645
               0.26013950                1.11636195                8.17427421                1.00000000               -0.52326941               -0.61563313                2.04983572               -0.05443219               -0.01962291                0.77385310
               1.25490681                1.08267008                8.11339537                1.00000000               -0.43461087               -0.42744424                1.42621988               -0.02090440                0.04121025               -0.06282390
               2.25144728                1.04859098                8.05361988                0.28601883               -0.34088793               -0.26888040                0.80742293                0.18222600                0.87055060               -0.86696005
               3.24808905                1.01826866                8.00944334                0.00101662               -0.35023629               -0.14387608                0.29156133                0.75172463                2.54018462               -1.04589833
               4.24444256                0.99890212                7.98361455                0.00346845               -0.11322673                0.31698831               -0.08916294                1.65802016                4.59234628                0.21600476
               5.24582451                0.99293144                7.98153404                0.00512146                0.49562007                0.07608801               -0.30430832                2.00165967                5.59160662                0.15787614
               6.25435496                0.98752125                7.97648194                0.01514228                0.89549473               -0.08835195               -0.53581810                1.62985969                4.28860164                0.14500916
               7.26373441                0.97012468                7.94825740                0.25037870                0.80730595                0.30173253               -0.90114639                0.90762881                2.33654945                1.02317981
               8.27050108                0.94210763                7.90365329                0.68957622                0.60536529                0.42560245               -1.36363984                0.28877897                1.01563517                0.76383364
               9.27584171                0.90995113                7.84868020                1.00000000                0.59311107                0.55756089               -1.86733952                0.02515756                0.31205253                0.36835562
              10.28236330                0.87779639                7.78988219                1.00000000                0.65215853                0.69904567               -2.40337381               -0.05315091                0.12286260               -0.43856134
               0.29231854                2.11057118                8.15937786                1.00000000               -0.46139247               -0.54512320                1.85516360               -0.05644808                0.07910259                0.95025336
               1.28770461                2.07875958                8.09373414                0.89132768               -0.35889456               -0.36073946                1.20299791               -0.02399478                0.12366037               -0.17204247
               2.28514065                2.04629091                8.02884688                0.12003957               -0.20555567               -0.19554623                0.56363880                0.19701638                1.05188911               -1.31535657
               3.28359350                2.01713975                7.98187003                0.00010000                0.06618433                0.14562776                0.04064901                1.53410552                4.50740718               -1.27735014
               4.28646433                2.00682187                7.98620594                0.00010000                0.25648273                0.54435416               -0.06493593                2.79671455                6.81395546                0.21771099
               5.28872315                1.99540675                7.98700171                0.00010000                0.37645208                0.23980223               -0.24460207                2.93191748                6.49342349                0.45969783
               6.29399337                1.98488671                7.98584107                0.00010000                0.57790519               -0.08722205               -0.43123726                2.69585429                6.13790842                0.77645105
               7.30028126                1.97338997                7.97973615                0.10066771                0.49315418                0.18319922               -0.60408038                1.58203760                3.87000684                2.16837234
               8.30385646                1.94607161                7.93298678                0.38824048                0.37295253                0.36854647               -1.04276185                0.36457805                1.36685827                1.87039570
               9.30774031                1.91503753                7.87677420                0.97979034                0.47209012                0.45760612               -1.52894811                0.04184005                0.50252930                0.66299504
              10.31329826                1.88419472                7.81256061                1.00000000                0.55579520                0.57840080               -2.09213587               -0.04786558                0.11191871               -0.43561342
               0.32263374                3.10545949                8.14432357                1.00000000               -0.39265485               -0.47590328                1.65309089               -0.05850919                0.03612493                0.91839517
               1.31870719                3.07545529                8.07246973                0.83636097               -0.28131469               -0.29517054                0.95194771               -0.02805518                0.07819434               -0.25694426
               2.31700744                3.04468006                8.00130406                0.09308036               -0.02335005               -0.12143161                0.25600004                0.38501428                2.07111966               -1.43991852
               3.31824019                3.02118121                7.96944498                0.00010000                0.25512000                0.35763030                0.12018173                1.62656611                6.30338216               -0.38719898
               4.32210984                3.00978920                7.98305381                0.00010000                0.40789206                0.24329341               -0.05518715                2.31665664                8.42853150                0.06509016
               5.32639803                2.99772749                7.99547261                0.00010000                0.40894925                0.18137820               -0.15281376                2.41064280                8.23023208                0.72799828
               6.33028883                2.98577681                8.00628916                0.00010000                0.38961130                0.09003037               -0.24611681                2.33089166                8.01334142                1.50310312
               7.33419026                2.97378866                8.01497282                0.10988137                0.29281266                0.08470910               -0.42419386                1.50696502                5.45840771                2.58887213
               8.33614508                2.94947856                7.97479896                0.38512019                0.21825729                0.25555372               -0.56056237                0.41867013                1.59679088                2.15364133
               9.33855540                2.91910326                7.90608357                0.92985425                0.34732538                0.34450838               -1.14949881                0.02042670                0.10191797                0.65148401
              10.34309159                2.88936440                7.83583829                1.00000000                0.45361886                0.45477579               -1.76271009               -0.04662576                0.03744165               -0.45698029
               0.35115675                4.10105312                8.12879882                1.00000000               -0.32338044               -0.40591069                1.44275881               -0.05635614                0.02823234                0.88366550
               1.34792294                4.07285617                8.05112326                0.80710852               -0.20208673               -0.22341021                0.69439321               -0.02605777                0.06623448               -0.25838704
               2.34711501                4.04386227                7.97404993                0.08160365                0.15463678               -0.04119986               -0.05392808                0.49360472                3.17844665               -1.39597715
               3.35101568                4.02429236                7.95877136                0.00010000                0.45680883                0.25815547                0.07872300                1.57359106                8.21059808               -0.20925150
               4.35625119                4.01168774                7.98243533                0.00010000                0.49663608                0.15166196               -0.02580298                2.05844504               10.07325467                0.28683081
               5.36094840                3.99903432                8.00623107                0.00010000                0.41494231                0.08912744               -0.04231893                2.11264877               10.00774369                0.92940532
               6.36455003                3.98668731                8.03005340                0.00010000                0.28852025                0.05387911               -0.03445721                2.12292448               10.02931095                1.74297576
               7.36671880                3.97508415                8.05513967                0.12328483                0.11826155                0.08027965               -0.04513017                1.38222124                6.51772928                2.78496312
               8.36691527                3.95118269                8.00907745                0.40632110                0.07720990                0.10183056               -0.15411090                0.34934009                1.48322463                1.65597638
               9.36826300                3.92192769                7.93338990                0.95703391                0.24640925                0.22706901               -0.79644763                0.01315374                0.00430620                0.51498047
              10.37184345                3.89329024                7.85756899                1.00000000                0.35804484                0.35067100               -1.44120054               -0.04943149                0.00640471               -0.55161999
               0.37790050                5.09734127                8.11313177                1.00000000               -0.25236253               -0.33899848                1.23045721               -0.05388972                0.03251239                0.86678545
               1.37537688                5.07098709                8.02982517                0.77575241               -0.12285747               -0.14919645                0.43562958               -0.02102298                0.07932901               -0.25772065
               2.37544336                5.04385606                7.94729695                0.06931939                0.32548302                0.04246486               -0.35731737                0.50814445                4.33140348               -1.36224924
               3.38188654                5.02634432                7.94918353                0.00010000                0.65467138                0.18732631               -0.05678736                1.45897043               10.15368955               -0.04233981
               4.38853678                5.01282244                7.98336031                0.00010000                0.58824466                0.07896564               -0.02503772                1.80154459               11.72722833                0.42227290
               5.39365143                4.99951004                8.01845458                0.00010000                0.40803512                0.00783892                0.07251584                1.88231988               11.76582624                1.04132667
               6.39669749                4.98685439                8.05499782                0.00010000                0.18439382               -0.03090125                0.20591033                1.91843532               11.90001786                1.80739857
               7.39733931                4.97539425                8.09386090                0.13420376               -0.02045715               -0.03951169                0.35851147                1.20885431                7.36298414                2.66818882
               8.39628834                4.95151517                8.04028177                0.42356456               -0.03141938               -0.02157225                0.18598049                0.27054053                1.37326098                1.48761900
               9.39671092                4.92364464                7.95934120                0.98157421                0.15447621                0.12740847               -0.48499916                0.01062510                0.00631472                0.44564038
              10.39937787                4.89637782                7.87829366                1.00000000                0.26669448                0.27630169               -1.15871384               -0.04717860                0.00855525               -0.59986079
               0.40278733                6.09427315                8.09734634                1.00000000               -0.17996267               -0.27610162                1.01627737               -0.05224349                0.03600222                0.85084193
               1.40098770                6.06987225                8.00845530                0.74324802               -0.04333291               -0.07168538                0.17287961               -0.01700409                0.09356871               -0.26653628
               2.40192067                6.04471157                7.92056498                0.05627664                0.51205034                0.13459605               -0.66574009                0.45608210                5.57838100               -1.35570820
               3.41122871                6.02803888                7.94152537                0.00010000                0.85978481                0.15441603               -0.24597057                1.26184678               12.11390963                0.04798610
               4.41911636                6.01326706                7.98497852                0.00010000                0.66670688                0.01542478               -0.05427494                1.52319182               13.28673772                0.46650346
               5.42456284                5.99919110                8.03101584                0.00010000                0.39590802               -0.07212471                0.17976755                1.64159732               13.46294379                1.04917473
               6.42703452                5.98606929                8.07959462                0.00010000                0.08361321               -0.12884877                0.44772126                1.70014040               13.67142542                1.75775625
               7.42623511                5.97429392                8.13102580                0.14302474               -0.14794149               -0.17758341                0.74596361                1.03256419                8.18887515                2.54549225
               8.42407569                5.95075124                8.07080726                0.43771772               -0.13111261               -0.12516064                0.49754865                0.19812500                1.31265667                1.44894977
               9.42361285                5.92447586                7.98478730                0.99964316                0.06789052                0.04484864               -0.20210380                0.00522247                0.01384322                0.43201937
              10.42543350                5.89881627                7.89849953                1.00000000                0.18206493                0.21724318               -0.90830321               -0.04656255                0.00442615               -0.60548200
               0.42565744                7.09181924                8.08137576                1.00000000               -0.10590671               -0.21533250                0.79805412               -0.05100673                0.03900239                0.82937640
               1.42459838                7.06955338                7.98691377                0.70959539                0.03704578                0.01077908               -0.09745671               -0.01323274                0.11168974               -0.28596113
               2.42639836                7.04654798                7.89377323                0.04253661                0.69848067                0.24003485               -0.98718043                0.33046363                6.81499346               -1.35927923
               3.43856799                7.02943264                7.93355477                0.00010000                1.07250230                0.12011284               -0.47342197                0.94091839               14.05023200               -0.05603009
               4.44784841                7.01313093                7.98628492                0.00010000                0.75565776               -0.05188356               -0.10886003                1.19435217               14.81074425                0.41046049
               5.45368115                6.99806754                8.04286024                0.00010000                0.38745335               -0.15548823                0.27358722                1.37236818               15.10546243                0.95262418
               6.45559747                6.98427742                8.10304190                0.00010000               -0.01862515               -0.22552307                0.68450847                1.44882201               15.40154680                1.61252999
               7.45330864                6.97184259                8.16682869                0.14984008               -0.27642873               -0.31109029                1.13293753                0.84607655                9.05456250                2.39795290
               8.45006890                6.94901196                8.10109148                0.44893746               -0.22791520               -0.22310826                0.80473595                0.13589451                1.31198050                1.42674618
               9.44875034                6.92454161                8.01019037                0.99859089               -0.01515521               -0.03036274                0.06390678                0.00096208                0.02899385                0.44147094
              10.44976579                6.90072269                7.91873552                1.00000000                0.10154553                0.16562982               -0.67513209               -0.04690297                0.00289452               -0.58270760
               0.44629891                8.08996650                8.06509759                1.00000000               -0.03046079               -0.15710873                0.57499144               -0.04864291                0.04609743                0.79956777
               1.44599431                8.07008783                7.96508085                0.67288616                0.11758816                0.09965460               -0.37498928               -0.00807238                0.14079553               -0.32873753
               2.44865068                8.04951227                7.86685594                0.02761026                0.87349055                0.35858049               -1.32291282                0.11585110                7.96751909               -1.35036997
               3.46346412                8.03044114                7.92359610                0.00010000                1.28589134                0.05891224               -0.71529848                0.48036851               15.92123565               -0.21909522
               4.47436850                8.01222938                7.98624564                0.00010000                0.86998029               -0.15193154               -0.18008830                0.82197848               16.33252767                0.28418175
               5.48086372                7.99608133                8.05290223                0.00010000                0.39337079               -0.23794156                0.35128331                1.05941496               16.69012666                0.74387521
               6.48223592                7.98155883                8.12427056                0.00010000               -0.12208157               -0.30796901                0.91277071                1.14363522               17.12011358                1.30969741
               7.47842209                7.96807211                8.20084753                0.15454133               -0.40706800               -0.44228869                1.53671674                0.63954530               10.01488551                2.12517603
               8.47409456                7.94628908                8.13120081                0.45617734               -0.32503607               -0.32460881                1.12082772                0.08282992                1.40010967                1.36963502
               9.47192137                7.92386861                8.03572010                0.99864519               -0.09806359               -0.10736254                0.33321766                0.00001118                0.05823160                0.45938009
              10.47213329                7.90212887                7.93919648                0.99979463                0.02119179                0.11386242               -0.44276588               -0.04677504                0.00681378               -0.56414527
               0.46444193                9.08867707                8.04840435                1.00000000                0.04492301               -0.10248637                0.34980008               -0.04549070                0.04028868                0.65288295
               1.46489116                9.07154647                7.94263779                0.63149303                0.19600687                0.19314888               -0.65524241               -0.00217110                0.21283178               -0.33689628
               2.46836207                9.05371959                7.84025899                0.01115999                1.02835410                0.47494598               -1.65654293               -0.21881240                9.07991537               -1.08329205
               3.48545824                9.03061089                7.91211645                0.00010000                1.51428570               -0.11872682               -0.93039409                0.03252893               17.69332378               -0.22064337
               4.49864778                9.01009230                7.98444261                0.00010000                1.00408788               -0.22682211               -0.25322906                0.41728779               17.76718285                0.14417460
               5.50554000                8.99330871                8.05992673                0.00010000                0.39158074               -0.29895636                0.40866754                0.64694903               18.13657985                0.41930893
               6.50647940                8.97811804                8.14122250                0.00010000               -0.20853498               -0.37704082                1.10927564                0.69451282               18.79203644                0.76172580
               7.50136930                8.96299681                8.23113381                0.15774390               -0.52751981               -0.55431552                1.93274043                0.39046317               11.13581952                1.42027206
               8.49592900                8.94251979                8.16042461                0.45914290               -0.42292668               -0.42386031                1.43769490                0.03419109                1.68160163                1.01417834
               9.49291077                8.92239436                8.06146676                0.99983418               -0.18096162               -0.19124208                0.61269878                0.00121761                0.13118458                0.41467205
              10.49230977                8.90299994                7.95971499                0.99956153               -0.06009992                0.05699492               -0.19881155               -0.04655956               -0.00897604               -0.48258249
               0.47965029               10.08791677                8.02902546                1.00000000                0.12580718               -0.07602953                0.10891035                0.12423932                0.36197361                0.52821789
               1.48090836               10.07395080                7.92066545                0.80244364                0.27798618                0.24043325               -0.92005183                0.15644102                0.69256878               -0.31930192
               2.48521002               10.05901119                7.81890557                0.50060190                1.34168091                0.52915987               -1.91270140               -0.60941533               10.23932337               -0.84222153
               3.50774198               10.02806660                7.90181961                0.43207334                1.74032097               -0.25442829               -1.08378203               -0.33753836               19.07459800               -0.11667917
               4.52001643               10.00769294                7.98088877                0.42897258                0.90174947               -0.23993606               -0.31480427                0.23864536               18.91315839                0.09230867
               5.52577697                9.99010221                8.06277194                0.45185688                0.32108209               -0.32065067                0.43984457                0.33995053               19.30297331                0.24374343
               6.52643808                9.97401801                8.15098791                0.49801858               -0.19736826               -0.41000240                1.23973381                0.34004779               20.15048474                0.43088658
               7.52182961                9.95698580                8.25093703                0.58000878               -0.55286202               -0.60110105                2.19301179                0.23572336               12.30974922                0.90690229
               8.51538084                9.93781187                8.18343573                0.73026598               -0.51820163               -0.47079164                1.69923039                0.09808178                2.43332878                0.70712710
               9.51146557                9.92004377                8.08611486                1.00000000               -0.26949462               -0.23505924                0.89460146                0.12832553                0.59085889                0.35937611
              10.50999094                9.90326877                7.98177331                0.99997881               -0.14746295                0.02688328                0.06556964                0.09061777                0.23803204               -0.40707640
               0.28391018                0.14853912                9.21526324                1.00000000               -0.56255133               -0.64325370                2.23614627               -0.14043426               -0.57377915                0.63216878
               1.27828466                0.10714024                9.14892032                1.00000000               -0.44653875               -0.46254819                1.64282253               -0.09950305               -0.56630426               -0.03413025
               2.27497940                0.06566910                9.08264049                0.71714374               -0.08303307               -0.31332692                1.04433906                0.07707241               -0.27645313               -0.59299179
               3.27662400                0.02821098                9.02218667                0.52086710                0.52841387               -0.18221618                0.46255490                0.36906390                1.23451800               -0.07854992
               4.28554768                0.00308180                8.98641623                0.45071159                0.90383352               -0.15565410               -0.00188822                0.34264002                3.69428252               -0.06739906
               5.29470067               -0.00877279                8.97565878                0.45935797                0.51764014               -0.08541527               -0.34443577                0.16049765                4.77893693               -0.00504929
               6.29590048               -0.02108360                8.96212806                0.53641114               -0.03410026                0.09494877               -0.68416076                0.25235500                3.42145539                0.04944685
               7.29401867               -0.04553711                8.92446421                0.69705742               -0.03442623                0.28328032               -1.11540161                0.25115773                1.25430091                0.08183775
               8.29521196               -0.08062832                8.86761226                0.98317732                0.31087572                0.45861638               -1.62255689                0.08805674               -0.07039735                0.29926845
               9.30023618               -0.11969720                8.80343209                1.00000000                0.60723288                0.61002013               -2.16285994               -0.07584856               -0.42645950                0.16000784
              10.30735662               -0.15880651                8.73942706                1.00000000                0.71204333                0.76154485               -2.69913313               -0.13451543               -0.41663250               -0.41498125
               0.32390472                1.14210659                9.19460144                1.00000000               -0.51800758               -0.60844440                2.01804684               -0.05247769               -0.02510359                0.83195221
               1.31872465                1.10251475                9.12764501                1.00000000               -0.43449841               -0.42644595                1.42321881               -0.01815495                0.03716617               -0.06335121
               2.31521475                1.06253583                9.06183537                0.28458961               -0.35581762               -0.27379167                0.83237810                0.18888684                0.91809829               -0.91734062
               3.31160829                1.02638882                9.01258529                0.00141165               -0.38743945               -0.15798296                0.33339573                0.78151724                2.70088981               -1.10676537
               4.30746597                1.00152525                8.98287782                0.00416269               -0.16099741                0.32077442               -0.05972183                1.68850449                4.89579236                0.25423225
               5.30838835                0.99037306                8.97844974                0.00600269                0.46701141                0.08119015               -0.30999651                2.03697633                5.95651260                0.17246021
               6.31680619                0.97986589                8.97095826                0.01486827                0.89571308               -0.08771798               -0.56349031                1.65753955                4.56126164                0.13878280
               7.32630261                0.95729570                8.93908237                0.24833756                0.81831881                0.31223989               -0.92934328                0.91970567                2.47985544                1.07862391
               8.33317257                0.92395784                8.88992729                0.68502255                0.61320934                0.43168135               -1.38099785                0.29059699                1.08095403                0.81212842
               9.33856679                0.88640301                8.82994166                1.00000000                0.59741049                0.56528200               -1.88184345                0.02495675                0.33716963                0.40553850
              10.34512078                0.84880893                8.76580666                1.00000000                0.65539854                0.70748878               -2.41546503               -0.05171188                0.13346619               -0.44790084
               0.36204429                2.13637024                9.17776790                1.00000000               -0.45519654               -0.54191116                1.82470920               -0.05371685                0.08673105                1.01694630
               1.35749232                2.09861132                9.10575548                0.87973791               -0.35806071               -0.36017698                1.20060596               -0.02050589                0.13702517               -0.18713781
               2.35488307                2.06019327                9.03463380                0.11713414               -0.21136997               -0.19746176                0.59056842                0.19782791                1.12868200               -1.41116034
               3.35326492                2.02505132                8.98253552                0.00010000                0.02252283                0.15303141                0.08698813                1.57610580                4.83356872               -1.23576664
               4.35533353                2.00949728                8.98567647                0.00010000                0.19173199                0.55063581               -0.04416447                2.86038219                7.30211541                0.27770030
               5.35709956                1.99285102                8.98454145                0.00010000                0.33975543                0.24184051               -0.24562327                2.99046537                6.93519815                0.50223997
               6.36212864                1.97716204                8.98138199                0.00010000                0.56106331               -0.08745405               -0.45335429                2.75319868                6.56500523                0.80717194
               7.36832083                1.96070769                8.97350353                0.09728732                0.48939745                0.18508525               -0.63571361                1.61187252                4.14595210                2.20728557
               8.37191659                1.92800531                8.92241506                0.38113003                0.37816990                0.38965233               -1.06836611                0.36879148                1.48472712                2.02840081
               9.37588423                1.89160844                8.86127471                0.96373031                0.47969659                0.47626392               -1.56537543                0.04525045                0.55501070                0.74216876
              10.38151052                1.85534326                8.79144006                1.00000000                0.56262926                0.59696846               -2.12789629               -0.04465907                0.12661811               -0.43016601
               0.39834822                3.13126836                9.16069880                1.00000000               -0.38567223               -0.47637352                1.62337948               -0.05623897                0.03659279                0.97875458
               1.39449150                3.09531122                9.08198480                0.82330624               -0.28084571               -0.29426609                0.94999722               -0.02513823                0.08057098               -0.28786237
               2.39273131                3.05858659                9.00402162                0.08953159               -0.03325534               -0.11886016                0.28366643                0.40242682                2.34415334               -1.56808227
               3.39382639                3.02944945                8.97068726                0.00010000                0.20713047                0.39138131                0.12202707                1.66126055                6.81772735               -0.26525185
               4.39687392                3.01253797                8.98260130                0.00010000                0.33532505                0.25569649               -0.04043825                2.36699950                8.97042795                0.12444572
               5.40053289                2.99520987                8.99391672                0.00010000                0.35697883                0.19022328               -0.15663029                2.46580083                8.79580176                0.79216251
               6.40401349                2.97811681                9.00364337                0.00010000                0.35819510                0.10003753               -0.27405300                2.37728157                8.52343067                1.58461618
               7.40769679                2.96099740                9.01045738                0.10548753                0.28170760                0.08813072               -0.46178816                1.55066957                5.92880414                2.66832589
               8.40964765                2.93175089                8.96890425                0.37666143                0.22185270                0.28817448               -0.61155145                0.44333660                1.85116118                2.35272110
               9.41213385                2.89592828                8.89429812                0.91218512                0.35551588                0.37260175               -1.20042853                0.01973552                0.11618112                0.74199460
              10.41675796                2.86074830                8.81792134                1.00000000                0.46241138                0.48265021               -1.81439136               -0.04605155                0.03532670               -0.44205604
               0.43283381                4.12684277                9.14306768                1.00000000               -0.31624783               -0.40768280                1.41233031               -0.05477191                0.02537243                0.94150077
               1.42967133                4.09272600                9.05806091                0.79460650               -0.20202142               -0.22139472                0.69239227               -0.02423758                0.06232496               -0.29210665
               2.42879338                4.05781606                8.97366218                0.07814210                0.14337158               -0.03533286               -0.02635689                0.52249373                3.59795978               -1.52278847
               3.43253876                4.03287895                8.95949536                0.00010000                0.40598610                0.28214376                0.06116276                1.60842923                8.92867495               -0.19762188
               4.43691310                4.01461121                8.98222028                0.00010000                0.41489906                0.17229287               -0.02213648                2.09472465               10.72828947                0.33683239
               5.44083674                3.99665548                9.00575497                0.00010000                0.34868208                0.10710644               -0.05083657                2.16358653               10.70020631                1.00271051
               6.44388674                3.97916280                9.02950329                0.00010000                0.24317005                0.07178306               -0.06616548                2.17102189               10.70161043                1.85005294
               7.44570014                3.96247030                9.05429456                0.11856157                0.09828480                0.10444623               -0.10549580                1.43412086                7.11861786                2.97391028
               8.44585244                3.93376880                9.00729313                0.39780886                0.07906919                0.12729727               -0.19943116                0.38008939                1.76289456                1.79138801
               9.44728152                3.89906048                8.92517585                0.94016066                0.25485061                0.25472345               -0.84417988                0.01210971                0.00611643                0.57563838
              10.45094945                3.86499627                8.84288989                1.00000000                0.36679241                0.38133934               -1.49306367               -0.04975201                0.00573489               -0.55587925
               0.46548632                5.12311471                9.12526697                1.00000000               -0.24528713               -0.33930129                1.19813781               -0.05273718                0.02953567                0.92559603
               1.46303345                5.09088332                9.03416542                0.76444084               -0.12290465               -0.14602386                0.43234530               -0.01984293                0.07581033               -0.29290675
               2.46302823                5.05787994                8.94386005                0.06634839                0.30831876                0.04961975               -0.33160583                0.53916506                4.85507486               -1.48886566
               3.46919983                5.03509232                8.94847684                0.00010000                0.59818247                0.20018278               -0.08329481                1.48752004               11.06219648               -0.10404316
               4.47499188                5.01598383                8.98308987                0.00010000                0.50266085                0.10355635               -0.03126849                1.82850121               12.54307261                0.44097266
               5.47925304                4.99735200                9.01909949                0.00010000                0.33136153                0.03250603                0.05960178                1.92584939               12.61148944                1.11156996
               6.48161911                4.97955247                9.05686020                0.00010000                0.12600839               -0.00694311                0.17476480                1.96700723               12.74793821                1.92945167
               7.48177321                4.96308632                9.09710299                0.12958856               -0.04799251               -0.01234376                0.30129132                1.25712470                8.04589321                2.86677795
               8.48065926                4.93429684                9.04199721                0.41561553               -0.03123181               -0.00725924                0.15684181                0.29682261                1.63818724                1.57649277
               9.48114857                4.90102275                8.95431073                0.96613781                0.16160452                0.14696300               -0.52132165                0.01196556                0.00885800                0.47331762
              10.48389135                4.86837509                8.86648884                1.00000000                0.27427743                0.30123170               -1.20187187               -0.04676609                0.00941384               -0.63414968
               0.49624184                6.12005674                9.10732616                1.00000000               -0.17325966               -0.27350193                0.98171993               -0.05077368                0.03399824                0.90930411
               1.49450924                6.08980552                9.01016543                0.73273616               -0.04370800               -0.06799021                0.16947327               -0.01544583                0.09233567               -0.30587833
               2.49536768                6.05880846                8.91404930                0.05379826                0.48380152                0.14042559               -0.63871023                0.48683728                6.18424418               -1.49072367
               3.50418527                6.03688261                8.93886588                0.00010000                0.79278865                0.16452344               -0.27717646                1.28862356               13.20312610               -0.05507948
               4.51122345                6.01668234                8.98435682                0.00010000                0.57999074                0.04147006               -0.06780525                1.54597490               14.28821945                0.45799246
               5.51578508                5.99730560                9.03271164                0.00010000                0.31345556               -0.04350503                0.16430168                1.67510550               14.47881507                1.10873787
               6.51749256                5.97902393                9.08391619                0.00010000                0.01565934               -0.10377945                0.42300451                1.74054554               14.69400908                1.87867319
               7.51609827                5.96222343                9.13827926                0.13872079               -0.18200492               -0.15934239                0.70840963                1.06900470                8.93621959                2.73802773
               8.51385246                5.93362361                9.07571793                0.43024709               -0.13278446               -0.12004699                0.48302502                0.21602825                1.55295784                1.52070795
               9.51344258                5.90199974                8.98267041                0.98772954                0.07284953                0.05556092               -0.22438462                0.00826686                0.01867476                0.43822711
              10.51530945                5.87102090                8.88932469                1.00000000                0.18668701                0.23298127               -0.93397347               -0.04466254                0.00943857               -0.66115359
               0.52497329                7.11764467                9.08916418                1.00000000               -0.10004736               -0.20999149                0.76221068               -0.04894108                0.03719454                0.88533238
               1.52397282                7.08952352                8.98593524                0.69968784                0.03572994                0.01366741               -0.09798339               -0.01096882                0.11122597               -0.33095114
               2.52568789                7.06068845                8.88407998                0.04054500                0.65627990                0.24132039               -0.95339097                0.36449051                7.49315886               -1.50651328
               3.53709841                7.03838279                8.92864701                0.00010000                0.99002455                0.13170173               -0.49618576                0.97532806               15.32026577               -0.17673683
               4.54548838                7.01681323                8.98508654                0.00010000                0.66575736               -0.02373364               -0.12398504                1.21752190               16.01225703                0.38394834
               5.55041356                6.99648190                9.04548293                0.00010000                0.30119066               -0.12365827                0.25804659                1.39391358               16.30388344                0.99864436
               6.55151219                6.97747688                9.10977799                0.00010000               -0.09299677               -0.20112021                0.66767572                1.47163464               16.60580883                1.72686449
               7.54855362                6.95989948                9.17807252                0.14612062               -0.31543393               -0.30127922                1.11442316                0.86516401                9.86565657                2.59722903
               8.54520351                6.93189590                9.10911824                0.44200026               -0.23185006               -0.22339927                0.79842254                0.14521927                1.52045049                1.50024642
               9.54391662                6.90213397                9.01079141                0.99862713               -0.01238686               -0.02566178                0.05352426                0.00350930                0.02940162                0.44036250
              10.54495578                6.87303472                8.91195069                1.00000000                0.10391523                0.17337204               -0.68739534               -0.04538013                0.00714231               -0.64977482
               0.55150532                8.11585691                9.07065635                1.00000000               -0.02592365               -0.14989171                0.53966736               -0.04631869                0.04356550                0.85292490
               1.55124608                8.09007887                8.96136249                0.66452396                0.11464454                0.10013017               -0.36912809               -0.00569894                0.13825648               -0.37711720
               2.55379821                8.06363487                8.85387870                0.02639326                0.81604843                0.35235762               -1.27607450                0.15864183                8.71921958               -1.50111485
               3.56756705                8.03951664                8.91639419                0.00010000                1.18382856                0.07380477               -0.71540415                0.53368427               17.37739194               -0.32638039
               4.57747478                8.01620767                8.98435064                0.00010000                0.77163255               -0.11824152               -0.18932506                0.84838968               17.73679388                0.25386255
               5.58299970                7.99483244                9.05630416                0.00010000                0.30164465               -0.20182043                0.33819290                1.06960853               18.07818603                0.77553822
               6.58350767                7.97500153                9.13331626                0.00010000               -0.20085820               -0.28112373                0.90097349                1.14466045               18.52222049                1.40531528
               7.57898254                7.95619784                9.21617264                0.15197785               -0.44926607               -0.43456559                1.52570579                0.63813818               10.89808563                2.32621626
               8.57452235                7.92915563                9.14238373                0.45067702               -0.33042948               -0.32526867                1.11466050                0.08482287                1.57256463                1.44657970
               9.57237395                7.90148650                9.03903425                0.99864084               -0.09609962               -0.10588328                0.32693425                0.00144509                0.05064565                0.46510783
              10.57260036                7.87448834                8.93475263                0.99989178                0.02264118                0.11769571               -0.44792510               -0.04682605                0.00622025               -0.62509001
               0.57560300                9.11464683                9.05172154                1.00000000                0.04778805               -0.09406656                0.31654219               -0.04353372                0.03644661                0.69772118
               1.57608088                9.09152612                8.93616892                0.62703789                0.19099758                0.18998563               -0.64048174               -0.00080632                0.21105204               -0.37807193
               2.57942295                9.06773560                8.82405360                0.01133193                0.95592077                0.46017290               -1.59129803               -0.15880505                9.91998370               -1.19315908
               3.59519930                9.03985889                8.90291057                0.00010000                1.38587117               -0.08605978               -0.90583616                0.09263957               19.33557263               -0.28129702
               4.60714038                9.01444840                8.98186756                0.00010000                0.89062871               -0.18851880               -0.25182755                0.44168940               19.35802085                0.12515669
               5.61301187                8.99244549                9.06392104                0.00010000                0.29498086               -0.26077695                0.40050146                0.64895948               19.70744303                0.43626818
               6.61303999                8.97185441                9.15224604                0.00010000               -0.29247899               -0.34399376                1.10070727                0.68331216               20.40116684                0.81620521
               7.60716229                8.95120817                9.25039356                0.15712510               -0.57143403               -0.54286852                1.91828201                0.37523814               12.10676472                1.55276412
               8.60161131                8.92539052                9.17473034                0.45698131               -0.42747394               -0.42207166                1.42474145                0.03045566                1.82957141                1.06536786
               9.59861281                8.90001631                9.06758487                0.99981808               -0.17978657               -0.19087675                0.60925827                0.00151283                0.12296856                0.42841273
              10.59801558                8.87538863                8.95774718                0.99960760               -0.05972312                0.05840669               -0.19902381               -0.04663595               -0.01029703               -0.52542345
               0.59687607               10.11397558                9.02996162                1.00000000                0.12651152               -0.06712564                0.08055772                0.11760746                0.38383970                0.56471226
               1.59814119               10.09387858                8.91159523                0.80198310                0.27066333                0.23524596               -0.89751229                0.14916805                0.73347783               -0.35148000
               2.60228934               10.07283832                8.80020419                0.50120142                1.22829280                0.51027216               -1.83704989               -0.51751796               11.18577737               -0.91106085
               3.62270704               10.03779544                8.89115843                0.43274430                1.57163132               -0.20634443               -1.04620991               -0.26927669               20.87468022               -0.14420192
               4.63372197               10.01243729                8.97775022                0.42932321                0.79329183               -0.20111068               -0.30377931                0.24923180               20.65936083                0.08566853
               5.63857288                9.98961690                9.06712025                0.45206591                0.23446373               -0.28285926                0.44004847                0.34031918               21.03415927                0.25788805
               6.63841124                9.96812165                9.16336064                0.49827539               -0.28108478               -0.37327549                1.23964160                0.32330372               21.93591929                0.47005070
               7.63295119                9.94534047                9.27284223                0.58045474               -0.60439582               -0.58676911                2.18576241                0.20851653               13.38505011                0.98128886
               8.62632332                9.92071419                9.20036742                0.73065758               -0.52725442               -0.46763295                1.68949162                0.08762599                2.62164720                0.73235747
               9.62240610                9.89766897                9.09506692                1.00000000               -0.27001663               -0.23473375                0.89421746                0.12644261                0.61601512                0.37568177
              10.62092299                9.87565647                8.98247744                0.99999705               -0.14831052                0.02678445                0.07082862                0.08949178                0.25152339               -0.43739091
               0.34723371                0.17685084               10.23747591                1.00000000               -0.55853111               -0.63544972                2.20845815               -0.13578042               -0.62197210                0.67957243
               1.34164840                0.12917647               10.16532843                1.00000000               -0.44672111               -0.46085753                1.63824401               -0.09481663               -0.61797648               -0.03334774
               2.33829929                0.08141891               10.09318612                0.71712347               -0.09318200               -0.31680642                1.06198218                0.08059690               -0.32382002               -0.62974082
               3.33978476                0.03764904               10.02700602                0.52129488                0.50404853               -0.18645404                0.49745116                0.36756450                1.24385661               -0.08342308
               4.34838026                0.00621094                9.98655486                0.45134380                0.86956213               -0.14844178                0.02763948                0.33902188                3.79832858               -0.07211282
               5.35717600               -0.01179791                9.97223687                0.46000002                0.49164167               -0.07041137               -0.33912549                0.15839927                4.92832345               -0.00716470
               6.35821309               -0.03001772                9.95522311                0.53658615               -0.04295556                0.10606973               -0.69524831                0.25112898                3.52727490                0.05020702
               7.35631689               -0.06024426                9.91323937                0.69655807               -0.03407943                0.29020949               -1.12950325                0.25118903                1.28297205                0.08566083
               8.35753150               -0.10108514                9.85133546                0.98189406                0.31325119                0.46325365               -1.63496223                0.08851701               -0.09240967                0.31357200
               9.36258191               -0.14593267                9.78176486                1.00000000                0.60988439                0.61519498               -2.17427039               -0.07561131               -0.46114028                0.17329052
              10.36972919               -0.19084501                9.71241293                1.00000000                0.71472771                0.76703757               -2.70831705               -0.13389179               -0.44645361               -0.43854273
               0.39355027                1.17049634               10.21463515                1.00000000               -0.51340780               -0.60190454                1.99091594               -0.05063002               -0.03033931                0.89068805
               1.38841620                1.12456790               10.14185975                1.00000000               -0.43406493               -0.42497143                1.41936692               -0.01573415                0.03313889               -0.06377129
               2.38486897                1.07825085               10.07026744                0.28366415               -0.36759029               -0.27687339                0.85116125                0.19257765                0.96095313               -0.96684174
               3.38106439                1.03578450               10.01611125                0.00176061               -0.41875112               -0.16632960                0.36826602                0.79565639                2.83859789               -1.16667340
               4.37649395                1.00472653                9.98242011                0.00477458               -0.20950326                0.32207312               -0.03334742                1.69169633                5.15332210                0.28870735
               5.37687432                0.98749797                9.97533411                0.00679355                0.42268016                0.08912451               -0.31154649                2.04310233                6.27623008                0.19253098
               6.38494756                0.97104298                9.96521213                0.01475929                0.87440828               -0.08186212               -0.58303413                1.66390864                4.81113384                0.14115220
               7.39436249                0.94265783                9.92967053                0.24682223                0.81566601                0.32024673               -0.95139892                0.91773805                2.62023123                1.13910222
               8.40126088                0.90354740                9.87603333                0.68090478                0.61716234                0.43739026               -1.39836001                0.29048821                1.14804861                0.86303321
               9.40670574                0.86021928                9.81104333                1.00000000                0.60208696                0.57285490               -1.89867926                0.02557847                0.36145627                0.43612379
              10.41330261                0.81682537                9.74157289                1.00000000                0.65968783                0.71608628               -2.43269920               -0.05085548                0.14209617               -0.46904774
               0.43807800                2.16481275               10.19587204                1.00000000               -0.44987923               -0.53807727                1.79800706               -0.05140460                0.09493253                1.08366204
               1.43357921                2.12067704               10.11774626                0.86863955               -0.35718795               -0.35876421                1.19719202               -0.01758567                0.15178406               -0.20278393
               2.43093424                2.07588145               10.04065824                0.11523506               -0.21784985               -0.19804059                0.61176002                0.19822374                1.20249198               -1.50696218
               3.42922221                2.03432244                9.98360980                0.00010000               -0.02167667                0.15659211                0.12393511                1.58608137                5.13277352               -1.21731846
               4.43050071                2.01265241                9.98532265                0.00010000                0.12496908                0.55038882               -0.02788597                2.87285634                7.74520178                0.33227845
               5.43172159                1.98998458                9.98208924                0.00010000                0.29153475                0.24296262               -0.24367526                3.00451520                7.33805876                0.55048366
               6.43633140                1.96834504                9.97677398                0.00010000                0.52228187               -0.08475709               -0.46477322                2.77226591                6.96501741                0.84666972
               7.44216723                1.94616067                9.96702188                0.09491362                0.47242066                0.18531564               -0.65793976                1.62302996                4.41743473                2.26033798
               8.44577982                1.90766267                9.91161946                0.37553397                0.38241425                0.40537573               -1.08862869                0.37152233                1.59909645                2.18170414
               9.44981552                1.86552443                9.84546669                0.94887701                0.48600480                0.49113611               -1.59309062                0.04851197                0.60260854                0.81162872
              10.45549991                1.82347672                9.77000268                1.00000000                0.56843973                0.61240456               -2.15713138               -0.04231807                0.14256746               -0.43857492
               0.48079359                3.15973480               10.17679116                1.00000000               -0.37978077               -0.47488961                1.59668935               -0.05423152                0.03763771                1.03714258
               1.47699578                3.11739261               10.09146967                0.81087785               -0.28027718               -0.29218136                0.94634603               -0.02245113                0.08455697               -0.32018213
               2.47518805                3.07429004               10.00697739                0.08708317               -0.04903632               -0.11566875                0.30441935                0.41146210                2.59183847               -1.69730260
               3.47601506                3.03891634                9.97188552                0.00010000                0.15504494                0.41139480                0.12013356                1.66265630                7.30337711               -0.17339823
               4.47828895                3.01573430                9.98224504                0.00010000                0.26284678                0.26417082               -0.03205353                2.37487731                9.48615741                0.17634181
               5.48127199                2.99235722                9.99234000                0.00010000                0.29639148                0.19605883               -0.15729708                2.47807308                9.32279587                0.85591625
               6.48421678                2.96934784               10.00080810                0.00010000                0.31167333                0.10632505               -0.28793993                2.38590832                9.00764436                1.66819683
               7.48750546                2.94636415               10.00573705                0.10212974                0.25553932                0.08780390               -0.47462740                1.57205815                6.38196437                2.74858159
               8.48932756                2.91165491                9.96256793                0.36955993                0.21782335                0.31274100               -0.64898416                0.45949536                2.09445436                2.54813631
               9.49186193                2.87004201                9.88207500                0.89525867                0.36120593                0.39517097               -1.23873657                0.01958004                0.13114775                0.82921819
              10.49655168                2.82907346                9.79955046                1.00000000                0.46897548                0.50642208               -1.85538523               -0.04534647                0.03541463               -0.43464354
               0.52167774                4.15531496               10.15704543                1.00000000               -0.31027944               -0.40700387                1.38478049               -0.05311751                0.02360357                0.99483042
               1.51857494                4.11483342               10.06497111                0.78209003               -0.20189904               -0.21840911                0.68912655               -0.02213314                0.06042249               -0.32842435
               2.51763976                4.07356807                9.97352279                0.07555241                0.12280647               -0.02992111               -0.00416139                0.53811560                3.98263600               -1.65130324
               3.52103107                4.04255034                9.95999461                0.00010000                0.34588048                0.29882980                0.04276802                1.61266740                9.61263863               -0.19658122
               4.52455737                4.01793582                9.98199260                0.00010000                0.33192222                0.18855226               -0.02336074                2.09210238               11.36472625                0.37689667
               5.52766952                3.99390575               10.00521434                0.00010000                0.27426404                0.12137688               -0.05537329                2.16873064               11.35846945                1.07254393
               6.53004265                3.97047154               10.02873009                0.00010000                0.18158992                0.08413413               -0.08278048                2.17234877               11.34179715                1.95911785
               7.53130132                3.94791675               10.05302975                0.11471790                0.06246079                0.11904853               -0.13642244                1.45303297                7.70894264                3.15900641
               8.53129186                3.91391749               10.00508882                0.39006782                0.07436274                0.14826550               -0.23734443                0.40139393                2.04532908                1.93736809
               9.53278857                3.87342785                9.91650631                0.92258926                0.26191061                0.27872110               -0.88590251                0.01110953                0.00868044                0.64163165
              10.53653008                3.83360516                9.82770772                1.00000000                0.37415050                0.40932830               -1.54008997               -0.04935678                0.00459197               -0.55828100
               0.56069432                5.15159472               10.13709452                1.00000000               -0.23943157               -0.33764634                1.16918507               -0.05147883                0.02716145                0.97777752
               1.55830001                5.11302443               10.03847208                0.75269552               -0.12304430               -0.14242798                0.42885623               -0.01833929                0.07332349               -0.33137108
               2.55823344                5.07369162                9.94066483                0.06405139                0.28003245                0.05545486               -0.30936472                0.55669230                5.34153680               -1.61665777
               3.56390066                5.04489293                9.94751763                0.00010000                0.52710729                0.21083930               -0.10245399                1.48831828               11.93452853               -0.16854368
               4.56877558                5.01950535                9.98273494                0.00010000                0.41051157                0.12472051               -0.03772402                1.81847262               13.34268937                0.45041575
               5.57211089                4.99478476               10.01964662                0.00010000                0.24385858                0.05383324                0.05251452                1.92177166               13.42917806                1.17676963
               6.57365275                4.97103052               10.05849311                0.00010000                0.05046422                0.01267135                0.15689320                1.96323971               13.56739971                2.05430940
               7.57312017                4.94874512               10.09988672                0.12571877               -0.09042063                0.00840949                0.26344274                1.27230706                8.72833741                3.07551804
               8.57184434                4.91462022               10.04341861                0.40803577               -0.03618622                0.00634380                0.12886302                0.31615706                1.91398653                1.67903837
               9.57239645                4.87561643                9.94891477                0.94909660                0.16827942                0.16659385               -0.55674220                0.01154105                0.01034239                0.51017913
              10.57520993                4.83726003                9.85425622                1.00000000                0.28134828                0.32630967               -1.24416644               -0.04645825                0.00944483               -0.66131349
               0.59778874                6.14856203               10.11698073                1.00000000               -0.16774785               -0.26995115                0.95138623               -0.04947352                0.03203450                0.96002779
               1.59611126                6.11198486               10.01184477                0.72187229               -0.04418202               -0.06435663                0.16646746               -0.01388891                0.09121699               -0.34718453
               2.59690510                6.07467717                9.90779077                0.05193523                0.44362232                0.14483514               -0.61490574                0.50493044                6.75168738               -1.62279136
               3.60498371                6.04676713                9.93598184                0.00010000                0.70649457                0.17383281               -0.29136684                1.29095772               14.25476474               -0.15480375
               4.61103499                6.02043023                9.98362242                0.00010000                0.47980345                0.06553669               -0.07477249                1.53486662               15.27484813                0.44297443
               5.61457978                5.99498242               10.03430188                0.00010000                0.21560483               -0.01684248                0.15738702                1.66256080               15.47401820                1.16298430
               6.61534709                5.97072497               10.08805471                0.00010000               -0.07110120               -0.08079423                0.40850630                1.72869138               15.69806337                2.00236515
               7.61315775                5.94808494               10.14519400                0.13511632               -0.23016971               -0.14256686                0.67816015                1.07403740                9.68916995                2.94552402
               8.61074369                5.91404437               10.08046776                0.42309556               -0.13890809               -0.11345652                0.46700065                0.22947315                1.80422296                1.60107708
               9.61037959                5.87675973                9.98029961                0.97121833                0.07850112                0.06842960               -0.25050928                0.00982315                0.02106277                0.45400232
              10.61231372                5.84013135                9.87982006                1.00000000                0.19341249                0.25196157               -0.96907624               -0.04382994                0.01197256               -0.70783472
               0.63285920                7.14619570               10.09661997                1.00000000               -0.09521088               -0.20471997                0.73143855               -0.04737978                0.03528662                0.93366328
               1.63190709                7.11173730                9.98495410                0.68982049                0.03452883                0.01634767               -0.09839432               -0.00907771                0.11063042               -0.37528141
               2.63354978                7.07658832                9.87470541                0.03920284                0.60298285                0.24195942               -0.92419073                0.38652781                8.13365439               -1.64472430
               3.64396675                7.04836959                9.92363105                0.00010000                0.88539240                0.14414233               -0.49898009                0.98920327               16.54840803               -0.28488880
               4.65125762                7.02081608                9.98380521                0.00010000                0.55503099                0.00476946               -0.12643287                1.21188751               17.19529957                0.35606512
               5.65506737                6.99444791               10.04802117                0.00010000                0.19332174               -0.09142149                0.25418163                1.37403025               17.48625659                1.03999883
               6.65512406                6.96941464               10.11639541                0.00010000               -0.18929222               -0.17639423                0.65879936                1.44553109               17.80011736                1.84074150
               7.65128152                6.94589378               10.18911716                0.14308189               -0.36825207               -0.29047738                1.09540911                0.85475196               10.68320591                2.80381585
               8.64775902                6.91235109               10.11705993                0.43555597               -0.23878002               -0.22178962                0.79016886                0.15158956                1.73749249                1.57349556
               9.64650592                6.87698502               10.01126086                0.98962338               -0.00844677               -0.01912141                0.03843235                0.00669793                0.02990175                0.44431399
              10.64759008                6.84229926                9.90498761                1.00000000                0.10841598                0.18496147               -0.70940665               -0.04321485                0.01112054               -0.70681305
               0.66575794                8.14446763               10.07589094                1.00000000               -0.02208569               -0.14347410                0.50981574               -0.04473616                0.04127436                0.89945392
               1.66553709                8.11231181                9.95769829                0.65643518                0.11227106                0.10075000               -0.36457745               -0.00391068                0.13633215               -0.42234045
               2.66800336                8.07951636                9.84133445                0.02582305                0.75014633                0.34712974               -1.23694428                0.19042411                9.43598464               -1.63699853
               3.68054001                8.04964997                9.90928802                0.00010000                1.05955277                0.09255616               -0.70079645                0.56991265               18.78415950               -0.41568524
               4.68919442                8.02052562                9.98245914                0.00010000                0.64609075               -0.08101113               -0.18299151                0.85220592               19.11270709                0.22679713
               5.69346183                7.99315399               10.05966609                0.00010000                0.18087122               -0.16149650                0.33942483                1.04572367               19.44944255                0.80340227
               6.69281184                7.96719708               10.14229003                0.00010000               -0.30727466               -0.25084365                0.89682869                1.10137775               19.91644738                1.49614985
               7.68731633                7.94227539               10.23136165                0.14994836               -0.50637994               -0.42556363                1.51242884                0.60751324               11.78508585                2.52175148
               8.68268425                7.90960857               10.15349402                0.44571357               -0.33754732               -0.32538207                1.10853268                0.08360040                1.75055967                1.51466757
               9.68056539                7.87637730               10.04225878                0.99863356               -0.09316496               -0.10275371                0.31703345                0.00346938                0.04528175                0.47011305
              10.68082095                7.84383058                9.93023798                1.00000000                0.02555579                0.12336965               -0.45922768               -0.04521470                0.00949654               -0.68047208
               0.69627612                9.14332621               10.05473520                1.00000000                0.05040333               -0.08683878                0.28861377               -0.04229454                0.03324458                0.73730799
               1.69678015                9.11375230                9.92982815                0.62220198                0.18719892                0.18783894               -0.62970964                0.00014829                0.21140579               -0.41557785
               2.70002009                9.08353091                9.80843302                0.01191570                0.87877932                0.44862103               -1.53939997               -0.10862939               10.72612050               -1.28930378
               3.71435574                9.05022071                9.89399972                0.00010000                1.23888161               -0.04815664               -0.87482384                0.14072442               20.91967315               -0.32817361
               4.72479773                9.01919586                9.97940606                0.00010000                0.74773210               -0.14423201               -0.23538305                0.45223391               20.91062410                0.10974800
               5.72931038                8.99121798               10.06793676                0.00010000                0.16162405               -0.21462241                0.40797642                0.62949093               21.25771944                0.45067756
               6.72803021                8.96439776               10.16323664                0.00010000               -0.41450400               -0.30036265                1.10073285                0.63935803               21.99821132                0.86504623
               7.72102030                8.93738251               10.26949945                0.15657553               -0.63505448               -0.52805763                1.90377485                0.33265904               13.07533109                1.67627528
               8.71532912                8.90584345               10.18891944                0.45470019               -0.43334991               -0.42118603                1.41639085                0.02261432                1.98272546                1.10736297
               9.71235330                8.87492995               10.07365192                0.99978269               -0.17749475               -0.18919955                0.60195760                0.00168308                0.11769129                0.43984885
              10.71177922                8.84476665                9.95573451                0.99965361               -0.05740765                0.06149167               -0.20685023               -0.04735863               -0.01179892               -0.56541843
               0.72405989               10.14273085               10.03063662                1.00000000                0.12754670               -0.05953598                0.05633630                0.11215035                0.40327361                0.59717899
               1.72533535               10.11606859                9.90271521                0.80085466                0.26512374                0.23162910               -0.88160972                0.14341646                0.77301167               -0.38062635
               2.72936236               10.08848878                9.78216457                0.50188123                1.11771019                0.49578640               -1.77904322               -0.43486085               12.09496559               -0.97018808
               3.74768956               10.04868684                9.88089541                0.43354539                1.39397339               -0.15338733               -1.00649063               -0.20900778               22.61571234               -0.16476068
               4.75724183               10.01764098                9.97481319                0.42966006                0.65800924               -0.15548773               -0.27954764                0.25314511               22.36648243                0.08116375
               5.76084974                9.98886154               10.07157290                0.45217465                0.10963261               -0.23564432                0.45494130                0.33137883               22.74542989                0.27038237
               6.75943448                9.96118983               10.17578074                0.49840189               -0.41629582               -0.32079326                1.24653160                0.28306232               23.70833154                0.50439099
               7.75252383                9.93171424               10.29465228                0.58070186               -0.69226939               -0.56682661                2.17619006                0.15010381               14.45373921                1.04966041
               8.74558909                9.90118485               10.21722557                0.73056112               -0.54239861               -0.46586011                1.68472985                0.06995087                2.80973143                0.75180259
               9.74167585                9.87259331               10.10399920                1.00000000               -0.26943637               -0.23366366                0.89135390                0.12603352                0.64095272                0.38930451
              10.74020037                9.84506042                9.98318988                1.00000000               -0.14754877                0.02937660                0.06714966                0.08882486                0.26369750               -0.46445006
               0.41576569                0.20781208               11.25943241                1.00000000               -0.55507603               -0.62878704                2.18477391               -0.13183923               -0.66975132                0.72648313
               1.41021493                0.15341064               11.18168520                1.00000000               -0.44701357               -0.45891406                1.63274023               -0.09100180               -0.66947414               -0.03255679
               2.40682541                0.09891163               11.10388013                0.71684950               -0.10412670               -0.31847650                1.07441987                0.08176057               -0.37325938               -0.66608150
               3.40813239                0.04833205               11.03213569                0.52183102                0.47289934               -0.18804771                0.52492544                0.35938970                1.24009069               -0.08794713
               4.41628340                0.00990904               10.98696902                0.45197746                0.82332499               -0.13774328                0.05296564                0.33048339                3.87411921               -0.07605853
               5.42459889               -0.01511057               10.96887627                0.46052300                0.45800411               -0.05181207               -0.33327663                0.15387642                5.04779942               -0.00821731
               6.42544348               -0.04005750               10.94822310                0.53662086               -0.05165663                0.11955638               -0.70485637                0.24611481                3.61624873                0.05168602
               7.42356576               -0.07668622               10.90187414                0.69582733               -0.03026060                0.29814439               -1.14457828                0.24727171                1.30554877                0.08977133
               8.42483827               -0.12375262               10.83491301                0.97991641                0.31850727                0.46871302               -1.65141245                0.08714207               -0.11734868                0.32887737
               9.42993590               -0.17478832               10.75994668                1.00000000                0.61465629                0.62119689               -2.19166445               -0.07518767               -0.49795259                0.18568773
              10.43713140               -0.22589728               10.68526072                1.00000000                0.71954930                0.77355116               -2.72459190               -0.13367772               -0.47842469               -0.46805909
               0.46884874                1.20152421               11.23441975                1.00000000               -0.50936015               -0.59623101                1.96802433               -0.04883034               -0.03512770                0.94863275
               1.46375513                1.14882150               11.15603235                1.00000000               -0.43332102               -0.42324615                1.41490230               -0.01352359                0.02936706               -0.06455808
               2.46018231                1.09572687               11.07885859                0.28267854               -0.37637747               -0.27837794                0.86459478                0.19370179                1.00131206               -1.01538575
               3.45622758                1.04645158               11.01995061                0.00206894               -0.44363842               -0.17006814                0.39612498                0.79641668                2.96043594               -1.22604790
               4.45130955                1.00853161               10.98221087                0.00531836               -0.25533298                0.32044401               -0.01048059                1.66972276                5.37620309                0.31906231
               5.45112092                0.98437131               10.97221881                0.00751294                0.36914542                0.09826852               -0.31122215                2.02084893                6.56147869                0.21680991
               6.45869245                0.96113807               10.95929758                0.01466399                0.83825550               -0.07215150               -0.59916379                1.64883916                5.04406280                0.15173959
               7.46788603                0.92629523               10.92005439                0.24544171                0.80341445                0.32670716               -0.97188189                0.90273698                2.75827382                1.20371279
               8.47476074                0.88093451               10.86196009                0.67665286                0.61851623                0.44287016               -1.41734927                0.28719270                1.21644829                0.91643056
               9.48025636                0.83142365               10.79196807                1.00000000                0.60714180                0.57988317               -1.91714728                0.02604925                0.38552065                0.46308535
              10.48690358                0.78183823               10.71715267                1.00000000                0.66472204                0.72457346               -2.45210088               -0.05061700                0.14961811               -0.49859024
               0.52019450                2.19588746               11.21372804                1.00000000               -0.44527023               -0.53431917                1.77500889               -0.04941322                0.10386485                1.14878677
               1.51574180                2.14494572               11.12969932                0.85766640               -0.35625633               -0.35693893                1.19319256               -0.01510564                0.16810966               -0.21973703
               2.51306938                2.09334407               11.04686901                0.11377840               -0.22429081               -0.19754359                0.62817299                0.19774434                1.27443222               -1.60298640
               3.51125598                2.04493069               10.98501422                0.00010000               -0.06556269                0.15725450                0.15361228                1.56862734                5.41135783               -1.21637589
               4.51175812                2.01631792               10.98511875                0.00010000                0.05767137                0.54316287               -0.01362589                2.83785721                8.15560130                0.38052573
               5.51240941                1.98685480               10.97966795                0.00010000                0.23691129                0.24158933               -0.24023413                2.97431901                7.71472562                0.60329654
               6.51649635                1.95849947               10.97208653                0.00010000                0.47073190               -0.08067136               -0.47151134                2.75350013                7.34553921                0.89580652
               7.52182405                1.92984793               10.96034473                0.09315850                0.44786777                0.18329669               -0.67698692                1.61477652                4.68505865                2.32915278
               8.52545370                1.88510479               10.90064248                0.37083285                0.38645609                0.41548668               -1.10623279                0.36997277                1.71257533                2.33325651
               9.52955317                1.83680934               10.82941290                0.93469039                0.49180938                0.50246925               -1.61606851                0.05036580                0.64828900                0.87489901
              10.53528989                1.78859419               10.74829744                1.00000000                0.57367197                0.62560805               -2.18248908               -0.04092765                0.15916941               -0.45712682
               0.56974396                3.19083783               11.19263258                1.00000000               -0.37475484               -0.47257242                1.57322933               -0.05251025                0.03890559                1.09269605
               1.56599641                3.14168272               11.10091172                0.79893539               -0.27958646               -0.28953084                0.94165332               -0.02006125                0.08954507               -0.35419435
               2.56415223                3.09177599               11.01011001                0.08526025               -0.06850640               -0.11207573                0.31952665                0.41335788                2.82143199               -1.82733829
               3.56462628                3.04959667               10.97308993                0.00010000                0.09951746                0.41922606                0.12485015                1.63423067                7.76776103               -0.10413469
               4.56614258                3.01939486               10.98196023                0.00010000                0.18997349                0.26706641               -0.02447681                2.34181040                9.98452099                0.22165861
               5.56842575                2.98920310               10.99077077                0.00010000                0.23133755                0.19724713               -0.15549437                2.44944990                9.82667866                0.92001057
               6.57076933                2.95952464               10.99788457                0.00010000                0.25752481                0.10803332               -0.29432107                2.35844953                9.47895319                1.75521965
               7.57357625                2.92996116               11.00096483                0.09951823                0.22147256                0.08264179               -0.47780019                1.57079098                6.82171037                2.83476380
               8.57519878                2.88924425               10.95592457                0.36349762                0.20990117                0.32803461               -0.67502414                0.46703158                2.32648539                2.74033397
               9.57777427                2.84147303               10.86952339                0.87918788                0.36582761                0.41220002               -1.26787161                0.01946048                0.14732740                0.91188162
              10.58251533                2.79435039               10.78081364                1.00000000                0.47410616                0.52653479               -1.88887198               -0.04483580                0.03671357               -0.43554605
               0.61745451                4.18643601               11.17076329                1.00000000               -0.30521010               -0.40514402                1.36042921               -0.05156735                0.02256389                1.04388599
               1.61440241                4.13915510               11.07184344                0.76976955               -0.20159603               -0.21502424                0.68492341               -0.02001279                0.06005165               -0.36658220
               2.61342259                4.09110256               10.97357895                0.07349245                0.09596584               -0.02485956                0.01282835                0.54106450                4.34077464               -1.77981415
               3.61632173                4.05331521               10.96035072                0.00010000                0.27826543                0.30687785                0.03392531                1.58753466               10.27108961               -0.20119103
               4.61898790                4.02165925               10.98175306                0.00010000                0.24734540                0.19837295               -0.02259125                2.05293147               11.99122119                0.41152989
               5.62126864                3.99079974               11.00464750                0.00010000                0.19596868                0.12983795               -0.05620407                2.13267841               11.99799779                1.14174394
               6.62290727                3.96066014               11.02784768                0.00010000                0.11258119                0.08947023               -0.09050100                2.13293444               11.96511702                2.07074481
               7.62352026                3.93150076               11.05156611                0.11156282                0.01875945                0.12356385               -0.15092672                1.44217762                8.28863286                3.33856940
               8.62328246                3.89166548               11.00254624                0.38306128                0.06579882                0.16272085               -0.26702626                0.41323703                2.32423282                2.08916230
               9.62483624                3.84505334               10.90745780                0.90507556                0.26779975                0.29799976               -0.92018545                0.01014715                0.01221879                0.70903375
              10.62863846                3.79912489               10.81208809                1.00000000                0.38022213                0.43430459               -1.58078292               -0.04874561                0.00375607               -0.56271367
               0.66327444                5.18273495               11.14865068                1.00000000               -0.23448260               -0.33520848                1.14388309               -0.05027396                0.02530418                1.02464600
               1.66092961                5.13738224               11.04274255                0.74083076               -0.12305133               -0.13876497                0.42500924               -0.01675073                0.07182936               -0.37193414
               2.66081341                5.09127880               10.93767276                0.06214258                0.24453369                0.06047465               -0.29125938                0.55968718                5.80063348               -1.74425327
               3.66582029                5.05573422               10.94642776                0.00010000                0.44516327                0.21789495               -0.11015347                1.46053563               12.77915441               -0.22903951
               4.66971668                5.02336232               10.98233539                0.00010000                0.31290727                0.14061534               -0.03922011                1.77390552               14.13275804                0.45809058
               5.67207843                4.99179985               11.02014978                0.00010000                0.15051615                0.06954955                0.05050614                1.87581206               14.23160255                1.24202937
               6.67272700                4.96131404               11.05999807                0.00010000               -0.03319856                0.02543980                0.14730435                1.91435082               14.36938118                2.18243673
               7.67141446                4.93243244               11.10237184                0.12243716               -0.14080297                0.02013566                0.23867202                1.25664883                9.40810577                3.28683478
               8.66991094                4.89249867               11.04457447                0.40087765               -0.04483254                0.01691758                0.10473003                0.32747172                2.19507708                1.79237727
               9.67051781                4.84743303               10.94317589                0.93140548                0.17431991                0.18401760               -0.58885049                0.01065628                0.01165447                0.55359140
              10.67339734                4.80303649               10.84160551                1.00000000                0.28795293                0.35039655               -1.28465504               -0.04617670                0.00926803               -0.68497252
               0.70715445                6.17973185               11.12635388                1.00000000               -0.16309130               -0.26636082                0.92533098               -0.04838830                0.03017341                1.00514747
               1.70552354                6.13637980               11.01349478                0.71085513               -0.04450525               -0.06089356                0.16339935               -0.01247099                0.09029388               -0.38963307
               2.70626435                6.09231205               10.90175119                0.05038809                0.39626888                0.14857391               -0.59520879                0.50819621                7.29291945               -1.75214749
               3.71344892                6.05767311               10.93303854                0.00010000                0.60680138                0.18223096               -0.29217268                1.26529938               15.27780671               -0.24613134
               4.71840038                6.02447156               10.98286137                0.00010000                0.36921188                0.08677436               -0.07378945                1.49025978               16.25024466                0.42988592
               5.72083316                5.99219073               11.03585938                0.00010000                0.10806642                0.00589055                0.15687717                1.60837202               16.45682271                1.21854779
               6.72056171                5.96116893               11.09208632                0.00010000               -0.16822717               -0.06288254                0.40041107                1.67021494               16.68887204                2.13048259
               7.71746861                5.93190348               11.15184246                0.13202645               -0.28652003               -0.13121477                0.65441484                1.04868305               10.44608017                3.16202492
               8.71483131                5.89200383               11.08505795                0.41624957               -0.14785361               -0.10795577                0.45211409                0.23644698                2.06446280                1.69052857
               9.71451154                5.84873370               10.97766023                0.95391827                0.08383532                0.08140265               -0.27633618                0.00990781                0.02200374                0.47716311
              10.71650801                5.80613282               10.86994317                1.00000000                0.19964702                0.27220243               -1.00538442               -0.04372078                0.01194192               -0.74771475
               0.74901076                7.17740773               11.10379295                1.00000000               -0.09107712               -0.20005417                0.70538723               -0.04625458                0.03336381                0.97687838
               1.74809999                7.13616437               10.98396736                0.67996430                0.03366353                0.01891035               -0.09932645               -0.00758925                0.10997069               -0.41894065
               2.74968403                7.09425028               10.86559617                0.03816360                0.54333913                0.24276145               -0.90046316                0.39391505                8.74962686               -1.77615839
               3.75896677                7.05937884               10.91866740                0.00010000                0.76601100                0.15805771               -0.48973907                0.97620839               17.74592909               -0.38068602
               4.76500425                7.02509781               10.98255788                0.00010000                0.42908617                0.03356073               -0.11936046                1.17446508               18.36310930                0.33339981
               5.76754849                6.99191767               11.05056656                0.00010000                0.07071543               -0.06029200                0.25780551                1.31415434               18.65712634                1.08357967
               6.76641856                6.96005639               11.12295398                0.00010000               -0.29976343               -0.15428184                0.65498380                1.37349150               18.98551251                1.95792268
               7.76155322                6.92980814               11.19998070                0.14048335               -0.43044487               -0.28264503                1.07849941                0.81474027               11.50740883                3.01698627
               8.75780966                6.89033955               11.12492162                0.42943485               -0.24831220               -0.22071781                0.78341135                0.15290236                1.96435649                1.64982431
               9.75658698                6.84906108               11.01156006                0.97318856               -0.00424889               -0.01179987                0.02129298                0.00825332                0.03007904                0.45374744
              10.75772468                6.80848053               10.89776256                1.00000000                0.11377016                0.19995914               -0.73834464               -0.04186073                0.01356630               -0.75634157
               0.78871610                8.17573076               11.08085266                1.00000000               -0.01868872               -0.13802092                0.48471754               -0.04371394                0.03921819                0.94162969
               1.78852921                8.13675801               10.95407094                0.64836856                0.11060401                0.10166412               -0.36187596               -0.00261488                0.13499966               -0.46542143
               2.79092818                8.09716728               10.82913981                0.02550177                0.67981747                0.34345634               -1.20603764                0.20830094               10.13013253               -1.76271724
               3.80212556                8.06083426               10.90237827                0.00010000                0.92113395                0.11545907               -0.67945792                0.58142246               20.15638793               -0.49146214
               4.80935085                8.02514277               10.98069081                0.00010000                0.50160522               -0.04042503               -0.16772800                0.82810999               20.46689199                0.20629822
               5.81215766                7.99098489               11.06309265                0.00010000                0.03951018               -0.11827219                0.34869368                0.98638537               20.80722102                0.83336452
               6.81014106                7.95808330               11.15125283                0.00010000               -0.43387003               -0.21958878                0.89769303                1.01443251               21.30237630                1.58782271
               7.80348026                7.92625058               11.24642122                0.14818053               -0.57523228               -0.41825514                1.50037223                0.54695359               12.67812067                2.71650291
               8.79863641                7.88758948               11.16455438                0.44094848               -0.34723188               -0.32666568                1.10578991                0.07754078                1.93793142                1.58006121
               9.79653562                7.84849770               11.04537492                0.98995824               -0.09022593               -0.09941122                0.30745995                0.00535537                0.04207386                0.47587035
              10.79683189                7.81013200               10.92556807                1.00000000                0.02962704                0.13239115               -0.47917722               -0.04208253                0.01481696               -0.73207786
               0.82608198                9.17464731               11.05749382                1.00000000                0.05291872               -0.08072201                0.26511386               -0.04155293                0.03041730                0.77367474
               1.82661117                9.13819765               10.92357472                0.61679955                0.18459045                0.18669685               -0.62282810                0.00081764                0.21341241               -0.45097250
               2.82977379                9.10111941               10.79326560                0.01253485                0.80042788                0.44020938               -1.49990658               -0.07146775               11.51013578               -1.37712259
               3.84261973                9.06168802               10.88541409                0.00010000                1.08210129               -0.00627057               -0.84298545                0.17085112               22.46466376               -0.36575887
               4.85141582                9.02428931               10.97715990                0.00010000                0.58579719               -0.09482312               -0.21201389                0.44437331               22.43597969                0.09889221
               5.85433567                8.98955222               11.07208057                0.00010000                0.00128537               -0.16163176                0.42315321                0.58657830               22.79152026                0.46608140
               6.85144153                8.95566462               11.17426070                0.00010000               -0.56747769               -0.24810129                1.10587185                0.56241289               23.58375529                0.91325193
               7.84298612                8.92144304               11.28846906                0.15590675               -0.71640871               -0.51112703                1.89182782                0.26212525               14.04742613                1.79692937
               8.83711335                8.88380624               11.20305815                0.45201020               -0.44172778               -0.42257446                1.41524200                0.00822158                2.14476005                1.14544801
               9.83415156                8.84707286               11.07962403                0.99973516               -0.17494610               -0.18686008                0.59427251                0.00236654                0.11518480                0.45005504
              10.83361443                8.81112836               10.95361017                0.99969912               -0.05371334                0.06623646               -0.22199617               -0.04526553               -0.01014159               -0.60376951
               0.86078437               10.17411632               11.03108835                1.00000000                0.12890997               -0.05309928                0.03560368                0.10780093                0.42094442                0.62728357
               1.86207347               10.14049195               10.89396303                0.79910557                0.26120396                0.22942976               -0.87141321                0.13898697                0.81172498               -0.40834634
               2.86600845               10.10597147               10.76462333                0.50248593                1.01496054                0.48520595               -1.73596573               -0.36568926               12.98029429               -1.02445362
               3.88237268               10.06070885               10.87102861                0.43438597                1.21828376               -0.09791703               -0.96863063               -0.16096301               24.31807532               -0.18139839
               4.89037412               10.02324631               10.97215927                0.42997924                0.50706216               -0.10430026               -0.25030490                0.24800067               24.04616820                0.07840394
               5.89251392                9.98775226               11.07621908                0.45220332               -0.04378120               -0.17999633                0.47567439                0.31157314               24.43999946                0.28252712
               6.88949850                9.95312127               11.18829127                0.49840001               -0.59663871               -0.25433451                1.25628316                0.21948603               25.46773893                0.53659839
               7.88058115                9.91602803               11.31636603                0.58072381               -0.81637354               -0.54150056                2.16691729                0.06033860               15.52466827                1.11727422
               8.87317103                9.87913799               11.23406202                0.72994417               -0.56601564               -0.46682502                1.68758130                0.04239070                3.00580819                0.76844615
               9.86926083                9.84476050               11.11289400                1.00000000               -0.26777203               -0.23123606                0.88459500                0.12686432                0.66536282                0.40266680
              10.86781559                9.81145673               10.98382044                1.00000000               -0.14452481                0.03283723                0.05559718                0.08973887                0.27344577               -0.49030207
               0.48933310                0.24140581               12.28117138                1.00000000               -0.55219123               -0.62324424                2.16486315               -0.12853597               -0.71659714                0.77229566
               1.48381119                0.17983103               12.19798324                1.00000000               -0.44747489               -0.45684120                1.62669368               -0.08792202               -0.72003636               -0.03188498
               2.48038361                0.11814036               12.11467451                0.71623920               -0.11567543               -0.31860973                1.08245649                0.08079716               -0.42287100               -0.70212841
               3.48149768                0.06026026               12.03750453                0.52234564                0.43692301               -0.18752559                0.54567321                0.34559969                1.22815055               -0.09185472
               4.48912207                0.01420606               11.98761417                0.45257919                0.76901151               -0.12480188                0.07369708                0.31739435                3.92902159               -0.07938321
               5.49687791               -0.01864734               11.96557134                0.46094399                0.42090630               -0.03101667               -0.32865693                0.14697642                5.14307597               -0.00832673
               6.49754019               -0.05113297               11.94112598                0.53651244               -0.05699813                0.13473084               -0.71537911                0.23720318                3.68995660                0.05390382
               7.49573795               -0.09480934               11.89034780                0.69483434               -0.02141023                0.30708412               -1.16190753                0.23931168                1.32125295                0.09427135
               8.49711199               -0.14860175               11.81830721                0.97727683                0.32686007                0.47482833               -1.67113991                0.08380068               -0.14619438                0.34484673
               9.50227515               -0.20626169               11.73793157                1.00000000                0.62103155                0.62764621               -2.21275810               -0.07457636               -0.53735127                0.19822540
              10.50953262               -0.26399010               11.65792110                1.00000000                0.72574665                0.78069440               -2.74461453               -0.13352612               -0.51244633               -0.50223623
               0.54962253                1.23517337               12.25399564                1.00000000               -0.50578286               -0.59150768                1.94897974               -0.04709313               -0.03935194                1.00492578
               1.54456470                1.17526262               12.17015780                1.00000000               -0.43227823               -0.42140458                1.41001543               -0.01149307                0.02598945               -0.06590303
               2.54097696                1.11495426               12.08755934                0.28136973               -0.38219345               -0.27850269                0.87341925                0.19233825                1.04060353               -1.06273717
               3.53692083                1.05838501               12.02403375                0.00234262               -0.46135740               -0.17023298                0.41720657                0.78528634                3.07174604               -1.28458680
               4.53174981                1.01295804               11.98221050                0.00580638               -0.29518177                0.31537516                0.00799582                1.62472138                5.57299213                0.34630781
               5.53101719                0.98104249               11.96910967                0.00817308                0.31217061                0.10729420               -0.31136163                1.97133561                6.81904797                0.24476645
               6.53799322                0.95021434               11.95322886                0.01450125                0.79241327               -0.05964272               -0.61507137                1.61221087                5.26250393                0.17016355
               7.54686546                0.90826150               11.91023289                0.24397212                0.78414708                0.33213170               -0.99328461                0.87533444                2.89345601                1.27181448
               8.55367617                0.85614654               11.84768634                0.67196564                0.61790534                0.44825344               -1.43859009                0.28022238                1.28589295                0.97266082
               9.55922356                0.80001478               11.77270038                1.00000000                0.61248004                0.58643883               -1.93708652                0.02607501                0.40995889                0.48860757
              10.56592577                0.74381685               11.69253087                1.00000000                0.67022028                0.73316562               -2.47272077               -0.05071259                0.15642688               -0.53425910
               0.60821274                2.22957565               12.23137222                1.00000000               -0.44123070               -0.53099493                1.75548557               -0.04772635                0.11363155                1.21140975
               1.60380044                2.17140294               12.14161011                0.84660796               -0.35523809               -0.35490059                1.18876094               -0.01303925                0.18612788               -0.23835176
               2.60110798                2.11257030               12.05322170                0.11244376               -0.23004044               -0.19604657                0.64033314                0.19570909                1.34559455               -1.69920868
               3.59919963                2.05685560               11.98668204                0.00010000               -0.10744852                0.15560719                0.17679846                1.52712468                5.67471468               -1.22491704
               4.59895901                2.02051357               11.98505014                0.00010000               -0.00756495                0.52875563               -0.00101135                2.75958251                8.54216884                0.42412719
               5.59904833                1.98349854               11.97728456                0.00010000                0.18031964                0.23676964               -0.23683570                2.90123224                8.07250365                0.66067548
               6.60256540                1.94767418               11.96734375                0.00010000                0.41320586               -0.07616310               -0.47723730                2.69716532                7.71058683                0.95518458
               7.60731244                1.91183329               11.95348214                0.09174239                0.41988775                0.17882726               -0.69628805                1.58616799                4.94939909                2.41322671
               8.61096316                1.86036332               11.88949480                0.36658019                0.39069492                0.42056500               -1.12368522                0.36281726                1.82731860                2.48667595
               9.61512634                1.80546709               11.81314532                0.92075911                0.49755323                0.51099793               -1.63685690                0.05028640                0.69358323                0.93497525
              10.62091422                1.75067322               11.72635290                1.00000000                0.57878794                0.63775196               -2.20569733               -0.04040286                0.17657165               -0.48363740
               0.66501344                3.22455347               12.20825575                1.00000000               -0.37041738               -0.47005350                1.55294876               -0.05108749                0.04018615                1.14510805
               1.66130926                3.16816460               12.11030274                0.78732857               -0.27874798               -0.28659962                0.93621388               -0.01801266                0.09515736               -0.39002077
               2.65943848                3.11103333               12.01336792                0.08376031               -0.08946013               -0.10806335                0.32976136                0.40862696                3.04132579               -1.95821295
               3.65952006                3.06149715               11.97438252                0.00010000                0.04300242                0.41665449                0.13654944                1.57894764                8.21729132               -0.04931894
               4.66029852                3.02353316               11.98175551                0.00010000                0.11805823                0.26388467               -0.01596070                2.27033657               10.46855244                0.26295000
               5.66188122                2.98577788               11.98923012                0.00010000                0.16516288                0.19315415               -0.15218616                2.38222294               10.31574557                0.98565963
               6.66360178                2.94869108               11.99492168                0.00010000                0.20092251                0.10493808               -0.29759104                2.29605673                9.94343129                1.84684922
               7.66589967                2.91183804               11.99618105                0.09740306                0.18484651                0.07239199               -0.47993160                1.54648606                7.25304572                2.93010852
               8.66729871                2.86455784               11.94906745                0.35815256                0.20098630                0.33437553               -0.69361421                0.46591818                2.55065230                2.93166282
               9.66991940                2.81023473               11.85671757                0.86384917                0.37033728                0.42444698               -1.29105480                0.01894027                0.16423581                0.99070504
              10.67470546                2.75657189               11.76177302                1.00000000                0.47860577                0.54428995               -1.91728428               -0.04476457                0.03889061               -0.44471619
               0.71996872                4.22017458               12.18425401                1.00000000               -0.30083999               -0.40282086                1.33929029               -0.05020266                0.02197792                1.08920692
               1.71696032                4.16567094               12.07866958                0.75773113               -0.20103731               -0.21150981                0.67992257               -0.01801490                0.06078406               -0.40605852
               2.71594797                4.11040904               11.97377936                0.07174617                0.06592159               -0.01995103                0.02479703                0.53200837                4.68201355               -1.90749851
               3.71827875                4.06518869               11.96067312                0.00010000                0.20685177                0.30635838                0.03455608                1.53416400               10.91177793               -0.20987747
               4.72008501                4.02579126               11.98154077                0.00010000                0.16280556                0.20128457               -0.01803608                1.97915640               12.60999665                0.44425018
               5.72153486                3.98736162               12.00409026                0.00010000                0.11706847                0.13177932               -0.05405080                2.05903585               12.62639123                1.21237780
               6.72242638                3.94977294               12.02692007                0.00010000                0.04202731                0.08747671               -0.09364468                2.05680211               12.57999972                2.18544639
               7.72237541                3.91328113               12.05001122                0.10891113               -0.02707738                0.11837107               -0.15839147                1.40420534                8.86064102                3.51420669
               8.72188483                3.86705083               11.99974830                0.37667352                0.05578455                0.16991126               -0.28913850                0.41590118                2.59892309                2.24434249
               9.72349110                3.81395603               11.89810260                0.88798959                0.27298975                0.31255484               -0.94793264                0.00936358                0.01688706                0.77565198
              10.72734463                3.76155902               11.79609206                1.00000000                0.38535255                0.45668045               -1.61586456               -0.04817202                0.00345836               -0.57180774
               0.77301666                5.21649705               12.15997218                1.00000000               -0.23021534               -0.33259382                1.12215057               -0.04917969                0.02386272                1.06744697
               1.77071451                5.16393441               12.04697226                0.72906548               -0.12278848               -0.13517794                0.42062113               -0.01516151                0.07123446               -0.41377625
               2.77056089                5.11063431               11.93483964                0.06046703                0.20533028                0.06508867               -0.27769857                0.54808314                6.24183974               -1.87088240
               3.77482112                5.06762432               11.94531456                0.00010000                0.35739129                0.22080813               -0.10920302                1.40377243               13.60405300               -0.28448523
               4.77770872                5.02755885               11.98195054                0.00010000                0.21295714                0.15070971               -0.03550496                1.69615957               14.91529811                0.46792252
               5.77908026                4.98841347               12.02065674                0.00010000                0.05547988                0.07874854                0.05248336                1.79190968               15.02459891                1.31023259
               6.77881832                4.95044061               12.06143920                0.00010000               -0.11871855                0.03028845                0.14261968                1.82535335               15.16062243                2.31409736
               7.77670589                4.91420546               12.10466016                0.11959695               -0.19382408                0.02177250                0.22161792                1.21238824               10.08593579                3.49782185
               8.77494184                4.86795606               12.04551321                0.39413874               -0.05536987                0.02284752                0.08563751                0.33053597                2.47984798                1.91420270
               9.77559849                4.81648583               11.93713776                0.91369073                0.17971050                0.19813968               -0.61637565                0.00963898                0.01335841                0.60114124
              10.77853605                4.76570550               11.82856312                1.00000000                0.29375554                0.37304992               -1.32179700               -0.04593099                0.00880556               -0.70782078
               0.82411041                6.21352271               12.13548735                1.00000000               -0.15905805               -0.26312844                0.90325688               -0.04748285                0.02846470                1.04628107
               1.82251983                6.16296738               12.01511276                0.69985769               -0.04453426               -0.05760417                0.15990894               -0.01115625                0.08968844               -0.43271578
               2.82321973                6.11171081               11.89588660                0.04900833                0.34549150                0.15211094               -0.58003070                0.49594212                7.81752175               -1.87916185
               3.82942966                6.06960485               11.93013839                0.00010000                0.49996612                0.18959151               -0.28554381                1.20985704               16.28061711               -0.32871899
               4.83321905                6.02880545               11.98214663                0.00010000                0.25308148                0.10478943               -0.06703396                1.41218362               17.21607476                0.42237390
               5.83449129                5.98893659               12.03743942                0.00010000               -0.00387988                0.02363817                0.16074863                1.51533996               17.43086828                1.27885996
               6.83314145                5.95037871               12.09606293                0.00010000               -0.26917823               -0.05170219                0.39633934                1.56909181               17.67003542                2.26402878
               7.82910773                5.91371658               12.15828229                0.12930248               -0.34631337               -0.12753601                0.63520147                0.99426218               11.20730576                3.38481551
               8.82621518                5.86750778               12.08951004                0.40968798               -0.15866393               -0.10524596                0.44004229                0.23635992                2.33334807                1.78930456
               9.82593445                5.81791882               11.97477289                0.93639473                0.08857460                0.09297220               -0.29948018                0.00901512                0.02269856                0.50685749
              10.82798667                5.76902001               11.85971237                1.00000000                0.20522284                0.29210122               -1.03996978               -0.04386279                0.01179592               -0.78460645
               0.87317765                7.21123448               12.11072772                1.00000000               -0.08743708               -0.19616776                0.68351227               -0.04544863                0.03149642                1.01664425
               1.87230328                7.16278232               11.98296758                0.67013602                0.03323063                0.02143154               -0.10112470               -0.00639270                0.10939428               -0.46210219
               2.87384227                7.11367653               11.85669615                0.03724888                0.48101650                0.24408867               -0.88228660                0.38563941                9.35055235               -1.90274851
               3.88192361                7.07141615               11.91383627                0.00010000                0.63891930                0.17345958               -0.47531375                0.93326106               18.92261480               -0.46617573
               4.88662065                7.02965464               11.98141801                0.00010000                0.29450942                0.06220601               -0.10703547                1.10344540               19.51843280                0.31814623
               5.88781380                6.98888623               12.05317728                0.00010000               -0.06002421               -0.03146604                0.26568791                1.21524358               19.81907098                1.13289057
               6.88542017                6.94940657               12.12949509                0.00010000               -0.41758721               -0.13659470                0.65420992                1.25789319               20.16370292                2.08106866
               7.87946206                6.91165474               12.21068714                0.13815209               -0.49766884               -0.27997437                1.06327104                0.74570226               12.34028183                3.23757380
               8.87546679                6.86585114               12.13272816                0.42350945               -0.25977467               -0.22172624                0.77943700                0.14822607                2.20271333                1.73290173
               9.87426656                6.81834527               12.01168672                0.95654054               -0.00051910               -0.00440425                0.00476903                0.00775532                0.02950905                0.47013659
              10.87545641                6.77154752               11.89022072                1.00000000                0.11898453                0.21606980               -0.76918058               -0.04256007                0.01311704               -0.80226871
               0.92010575                8.20959935               12.08558529                1.00000000               -0.01558233               -0.13352294                0.46365868               -0.04308387                0.03738015                0.98098693
               1.91994993                8.16339602               11.95046077                0.64020773                0.10964686                0.10292171               -0.36112927               -0.00167159                0.13425853               -0.50722855
               2.92229869                8.11659258               11.81721370                0.02522444                0.60834214                0.34142099               -1.18287527                0.21096055               10.81049000               -1.88174152
               3.93211677                8.07307405               11.89569886                0.00010000                0.77595906                0.14195197               -0.65683646                0.56440451               21.50602354               -0.55764826
               4.93781787                8.03004957               11.97910458                0.00010000                0.34637277                0.00253044               -0.14883532                0.77317091               21.80504555                0.19290789
               5.93904423                7.98830727               12.06663996                0.00010000               -0.11435338               -0.07365220                0.36165343                0.89117112               22.15486317                0.86844078
               6.93553080                7.94764682               12.16024389                0.00010000               -0.57335148               -0.18911026                0.90118540                0.88532349               22.68203312                1.68427302
               7.92757720                7.90811709               12.26136909                0.14649978               -0.65208150               -0.41392310                1.48942016                0.45678744               13.58176622                2.91540292
               8.92248917                7.86307326               12.17560982                0.43616545               -0.35920104               -0.33031821                1.10786623                0.06581037                2.13982034                1.64887237
               9.92039318                7.81783074               12.04840798                0.97509785               -0.08790954               -0.09666523                0.29963745                0.00532818                0.04036701                0.48576207
              10.92073098                7.77334141               11.92065443                1.00000000                0.03378058                0.14456879               -0.50463269               -0.04154833                0.01673159               -0.78117485
               0.96472265                9.20856402               12.06003748                1.00000000                0.05539685               -0.07559451                0.24528221               -0.04114331                0.02778983                0.80804541
               1.96527662                9.16484076               11.91737159                0.61080233                0.18303973                0.18645172               -0.61939129                0.00129359                0.21672006               -0.48533691
               2.96838345                9.12050495               11.77843489                0.01301580                0.72390463                0.43458295               -1.47117988               -0.04907990               12.28060558               -1.46007963
               3.97975471                9.07425519               11.87714001                0.00010000                0.92336984                0.03778865               -0.81379048                0.17993242               23.98481237               -0.39734675
               4.98685084                9.02970525               11.97516578                0.00010000                0.41426343               -0.04196317               -0.18712119                0.41574307               23.94262873                0.09233444
               5.98803998                8.98741319               12.07639983                0.00010000               -0.17670120               -0.10361067                0.44096724                0.51963117               24.31350403                0.48433085
               6.98331682                8.94562437               12.18535408                0.00010000               -0.74343093               -0.18930821                1.11312699                0.45372959               25.16185773                0.96412835
               7.97317136                8.90337628               12.30733601                0.15502224               -0.81237328               -0.49256573                1.88236830                0.16448293               15.03167785                1.91999472
               8.96706935                8.85924478               12.21722428                0.44877894               -0.45331923               -0.42636060                1.42205078               -0.01380963                2.32320471                1.18678729
               9.96410498                8.81641197               12.08553737                0.99398552               -0.17326267               -0.18620185                0.59080424                0.00128151                0.11557794                0.45801537
              10.96360410                8.77443890               11.95129459                0.99974143               -0.05008781                0.07462176               -0.24283918               -0.04303634               -0.00900294               -0.64140447
               1.00672941               10.20808746               12.03134869                1.00000000                0.13054606               -0.04765595                0.01781635                0.10443500                0.43730985                0.65601177
               2.00803488               10.16712505               11.88528694                0.79682083                0.25866236                0.22842918               -0.86589182                0.13566453                0.85005278               -0.43561598
               3.01190266               10.12528424               11.74744526                0.50295371                0.92401231                0.47792953               -1.70517149               -0.31283995               13.85133244               -1.07653028
               4.02651512               10.07382982               11.86152280                0.43521441                1.05360342               -0.04253680               -0.93524094               -0.12765572               25.99638346               -0.19619435
               5.03297473               10.02921031               11.96980709                0.43027945                0.35013045               -0.04949351               -0.22117050                0.23265080               25.70680574                0.07685684
               6.03351773                9.98623506               12.08108639                0.45217134               -0.21662143               -0.11781283                0.49722488                0.28029199               26.12182004                0.29498626
               7.02864230                9.94386065               12.20090641                0.49828289               -0.81356441               -0.17637135                1.26616449                0.13408417               27.21764629                0.56853423
               8.01724644                9.89826578               12.33799062                0.58052020               -0.97325049               -0.51105036                2.15799640               -0.05822230               16.61009626                1.18719725
               9.00917729                9.85454605               12.25097719                0.72882585               -0.60108760               -0.46987319                1.69904966                0.00284001                3.21858543                0.79032178
              10.00522469                9.81410670               12.12169111                1.00000000               -0.26804443               -0.23052692                0.87945892                0.12636105                0.69235755                0.40857014
              11.00381640                9.77483384               11.98430183                1.00000000               -0.14082867                0.03949484                0.03814005                0.09394470                0.28979760               -0.51518012
               0.56781004                0.27760949               13.30272967                1.00000000               -0.54989706               -0.61875965                2.14857695               -0.12583352               -0.76215231                0.81661621
               1.56231107                0.20842382               13.21421907                1.00000000               -0.44816690               -0.45472532                1.62048920               -0.08548840               -0.76913211               -0.03140154
               2.55884670                0.13909942               13.12552926                0.71528108               -0.12776632               -0.31744838                1.08688524                0.07780719               -0.47126847               -0.73794089
               3.55975574                0.07343651               13.04304915                0.52277259                0.39751608               -0.18541828                0.56059000                0.32702565                1.21182997               -0.09500057
               4.56679702                0.01912873               12.98844296                0.45313202                0.70964284               -0.11069262                0.08980419                0.30013064                3.96851076               -0.08215905
               5.57394860               -0.02235377               12.96230313                0.46127746                0.38345634               -0.00928094               -0.32621638                0.13779785                5.21791458               -0.00758218
               6.57446615               -0.06318517               12.93391551                0.53626856               -0.05695056                0.15087335               -0.72772329                0.22445634                3.74913471                0.05688275
               7.57280959               -0.11457097               12.87863599                0.69357897               -0.00677688                0.31681478               -1.18153385                0.22736901                1.32958303                0.09927829
               8.57433061               -0.17561394               12.80149021                0.97403456                0.33827031                0.48140882               -1.69323866                0.07852676               -0.17944455                0.36129499
               9.57957499               -0.24036143               12.71569152                1.00000000                0.62864044                0.63434825               -2.23610667               -0.07377917               -0.57950930                0.21162992
              10.58690342               -0.30516156               12.63036843                1.00000000                0.73284272                0.78828020               -2.76657031               -0.13324075               -0.54832532               -0.54014277
               0.63573738                1.27142189               13.27339935                1.00000000               -0.50261533               -0.58769729                1.93339256               -0.04546728               -0.04295773                1.05906196
               1.63071122                1.20387657               13.18423266                1.00000000               -0.43094732               -0.41950384                1.40482379               -0.00965796                0.02307881               -0.06787692
               2.62711843                1.13592493               13.09632698                0.27964044               -0.38499392               -0.27740519                0.87824441                0.18841962                1.07976004               -1.10870093
               3.62301134                1.07158233               13.02829474                0.00258765               -0.47124795               -0.16764635                0.43198327                0.76314854                3.17633471               -1.34187126
               4.61769347                1.01802180               12.98237079                0.00624847               -0.32639098                0.30633650                0.02149073                1.55865263                5.74993586                0.37207787
               5.61648352                0.97755342               12.96599158                0.00878155                0.25629210                0.11508193               -0.31359092                1.89595166                7.05343304                0.27665513
               6.62281931                0.93832357               12.94699615                0.01423433                0.74070710               -0.04522452               -0.63248621                1.55440555                5.46756862                0.19641722
               7.63129767                0.88859718               12.90018870                0.24229830                0.75958998                0.33676371               -1.01663021                0.83639877                3.02528189                1.34313372
               8.63801111                0.82920014               12.83318829                0.66671096                0.61566708                0.45355728               -1.46208153                0.26955765                1.35639601                1.03213592
               9.64361101                0.76598205               12.75322634                1.00000000                0.61800128                0.59265466               -1.95830311                0.02564214                0.43525351                0.51412711
              10.65037114                0.70272125               12.66769826                1.00000000                0.67601289                0.74204231               -2.49411487               -0.05094304                0.16283114               -0.57461823
               0.70199135                2.26585554               13.24883775                1.00000000               -0.43764780               -0.52818477                1.73904878               -0.04636369                0.12424788                1.27111977
               1.69761487                2.20003374               13.15347454                0.83535252               -0.35410076               -0.35268629                1.18386056               -0.01140354                0.20586794               -0.25872891
               2.69490934                2.13355131               13.05967567                0.11106658               -0.23465132               -0.19354260                0.64849520                0.19151865                1.41680233               -1.79552176
               3.69292185                2.07008358               12.98855019                0.00010000               -0.14551758                0.15184411                0.19375225                1.46386638                5.92736296               -1.23602179
               4.69199898                2.02525546               12.98509852                0.00010000               -0.06779897                0.50707148                0.00940558                2.64184240                8.91134909                0.46595973
               5.69156587                1.97994787               12.97493123                0.00010000                0.12557588                0.22785851               -0.23478153                2.78729269                8.41558389                0.72365410
               6.69451050                1.93591034               12.96254178                0.00010000                0.35475597               -0.07191294               -0.48413522                2.60420749                8.06215797                1.02553865
               7.69866099                1.89216430               12.94641897                0.09047812                0.39131963                0.17185397               -0.71757885                1.53702923                5.21067210                2.51137450
               8.70233689                1.83345720               12.87816878                0.36248335                0.39528745                0.42119307               -1.14227141                0.34957752                1.94483704                2.64513594
               9.70656673                1.77149166               12.79667576                0.90682012                0.50346374                0.51739053               -1.65699623                0.04822475                0.73960476                0.99412696
              10.71240617                1.70967929               12.70418349                1.00000000                0.58394337                0.64978302               -2.22788173               -0.04068191                0.19484792               -0.51652382
               0.76645371                3.26085820               13.22369156                1.00000000               -0.36663221               -0.46759130                1.53558718               -0.04995652                0.04131618                1.19447443
               1.76278738                3.19682284               13.11963600                0.77592744               -0.27773715               -0.28346682                0.93008918               -0.01631241                0.10111924               -0.42761902
               2.76089896                3.13205408               13.01670524                0.08240345               -0.11014284               -0.10352216                0.33555036                0.39731748                3.25835260               -2.09001765
               3.76058453                3.07461921               12.97582092                0.00010000               -0.01164651                0.40510194                0.15228627                1.49915889                8.65741969               -0.00212390
               4.76066603                3.02816323               12.98164101                0.00010000                0.04949822                0.25468817               -0.00701717                2.16315465               10.93959414                0.30315123
               5.76157449                2.98211059               12.98772705                0.00010000                0.10104949                0.18364030               -0.14868250                2.27866868               10.79413519                1.05445305
               6.76268702                2.93688531               12.99193275                0.00010000                0.14584499                0.09706009               -0.30070081                2.19997392               10.40304390                1.94432355
               7.76449139                2.89203426               12.99136620                0.09559482                0.14941412                0.05707389               -0.48527249                1.49912816                7.68004919                3.03638580
               8.76567531                2.83762401               12.94205228                0.35325934                0.19310111                0.33246830               -0.70800874                0.45641260                2.77091652                3.12509977
               9.76835341                2.77632986               12.84370230                0.84905289                0.37534672                0.43272666               -1.31077577                0.01781895                0.18149026                1.06717364
              10.77318224                2.71571691               12.74246795                1.00000000                0.48288258                0.56096708               -1.94254361               -0.04516921                0.04154493               -0.46145416
               0.82906294                4.25650372               13.19754910                1.00000000               -0.29701939               -0.40038271                1.32118477               -0.04903988                0.02163427                1.13146665
               1.82609274                4.19436441               13.08544189                0.74597510               -0.20018095               -0.20796538                0.67416332               -0.01616958                0.06224513               -0.44647577
               2.82505932                4.13148087               12.97407489                0.07018076                0.03515658               -0.01500804                0.03198037                0.51150788                5.01439237               -2.03406297
               3.82679587                4.07818562               12.96104184                0.00010000                0.13556890                0.29800212                0.04126422                1.45371366               11.54145586               -0.22234799
               4.82777070                4.03034922               12.98139234                0.00010000                0.08106438                0.19758446               -0.01076555                1.87247387               13.22166141                0.47738317
               5.82841716                3.98362067               13.00356648                0.00010000                0.04078072                0.12723784               -0.05040281                1.95047903               13.24707801                1.28601000
               6.82858631                3.93785154               13.02597478                0.00010000               -0.02561556                0.07839125               -0.09542339                1.94670579               13.19022337                2.30407820
               7.82790485                3.89330578               13.04839828                0.10660845               -0.07083839                0.10417698               -0.16476268                1.34113978                9.42862729                3.68871349
               8.82716954                3.84010657               12.99676347                0.37076557                0.04626809                0.16984844               -0.30535780                0.40977041                2.87139994                2.40221987
               9.82883021                3.78014619               12.88849915                0.87144772                0.27795749                0.32278511               -0.97059915                0.00868585                0.02254023                0.84084895
              10.83272869                3.72089863               12.77977080                1.00000000                0.38984798                0.47714284               -1.64633215               -0.04773192                0.00363535               -0.58665366
               0.88975153                5.25285054               13.17109369                1.00000000               -0.22646914               -0.33008924                1.10373845               -0.04820084                0.02273273                1.10723269
               1.88748684                5.19266353               13.05115497                0.71750947               -0.12218135               -0.13171155                0.41555940               -0.01356492                0.07140304               -0.45636741
               2.88730791                5.13175392               12.93211879                0.05893852                0.16518037                0.06957207               -0.26878663                0.52227760                6.67263214               -1.99618746
               3.89079045                5.08057925               12.94424370                0.00010000                0.26862757                0.21957012               -0.10358442                1.31831779               14.41634333               -0.33610289
               4.89268046                5.03211492               12.98162529                0.00010000                0.11456488                0.15511734               -0.02856077                1.58631211               15.69160869                0.48133438
               5.89308175                4.98465534               13.02119945                0.00010000               -0.03722152                0.08133599                0.05656219                1.67276369               15.81093565                1.38280879
               6.89193603                4.93845313               13.06285046                0.00010000               -0.20112920                0.02710377                0.13994763                1.69978412               15.94485453                2.44973834
               7.88905916                4.89411780               13.10680420                0.11707556               -0.24528632                0.01335110                0.20784121                1.14153022               10.76399939                3.70819569
               8.88703030                4.84102097               13.04628722                0.38777584               -0.06620489                0.02342032                0.07144693                0.32529480                2.76885787                2.04302876
               9.88773507                4.78278556               12.93084838                0.89628969                0.18462117                0.20878467               -0.63934155                0.00858824                0.01568987                0.65119902
              10.89072273                4.72525976               12.81516957                1.00000000                0.29876592                0.39422297               -1.35491041               -0.04576609                0.00839835               -0.73237582
               0.94847294                6.24990193               13.14441902                1.00000000               -0.15548740               -0.26039298                0.88475832               -0.04670414                0.02693907                1.08458053
               1.94691807                6.19173017               13.01669296                0.68898554               -0.04418954               -0.05446126                0.15574839               -0.00985121                0.08951922               -0.47614727
               2.94758915                6.13287231               12.89015058                0.04772461                0.29415806                0.15571434               -0.56949780                0.46826601                8.33237965               -2.00419492
               3.95280123                6.08257702               12.92732767                0.00010000                0.39158449                0.19578037               -0.27622432                1.12430061               17.27046403               -0.40401971
               4.95542084                6.03345157               12.98152069                0.00010000                0.13664955                0.11939337               -0.05758261                1.30109007               18.17439156                0.42122633
               5.95553422                5.98524739               13.03907435                0.00010000               -0.11506512                0.03597966                0.16655579                1.38565662               18.39830260                1.34526180
               6.95311954                5.93839362               13.10001310                0.00010000               -0.36833044               -0.04781631                0.39384508                1.42860697               18.64391392                2.40354287
               7.94816761                5.89357280               13.16454649                0.12683072               -0.40559339               -0.13224884                0.61794443                0.91239906               11.97438853                3.61261715
               8.94500767                5.84057497               13.09385879                0.40337722               -0.17022127               -0.10615819                0.43143945                0.22915663                2.61196549                1.89729337
               9.94476319                5.78432189               12.97167062                0.91898734                0.09286484                0.10215799               -0.31933805                0.00788269                0.02366350                0.54180366
              10.94686497                5.72878309               12.84914377                1.00000000                0.21017815                0.31166653               -1.07233845               -0.04406478                0.01138656               -0.82031082
               1.00516097                7.24764268               13.11746319                1.00000000               -0.08415270               -0.19305961                0.66526207               -0.04484849                0.02974694                1.05401594
               2.00431944                7.19157431               12.98194486                0.66035544                0.03327055                0.02396241               -0.10397833               -0.00532913                0.10909607               -0.50499075
               3.00582638                7.13486821               12.84795044                0.03637441                0.41888819                0.24606967               -0.86947479                0.36156429                9.94295571               -2.02599183
               4.01269721                7.08449486               12.90916113                0.00010000                0.51027550                0.19002668               -0.46032045                0.85942513               20.08632766               -0.54361312
               5.01603189                7.03450279               12.98041717                0.00010000                0.15778103                0.09007947               -0.09325254                0.99849527               20.66450151                0.31029734
               6.01585283                6.98537494               13.05588032                0.00010000               -0.19245678               -0.00581120                0.27478078                1.07877065               20.97431828                1.18919040
               7.01218276                6.93749681               13.13603817                0.00010000               -0.53635182               -0.12419252                0.65408258                1.10154647               21.33627247                2.21155428
               8.00512579                6.89147282               13.22124612                0.13597047               -0.56592019               -0.28315191                1.04793798                0.64915237               13.18428613                3.46631928
               9.00086435                6.83889781               13.14051036                0.41769412               -0.27205942               -0.22520837                0.77821607                0.13710817                2.45454298                1.82514432
               9.99968460                6.78482872               13.01165544                0.93985497                0.00273355                0.00201984               -0.00980838                0.00652222                0.02952175                0.49330210
              11.00091902                6.73149309               12.88237894                1.00000000                0.12344198                0.23257713               -0.79851669               -0.04313044                0.01268029               -0.84620800
               1.05971273                8.24604074               13.09012584                1.00000000               -0.01267627               -0.12989326                0.44601867               -0.04270283                0.03574906                1.01843086
               2.05958597                8.19220942               12.94684836                0.63190893                0.10935802                0.10452172               -0.36227226               -0.00091628                0.13415590               -0.54843677
               3.06189989                8.13779370               12.80548231                0.02489816                0.53845937                0.34090268               -1.16670103                0.19796169               11.48319533               -1.99657200
               4.07035515                8.08637756               12.88924154                0.00010000                0.63053889                0.17111461               -0.63632243                0.51736683               22.84207877               -0.61718347
               5.07451067                8.03525316               12.97771411                0.00010000                0.18802307                0.04653512               -0.13021373                0.68651510               23.13230252                0.18596064
               6.07411561                7.98513117               13.07032572                0.00010000               -0.27290397               -0.02912662                0.37477365                0.76106188               23.49562668                0.90972687
               7.06905259                7.93590977               13.16927654                0.00010000               -0.71829794               -0.16060704                0.90456955                0.71691691               24.05771072                1.78763410
               8.05974966                7.88790977               13.27620962                0.14480313               -0.73293271               -0.41257087                1.47768430                0.33923626               14.50098600                3.12202843
               9.05439393                7.83607081               13.18671171                0.43124383               -0.37256539               -0.33616012                1.11417400                0.04821245                2.35979845                1.72622066
              10.05229835                7.78436228               13.05136767                0.95985732               -0.08601578               -0.09393416                0.29225610                0.00360178                0.04004999                0.50196751
              11.05267362                7.73343463               12.91547542                1.00000000                0.03752693                0.15798902               -0.53070074               -0.04271886                0.01625531               -0.82924363
               1.11196955                9.24504482               13.06239946                1.00000000                0.05786051               -0.07133069                0.22851399               -0.04094108                0.02525361                0.84112749
               2.11254816                9.19366474               12.91118690                0.60425365                0.18239658                0.18697512               -0.61889828                0.00167154                0.22109768               -0.51939358
               3.11561748                9.14168626               12.76384200                0.01329690                0.65184680                0.43132151               -1.45156006               -0.04241214               13.04356788               -1.54040014
               4.12558509                9.08791715               12.86913828                0.00010000                0.76955494                0.08209198               -0.78925006                0.16652966               25.49038975               -0.42521235
               5.13100858                9.03543349               12.97341747                0.00010000                0.24161801                0.01238349               -0.16430396                0.36556165               25.43731689                0.08939119
               6.13041745                8.98479241               13.08089991                0.00010000               -0.36330429               -0.04261586                0.45770606                0.42932828               25.82800382                0.50609761
               7.12374249                8.93428467               13.19652324                0.00010000               -0.93339864               -0.12612333                1.11949877                0.31618009               26.73664386                1.01956049
               8.11174948                8.88322140               13.32611643                0.15388367               -0.91832064               -0.47235064                1.87292131                0.04262871               16.03619505                2.04904519
               9.10537608                8.83217461               13.23149917                0.44497315               -0.46783341               -0.43161079                1.43523703               -0.04115206                2.52531220                1.23620548
              10.10239281                8.78295004               13.09144011                0.98073771               -0.17280683               -0.18689225                0.59100839               -0.00183654                0.11958025                0.46950094
              11.10191995                8.73465287               12.94875339                0.99978236               -0.04728649                0.08520070               -0.26552101               -0.04389259               -0.00907971               -0.68096554
               1.16165406               10.24461413               13.03144468                1.00000000                0.13238940               -0.04306917                0.00254718                0.10193103                0.45267623                0.68392467
               2.16297796               10.19594893               12.87664519                0.79409074                0.25725881                0.22841839               -0.86413539                0.13328043                0.88830420               -0.46300686
               3.16679924               10.14642013               12.73051990                0.50327144                0.84802804                0.47338742               -1.68441745               -0.27830081               14.71467916               -1.12790029
               4.17993852               10.08801940               12.85232380                0.43600414                0.90737022                0.01022462               -0.90776953               -0.11062278               27.66090528               -0.21047033
               5.18494664               10.03550083               12.96773586                0.43056048                0.19562429                0.00673370               -0.19538664                0.20677903               27.35484594                0.07599254
               6.18385100                9.98427885               13.08616357                0.45209507               -0.39997258               -0.05135551                0.51624515                0.23767906               27.79469812                0.30802640
               7.17694719                9.93338730               13.21361456                0.49806728               -1.05693581               -0.08973626                1.27361145                0.02966483               28.96208758                0.60125655
               8.16271229                9.87846275               13.35952596                0.58010661               -1.15524683               -0.47586497                2.14801361               -0.20115473               17.71959905                1.26208351
               9.15384226                9.82743859               13.26804301                0.72725350               -0.64644683               -0.47360174                1.71507840               -0.04529839                3.45972297                0.81981070
              10.14978335                9.78062444               13.13048318                0.99772267               -0.27260798               -0.23256002                0.88504865                0.12405691                0.72876417                0.41629535
              11.14839010                9.73513865               12.98458324                1.00000000               -0.13932550                0.04857735                0.01745621                0.09843589                0.31312284               -0.54487210
               0.65111126                0.31639877               14.32414292                1.00000000               -0.54822987               -0.61522498                2.13582845               -0.12374656               -0.80612636                0.85913331
               1.64562896                0.23917582               14.23039302                1.00000000               -0.44915524               -0.45262057                1.61452826               -0.08366515               -0.81632324               -0.03119564
               2.64212815                0.16178610               14.13641222                0.71399856               -0.14041884               -0.31522688                1.08857003                0.07285642               -0.51730329               -0.77362335
               3.64282058                0.08786908               14.04871633                0.52308655                0.35550781               -0.18225401                0.57089231                0.30436878                1.19412316               -0.09726154
               4.64923831                0.02470722               13.98941026                0.45362918                0.64715354               -0.09631798                0.10172363                0.27909010                3.99664569               -0.08436958
               5.65576365               -0.02617588               13.95904701                0.46153575                0.34758581                0.01233694               -0.32629960                0.12649323                5.27498795               -0.00604057
               6.65619002               -0.07615659               13.92657152                0.53590149               -0.05043697                0.16730110               -0.74206746                0.20807840                3.79434056                0.06063150
               7.65475491               -0.13592920               13.86671712                0.69207896                0.01387708                0.32703942               -1.20309324                0.21163451                1.33033701                0.10486903
               8.65646757               -0.20477199               13.78444244                0.97025767                0.35259180                0.48826839               -1.71696912                0.07141212               -0.21730607                0.37806668
               9.66180675               -0.27709873               13.69320944                1.00000000                0.63723623                0.64118052               -2.26082557               -0.07283935               -0.62448053                0.22637123
              10.66921229               -0.34945261               13.60258969                1.00000000                0.74055423                0.79620323               -2.78950862               -0.13276231               -0.58588437               -0.58119093
               0.72709675                1.31024652               14.29266349                1.00000000               -0.49981063               -0.58464675                1.92083799               -0.04404768               -0.04595723                1.11072526
               1.72209864                1.23464961               14.19825427                1.00000000               -0.42933326               -0.41753980                1.39934750               -0.00808861                0.02066573               -0.07052949
               2.71851008                1.15863383               14.10512422                0.27748137               -0.38474663               -0.27522455                0.87951962                0.18185754                1.11946603               -1.15323195
               3.71440371                1.08604654               14.03267342                0.00281051               -0.47291954               -0.16300498                0.44118900                0.73068303                3.27692835               -1.39753535
               4.70905169                1.02374404               13.98264031                0.00665248               -0.34716095                0.29276574                0.03012326                1.47337929                5.91162378                0.39816871
               5.70746049                0.97394749               13.96283785                0.00934318                0.20478887                0.12060145               -0.31854515                1.79627362                7.26792570                0.31311059
               6.71314747                0.92551642               13.94057913                0.01384877                0.68592352               -0.02975279               -0.65195826                1.47622510                5.66005023                0.23062184
               7.72117896                0.86734119               13.88990029                0.24037207                0.73094899                0.34062426               -1.04198268                0.78691197                3.15357818                1.41754423
               8.72776645                0.80011069               13.81844471                0.66085630                0.61198509                0.45870218               -1.48744654                0.25537153                1.42812912                1.09510134
               9.73341866                0.72931308               13.73353432                1.00000000                0.62360502                0.59861998               -1.98054360                0.02478564                0.46178428                0.54053151
              10.74023855                0.65850942               13.64264858                1.00000000                0.68198872                0.75128267               -2.51605480               -0.05119408                0.16904666               -0.61874491
               0.80142413                2.30470584               14.26615319                1.00000000               -0.43442534               -0.52574573                1.72517915               -0.04537495                0.13558375                1.32787711
               1.79707988                2.23082502               14.16528732                0.82384813               -0.35278792               -0.35023718                1.17827804               -0.01024494                0.22721090               -0.28078880
               2.79436837                2.15628161               14.06619161                0.10956859               -0.23779211               -0.19000397                0.65261654                0.18472420                1.48862094               -1.89177794
               3.79232403                2.08460898               13.99055709                0.00010000               -0.17817101                0.14582404                0.20470424                1.38049450                6.17317410               -1.24466372
               4.79080495                2.03056254               13.98523825                0.00010000               -0.12036438                0.47791580                0.01713264                2.48798731                9.26806437                0.50894324
               5.78991675                1.97623615               13.97258893                0.00010000                0.07579368                0.21421024               -0.23486901                2.63487589                8.74650942                0.79356221
               6.79232082                1.92324836               13.95766105                0.00010000                0.29910698               -0.06859367               -0.49328798                2.47615870                8.40129886                1.10744924
               7.79589889                1.87088328               13.93913056                0.08924814                0.36411429                0.16226283               -0.74131611                1.46779297                5.46901762                2.62214917
               8.79960311                1.80440205               13.86664937                0.35836624                0.40024212                0.41772267               -1.16237509                0.33024440                2.06626322                2.81096254
               9.80390373                1.73487367               13.78000540                0.89272514                0.50963046                0.52208695               -1.67723929                0.04429317                0.78711695                1.05398562
              10.80979572                1.66557304               13.68179527                1.00000000                0.58919912                0.66230367               -2.24968300               -0.04173833                0.21412145               -0.55455523
               0.87395089                3.29973161               14.23896749                1.00000000               -0.36329153               -0.46520251                1.52082471               -0.04908984                0.04212864                1.24123254
               1.87031797                3.22764487               14.12890452                0.76462569               -0.27651407               -0.28012837                0.92320012               -0.01491506                0.10715640               -0.46676244
               2.86842060                3.15483376               14.02007893                0.08108388               -0.12926479               -0.09836939                0.33705262                0.37928290                3.47736695               -2.22271265
               3.86773267                3.08896302               13.97742825                0.00010000               -0.06181640                0.38549845                0.16901910                1.39674932                9.09275638                0.04261085
               4.86718428                3.03330236               13.98161516                0.00010000               -0.01302416                0.23960554                0.00118834                2.02286542               11.39885974                0.34475561
               5.86747219                2.97823169               13.98625647                0.00010000                0.04196169                0.16866391               -0.14626364                2.14097131               11.26390996                1.12782939
               6.86802351                2.92414455               13.98890766                0.00010000                0.09544682                0.08442201               -0.30550966                2.07164888               10.85779093                2.04861922
               7.86938113                2.87058645               13.98647560                0.09395681                0.11787188                0.03670594               -0.49542443                1.42904868                8.10568339                3.15419290
               8.87038095                2.80846514               13.93490727                0.34862002                0.18762019                0.32291238               -0.72042835                0.43886107                2.99094343                3.32341929
               9.87313353                2.73975482               13.83050206                0.83461761                0.38120461                0.43766282               -1.32866927                0.01606016                0.19880988                1.14292885
              10.87800504                2.67175550               13.72292215                1.00000000                0.48715082                0.57756405               -1.96591679               -0.04601620                0.04438578               -0.48464452
               0.94461582                4.29540179               14.21067771                1.00000000               -0.29363872               -0.39799141                1.30591057               -0.04804004                0.02138061                1.17139909
               1.94167943                4.22522245               14.09215284                0.73446043               -0.19899720               -0.20444385                0.66767313               -0.01440317                0.06413030               -0.48751665
               2.94063587                4.15431422               13.97441897                0.06871156                0.00554934               -0.00994415                0.03467907                0.48003522                5.34385348               -2.15938328
               3.94179042                4.09231895               13.96149841                0.00010000                0.06788595                0.28267031                0.05060860                1.34746165               12.16574146               -0.23858125
               4.94199359                4.03535465               13.98132546                0.00010000                0.00517835                0.18774121               -0.00272816                1.73456697               13.82680865                0.51227822
               5.94189398                3.97960943               14.00308220                0.00010000               -0.02972719                0.11650419               -0.04702740                1.80918779               13.86158368                1.36364373
               6.94139905                3.92493680               14.02501160                0.00010000               -0.08673585                0.06262560               -0.09823445                1.80475610               13.79693834                2.42742763
               7.94015927                3.87161740               14.04671596                0.10453464               -0.10935427                0.08173617               -0.17350428                1.25457469                9.99602192                3.86466020
               8.93921196                3.81086030               13.99364114                0.36520208                0.03876560                0.16280864               -0.31751357                0.39516994                3.14465665                2.56319859
               9.94093458                3.74362693               13.87869061                0.85542639                0.28310370                0.32917598               -0.98962086                0.00802150                0.02892273                0.90497597
              10.94487404                3.67712433               13.76316542                1.00000000                0.39394583                0.49647541               -1.67318120               -0.04743115                0.00418427               -0.60726323
               1.01334875                5.29177178               14.18204695                1.00000000               -0.22312836               -0.32784878                1.08837387               -0.04730430                0.02183373                1.14482365
               2.01111747                5.22355599               14.05528345                0.70618714               -0.12119728               -0.12839545                0.40977849               -0.01188410                0.07221253               -0.49940262
               3.01092481                5.15463487               13.92946391                0.05750545                0.12620060                0.07405198               -0.26434339                0.48285886                7.09850097               -2.12007594
               4.01364148                5.09461643               13.94324287                0.00010000                0.18301672                0.21440382               -0.09652701                1.20503594               15.22194083               -0.38560971
               5.01458514                5.03705718               13.98137932                0.00010000                0.02161586                0.15417227               -0.02084532                1.44559738               16.46306826                0.49840740
               6.01407380                4.98056178               14.02178799                0.00010000               -0.12372431                0.07757675                0.06055702                1.52054138               16.59209436                1.46020173
               7.01211066                4.92539706               14.06423815                0.00010000               -0.27623399                0.01625291                0.13671853                1.54039698               16.72393076                2.58968826
               8.00854912                4.87222117               14.10881699                0.11477499               -0.29179195               -0.00451994                0.19384893                1.04573968               11.44498920                3.91866299
               9.00627482                4.81172132               14.04694215                0.38172154               -0.07595939                0.01851070                0.06125644                0.31177810                3.06392152                2.17798964
              10.00702993                4.74633834               13.92435093                0.87933038                0.18934025                0.21604534               -0.65840655                0.00759246                0.01870034                0.70282109
              11.01006162                4.68168500               13.80146491                1.00000000                0.30316903                0.41400494               -1.38419758               -0.04562947                0.00815295               -0.75993396
               1.08010131                6.28884481               14.15318252                1.00000000               -0.15226553               -0.25819006                0.86942407               -0.04600203                0.02561501                1.12080686
               2.07857866                6.22265454               14.01822773                0.67827896               -0.04343510               -0.05144396                0.15077972               -0.00845291                0.08988927               -0.51982107
               3.07923261                6.15579526               13.88449664                0.04650007                0.24450834                0.15950434               -0.56351258                0.42563961                8.84232129               -2.12761057
               4.08346882                6.09660703               13.92461390                0.00010000                0.28637920                0.20067925               -0.26734203                1.00923878               18.25322470               -0.47393433
               5.08496019                6.03843809               13.98099497                0.00010000                0.02480552                0.13049936               -0.04827716                1.15801400               19.12747501                0.42585208
               6.08396493                5.98116096               14.04077054                0.00010000               -0.22063003                0.04284473                0.17177329                1.22145635               19.36069347                1.41780138
               7.08054759                5.92526185               14.10393983                0.00010000               -0.46075643               -0.05114220                0.39041498                1.25175995               19.61197828                2.54898151
               8.07474980                5.87152700               14.17064118                0.12452485               -0.46086172               -0.14515882                0.60004662                0.80475667               12.74958212                3.84463930
               9.07133036                5.81123051               14.09813883                0.39727215               -0.18135334               -0.11101003                0.42590894                0.21471759                2.90219435                2.01384550
              10.07112274                5.74794784               13.96838613                0.90185954                0.09688758                0.10879669               -0.33609061                0.00661966                0.02514035                0.58088786
              11.07326811                5.68540442               13.83826560                1.00000000                0.21453720                0.33033542               -1.10173749               -0.04427219                0.01089260               -0.85668582
               1.14480925                7.28660798               14.12403296                1.00000000               -0.08112890               -0.19065569                0.65012610               -0.04436755                0.02816410                1.08961444
               2.14399796                7.22252711               13.98088801                0.65062926                0.03379326                0.02653501               -0.10798008               -0.00425505                0.10927112               -0.54784417
               3.14548512                7.15782496               13.83930665                0.03550355                0.35927333                0.24871583               -0.86173481                0.32198548               10.53126565               -2.14701912
               4.15118343                7.09863002               13.90462986                0.00010000                0.38531885                0.20730986               -0.44758632                0.75499690               21.24306793               -0.61503956
               5.15319149                7.03966717               13.97955295                0.00010000                0.02478698                0.11651978               -0.08099137                0.86040983               21.80447242                0.30887010
               6.15167917                6.98141867               14.05867290                0.00010000               -0.32058390                0.01606297                0.28229515                0.90682192               22.12476801                1.25236636
               7.14677981                6.92437422               14.14257674                0.00010000               -0.65017853               -0.11737088                0.65205023                0.90764233               22.50430779                2.34952851
               8.13867560                6.86931799               14.23164590                0.13386043               -0.63157394               -0.29198221                1.03025929                0.52694219               14.04186623                3.70303181
               9.13414834                6.80950112               14.14829248                0.41192960               -0.28435924               -0.23108250                0.77911047                0.11965070                2.72241637                1.92728966
              10.13298841                6.74851427               14.01149055                0.92322731                0.00573327                0.00687898               -0.02221564                0.00491632                0.03017373                0.52216582
              11.13426300                6.68829171               13.87425039                1.00000000                0.12745891                0.24888344               -0.82616078               -0.04363161                0.01213065               -0.89003606
               1.20737570                8.28503170               14.09450566                1.00000000               -0.00991216               -0.12701247                0.43126828               -0.04246531                0.03431945                1.05445722
               2.20727658                8.22318525               13.94321533                0.62346325                0.10968585                0.10644676               -0.36518845               -0.00020211                0.13476771               -0.58955342
               3.20956941                8.16076958               13.79387968                0.02448901                0.47249863                0.34171976               -1.15675713                0.16931452               12.15242581               -2.10896959
               4.21672655                8.10075323               13.88297241                0.00010000                0.49051600                0.20193325               -0.61994912                0.44012586               24.17106227               -0.67221051
               5.21937973                8.04076849               13.97650030                0.00010000                0.03338884                0.09020730               -0.11466941                0.56865246               24.45287539                0.18433833
               6.21739433                7.98148222               14.07413543                0.00010000               -0.42893093                0.01393094                0.38512766                0.59805356               24.83213342                0.95712997
               7.21080112                7.92291444               14.17833528                0.00010000               -0.86162874               -0.13483294                0.90505803                0.51292515               25.43089384                1.89846582
               8.20016175                7.86568736               14.29092278                0.14303432               -0.81370100               -0.41385729                1.46263081                0.19690789               15.43950184                3.33771155
               9.19452710                7.80660886               14.19789330                0.42612793               -0.38656423               -0.34317638                1.12259021                0.02508172                2.60032822                1.81409358
              10.19243047                7.74808541               14.05425310                0.94428842               -0.08432523               -0.09138935                0.28534141                0.00135926                0.04118132                0.52529382
              11.19284059                7.69038209               13.91004042                1.00000000                0.04101255                0.17100269               -0.55570191               -0.04368466                0.01599986               -0.87771273
               1.26765285                9.28406773               14.06460776                1.00000000                0.06031850               -0.06780865                0.21432561               -0.04085796                0.02274629                0.87330511
               2.26825604                9.22465605               13.90499363                0.59722133                0.18252855                0.18815380               -0.62091172                0.00203933                0.22641524               -0.55361898
               3.27130342                9.16465935               13.74940369                0.01337326                0.58654988                0.43004290               -1.43962235               -0.05195685               13.80316152               -1.61951921
               4.27998704                9.10266868               13.86135501                0.00010000                0.62660626                0.12480753               -0.77050901                0.13013400               26.98855306               -0.45090257
               5.28383555                9.04147132               13.97187970                0.00010000                0.07536285                0.06624477               -0.14600856                0.29403727               26.92507179                0.08926320
               6.28149429                8.98169729               14.08555395                0.00010000               -0.55011843                0.01930206                0.47050419                0.31724545               27.33831034                0.53135114
               7.27283318                8.92167756               14.20774405                0.00010000               -1.12874810               -0.06056491                1.12210446                0.15320543               28.31072465                1.08020641
               8.25891933                8.86104085               14.34479444                0.15248885               -1.02906338               -0.44994900                1.86026136               -0.09958751               17.06592891                2.18560902
               9.25225191                8.80263759               14.24592902                0.44061685               -0.48384828               -0.43771403                1.45112592               -0.07334623                2.75484419                1.29397333
              10.24924236                8.74668648               14.09735754                0.96649937               -0.17279806               -0.18694690                0.59158867               -0.00482697                0.12727903                0.48995538
              11.24879595                8.69171177               13.94598417                0.99982012               -0.04464134                0.09473053               -0.28786225               -0.04556426               -0.00997849               -0.72308146
               1.32538191               10.28367553               14.03139963                1.00000000                0.13438326               -0.03922045               -0.01054583                0.10018482                0.46725670                0.71132970
               2.32672574               10.22694832               13.86800423                0.79099817                0.25678684                0.22922743               -0.86542661                0.13171573                0.92671215               -0.49084849
               3.33051764               10.16937044               13.71375691                0.50344862                0.78957634                0.47110843               -1.67192511               -0.26352521               15.57478742               -1.17939940
               4.34251727               10.10324938               13.84336741                0.43674589                0.78571138                0.05806970               -0.88697050               -0.11082962               29.31868090               -0.22502573
               5.34623187               10.04209339               13.96589935                0.43082485                0.05078635                0.06220684               -0.17507392                0.17057638               28.99508040                0.07537288
               6.34353299                9.98186826               14.09141130                0.45198732               -0.58551026                0.01709715                0.53025806                0.18435767               29.46163415                0.32166797
               7.33452167                9.92170314               14.22637864                0.49776930               -1.31615107                0.00255797                1.27627897               -0.09014564               30.70401966                0.63524912
               8.31720997                9.85668838               14.38095090                0.57950557               -1.35535646               -0.43524709                2.13419503               -0.36336383               18.85811655                1.34341962
               9.30741454                9.79785458               14.28527876                0.72528405               -0.69751123               -0.47830075                1.73302612               -0.10083264                3.73684965                0.85490028
              10.30325975                9.74434648               14.13939208                0.99097882               -0.27678992               -0.23400062                0.89273888                0.12284438                0.77518518                0.43563440
              11.30187874                9.69227670               13.98465095                1.00000000               -0.13810086                0.05649366               -0.00319678                0.10130135                0.33435929               -0.57921179
               0.73918732                0.35775103               15.34544624                1.00000000               -0.54720097               -0.61248980                2.12647859               -0.12242836               -0.84816114                0.89960352
               1.73371531                0.27207740               15.24650964                1.00000000               -0.45049958               -0.45057253                1.60931590               -0.08255548               -0.86104436               -0.03139091
               2.73017733                0.18620293               15.14730066                0.71243104               -0.15375710               -0.31220317                1.08883346                0.06611252               -0.55978959               -0.80924868
               3.73064017                0.10357710               15.05446700                0.52328157                0.31109638               -0.17862373                0.57803806                0.27828010                1.17722477               -0.09844219
               4.73639926                0.03098122               14.99047743                0.45407165                0.58234647               -0.08240404                0.11010197                0.25455722                4.01595207               -0.08594894
               5.74228710               -0.03005627               14.95577714                0.46172911                0.31417954                0.03299830               -0.32896579                0.11316268                5.31617682               -0.00380601
               6.74268285               -0.08998777               14.91907417                0.53542510               -0.03708452                0.18342370               -0.75829910                0.18832138                3.82624948                0.06511725
               7.74154541               -0.15883991               14.85457412                0.69035610                0.04046656                0.33745382               -1.22613254                0.19235460                1.32365994                0.11105992
               8.74349218               -0.23605716               14.76715083                0.96601343                0.36963631                0.49523977               -1.74174394                0.06255561               -0.25974280                0.39499777
               9.74893813               -0.31648377               14.67047501                1.00000000                0.64665268                0.64804922               -2.28634851               -0.07182925               -0.67220733                0.24274899
              10.75642523               -0.39690314               14.57457826                1.00000000                0.74870983                0.80439161               -2.81294769               -0.13210420               -0.62493269               -0.62498461
               0.82363666                1.35162613               15.31181611                1.00000000               -0.49728614               -0.58209722                1.91090754               -0.04307279               -0.04845971                1.15979260
               1.81866380                1.26757167               15.21221961                1.00000000               -0.42740287               -0.41548409                1.39340205               -0.00699293                0.01874719               -0.07393788
               2.81508860                1.18308090               15.11391737                0.27492288               -0.38149882               -0.27209437                0.87764597                0.17269226                1.16053702               -1.19661582
               3.81103382                1.10179086               15.03711852                0.00301896               -0.46635467               -0.15708087                0.44628673                0.68874003                3.37574900               -1.45106468
               4.80576151                1.03015718               14.98297326                0.00702435               -0.35653029                0.27391238                0.03501182                1.37060143                6.06152216                0.42606221
               5.80390322                0.97027371               14.95962067                0.00986081                0.15981854                0.12283842               -0.32591865                1.67377219                7.46498550                0.35455045
               6.80895788                0.91184647               14.93395699                0.01334446                0.63002152               -0.01407181               -0.67323554                1.37864531                5.84064446                0.27265290
               7.81650365                0.84453462               14.87934905                0.23818219                0.69908897                0.34359459               -1.06889266                0.72781891                3.27839006                1.49486530
               8.82293966                0.76889524               14.80343936                0.65442044                0.60695919                0.46355250               -1.51416173                0.23786224                1.50129235                1.16162238
               9.82864283                0.68999672               14.71361547                1.00000000                0.62919500                0.60437047               -2.00352775                0.02352902                0.48982554                0.56834811
              10.83552356                0.61114077               14.61737716                1.00000000                0.68807288                0.76088763               -2.53841111               -0.05141328                0.17521543               -0.66600385
               0.90643477                2.34610908               15.28334133                1.00000000               -0.43140945               -0.52338952                1.71348414               -0.04485828                0.14721705                1.38198688
               1.90212068                2.26376772               15.17704010                0.81206539               -0.35113912               -0.34748026                1.17138461               -0.00963798                0.24969203               -0.30418902
               2.89941199                2.18076105               15.07272800                0.10791421               -0.23909941               -0.18542173                0.65194950                0.17508674                1.56179937               -1.98779075
               3.89733869                2.10043548               14.99264428                0.00010000               -0.20417788                0.13696233                0.21072936                1.27840119                6.41603174               -1.24744555
               4.89532843                2.03645947               14.98544117                0.00010000               -0.16327178                0.44069732                0.02245119                2.30092583                9.61609655                0.55510316
               5.89407325                1.97240050               14.97023385                0.00010000                0.03332052                0.19500944               -0.23727189                2.44641504                9.06684214                0.87119196
               6.89599484                1.90973080               14.95267602                0.00010000                0.24898820               -0.06696655               -0.50497124                2.31486530                8.72868063                1.20090105
               7.89905302                1.84803198               14.93159265                0.08798391                0.33962415                0.14990472               -0.76721210                1.37924461                5.72467331                2.74388101
               8.90278732                1.77321389               14.85492128                0.35412846                0.40550813                0.41026905               -1.18385726                0.30498590                2.19237119                2.98561959
               9.90716318                1.69560364               14.76313097                0.87840572                0.51607690                0.52532503               -1.69786240                0.03863101                0.83662252                1.11566252
              10.91310886                1.61831461               14.65918983                1.00000000                0.59456830                0.67565446               -2.27142931               -0.04359284                0.23450497               -0.59672036
               0.98742222                3.34115834               15.25410805                1.00000000               -0.36031484               -0.46284203                1.50853248               -0.04835173                0.04244223                1.28607301
               1.98381908                3.26062207               15.13810000                0.75334005               -0.27498228               -0.27662873                0.91547499               -0.01362291                0.11297622               -0.50695157
               2.98192258                3.17937247               15.02344629                0.07973906               -0.14578256               -0.09264115                0.33427623                0.35434367                3.70171947               -2.35565446
               3.98090342                3.10453011               14.97920130                0.00010000               -0.10537847                0.35819440                0.18482358                1.27320915                9.52725361                0.08839388
               4.97981501                3.03897113               14.98166478                0.00010000               -0.06716162                0.21855763                0.00782546                1.85192186               11.84768982                0.38923683
               5.97956019                2.97417390               14.98480178                0.00010000               -0.00956503                0.14807640               -0.14582873                1.97127261               11.72610170                1.20651169
               6.97962371                2.91050714               14.98582256                0.00010000                0.05226275                0.06694041               -0.31303244                1.91276463               11.30696817                2.16007344
               7.98060545                2.84753272               14.98145771                0.09239713                0.09220046                0.01128108               -0.51063370                1.33681060                8.53207235                3.28307281
               8.98146772                2.77710062               14.92764371                0.34409320                0.18546438                0.30608861               -0.73219285                0.41356016                3.21376975                3.52877929
               9.98431473                2.70050322               14.81712891                0.82039480                0.38810226                0.43966004               -1.34570734                0.01372262                0.21603315                1.21945890
              10.98922976                2.62465386               14.70314962                1.00000000                0.49150284                0.59479977               -1.98818133               -0.04724081                0.04722068               -0.51300083
               1.06654027                4.33685224               15.22366731                1.00000000               -0.29061857               -0.39580676                1.29336000               -0.04706031                0.02114356                1.20962690
               2.06363409                4.25823514               15.09879535                0.72312037               -0.19747241               -0.20107352                0.66059627               -0.01244777                0.06626874               -0.52892360
               3.06259083                4.17890822               14.97476847                0.06728249               -0.02149387               -0.00488702                0.03350497                0.43800750                5.67465439               -2.28333041
               4.06320421                4.10759937               14.96205401                0.00010000                0.00661237                0.26107262                0.06014306                1.21664146               12.78910307               -0.25865843
               5.06272307                4.04083062               14.98133778                0.00010000               -0.06207582                0.17212116                0.00434755                1.56721806               14.42619664                0.54937928
               6.06196269                3.97536203               15.00262594                0.00010000               -0.09158779                0.09985725               -0.04547293                1.63717983               14.47058487                1.44556750
               7.06089132                3.91106961               15.02401009                0.00010000               -0.13834728                0.04057651               -0.10376891                1.63287541               14.40004182                2.55580261
               8.05919575                3.84825760               15.04492820                0.10259834               -0.14016469                0.05165592               -0.18648017                1.14577806               10.56582256                4.04371603
               9.05808802                3.77933566               14.99041320                0.35986529                0.03443207                0.14912285               -0.32717482                0.37231564                3.42189366                2.72811652
              10.05988439                3.70439684               14.86870673                0.83983799                0.28873712                0.33216249               -1.00619396                0.00732579                0.03578435                0.96885135
              11.06386277                3.63021061               14.74630717                1.00000000                0.39783761                0.51535213               -1.69731714               -0.04722087                0.00498433               -0.63292755
               1.14371521                5.33324220               15.19286117                1.00000000               -0.22010762               -0.32600874                1.07580155               -0.04643226                0.02113392                1.18071508
               2.14151414                5.25660060               15.05935054                0.69507330               -0.11983543               -0.12529735                0.40332693               -0.00999131                0.07362714               -0.54278976
               3.14131850                5.17927473               14.92683192                0.05612930                0.08998587                0.07845670               -0.26392969                0.43047673                7.52338508               -2.24269215
               4.14331385                5.10975156               14.94231316                0.00010000                0.10391035                0.20559906               -0.09017286                1.06510021               16.02541606               -0.43465724
               5.14339671                5.04241355               14.98120838                0.00010000               -0.06245244                0.14821766               -0.01445627                1.27550630               17.23097728                0.51850026
               6.14206481                4.97617105               15.02241059                0.00010000               -0.20055341                0.06782402                0.06247792                1.33728303               17.36891896                1.54212382
               7.13938564                4.91131867               15.06558483                0.00010000               -0.34049277               -0.00174729                0.13080650                1.34959661               17.49857327                2.73387612
               8.13525495                4.84856584               15.11068118                0.11261726               -0.33054269               -0.03104626                0.17704217                0.92644555               12.13176515                4.12996857
               9.13277479                4.78008308               15.04751234                0.37589851               -0.08343207                0.00829444                0.05389747                0.28996137                3.36756177                2.31865547
              10.13358631                4.70714647               14.91768025                0.86281811                0.19415125                0.22015918               -0.67443886                0.00663330                0.02236813                0.75571374
              11.13665781                4.63496091               14.78748562                1.00000000                0.30715057                0.43266497               -1.41013080               -0.04550117                0.00809664               -0.79090077
               1.21889484                6.33033207               15.16180750                1.00000000               -0.14930991               -0.25651845                0.85684717               -0.04534008                0.02450471                1.15537462
               2.21740174                6.25572920               15.01970855                0.66773025               -0.04227174               -0.04853885                0.14495920               -0.00688362                0.09089233               -0.56378632
               3.21804940                6.18047736               14.87888032                0.04531094                0.19828268                0.16350277               -0.56178140                0.36867443                9.35071045               -2.24983949
               4.22136739                6.11171135               14.92198083                0.00010000                0.18821549                0.20419999               -0.26076666                0.86580127               19.23331462               -0.54036266
               5.22181371                6.04379498               14.98055515                0.00010000               -0.07820767                0.13806543               -0.04134128                0.98443736               20.07732548                0.43505865
               6.21980324                5.97671851               15.04250982                0.00010000               -0.31626258                0.04431614                0.17417179                1.02496390               20.31914193                1.49575381
               7.21548846                5.91103466               15.10782140                0.00010000               -0.54214923               -0.06133714                0.38377646                1.04142155               20.57503764                2.69975828
               8.20896025                5.84763667               15.17654742                0.12232250               -0.50909220               -0.16569878                0.57913857                0.67296590               13.53543832                4.08009648
               9.20530661                5.77950155               15.10237697                0.39132225               -0.19105122               -0.11969692                0.42258137                0.19282957                3.20639018                2.13824407
              10.20513923                5.70880002               14.96494881                0.88505816                0.10086306                0.11292966               -0.35020496                0.00531082                0.02724243                0.62325091
              11.20732388                5.63886390               14.82710902                1.00000000                0.21846485                0.34783244               -1.12810396               -0.04440426                0.01045051               -0.89464291
               1.29201415                7.32811183               15.13046571                1.00000000               -0.07829784               -0.18884886                0.63762476               -0.04395369                0.02677748                1.12376479
               2.29123117                7.25562982               14.97978526                0.64094753                0.03478450                0.02917711               -0.11315382               -0.00307428                0.11008310               -0.59090521
               3.29270984                7.18254478               14.83071574                0.03461830                0.30405445                0.25199566               -0.85869406                0.26738284               11.11844490               -2.26670719
               4.29731226                7.11383556               14.90020940                0.00010000                0.26842298                0.22484232               -0.43873667                0.62092326               22.39713134               -0.68226071
               5.29807830                7.04517486               14.97879735                0.00010000               -0.09939309                0.14091010               -0.07242739                0.69066274               22.94090957                0.31250421
               6.29532440                6.97705737               15.06152622                0.00010000               -0.43911970                0.03371070                0.28589977                0.70185682               23.27179082                1.32153787
               7.28929591                6.91009193               15.14907918                0.00010000               -0.75385121               -0.11614435                0.64577419                0.67945753               23.66827539                2.49427637
               8.28024738                6.84525186               15.24185131                0.13177090               -0.69139378               -0.30606051                1.00808008                0.38093165               14.91555944                3.94667824
               9.27546803                6.77768914               15.15609257                0.40617501               -0.29586012               -0.23927047                0.78130150                0.09583823                3.00903359                2.03884227
              10.27433017                6.70940507               15.01121112                0.90669757                0.00869679                0.01005730               -0.03291363                0.00320204                0.03163812                0.55587202
              11.27564197                6.64191755               14.86585573                1.00000000                0.13117937                0.26413466               -0.85158250               -0.04399595                0.01156899               -0.93447863
               1.36297978                8.32655509               15.09875120                1.00000000               -0.00724839               -0.12474424                0.41893784               -0.04230577                0.03308598                1.08932125
               2.36290730                8.25631274               14.93954459                0.61487363                0.11057682                0.10868170               -0.36975221                0.00057668                0.13617550               -0.63095767
               3.36519132                8.18551727               14.78234717                0.02398931                0.41242381                0.34369322               -1.15234778                0.12524704               12.82093622               -2.22017376
               4.37115578                8.11620819               14.87684255                0.00010000                0.36069163                0.23342715               -0.60887900                0.33318956               25.49741416               -0.72433840
               5.37240515                8.04661318               14.97542072                0.00010000               -0.11162354                0.13224195               -0.10416652                0.42086532               25.76985244                0.18680427
               6.36892331                7.97739272               15.07802828                0.00010000               -0.57610182                0.05430981                0.39039528                0.40467483               26.16610398                1.00989044
               7.36088312                7.90871177               15.18737770                0.00010000               -0.99708166               -0.11232453                0.90021093                0.27716668               26.80211150                2.01629712
               8.34898167                7.84151546               15.30546224                0.14116688               -0.89064714               -0.41731976                1.44180060                0.03200444               16.39981796                3.56214510
               9.34307017                7.77471614               15.20916351                0.42080019               -0.40034102               -0.35102630                1.13126336               -0.00362322                2.86407211                1.91221760
              10.34097485                7.70900117               15.05707450                0.92844445               -0.08255976               -0.08974472                0.27911349               -0.00082392                0.04375580                0.55455268
              11.34141898                7.64414660               14.90436138                1.00000000                0.04441264                0.18315800               -0.57929393               -0.04419919                0.01594461               -0.92673671
               1.43165274                9.32561695               15.06668598                1.00000000                0.06277874               -0.06490618                0.20230620               -0.04083868                0.02023442                0.90478276
               2.43228052                9.25780346               14.89876866                0.58978077                0.18332944                0.18990002               -0.62508481                0.00246619                0.23261146               -0.58832731
               3.43531933                9.18941865               14.73504955                0.01326186                0.52998107                0.43042211               -1.43420628               -0.07794316               14.56212224               -1.69837956
               4.44288015                9.11850410               14.85372810                0.00010000                0.49958781                0.16429472               -0.75818945                0.07074822               28.48404429               -0.47547810
               5.44531108                9.04781970               14.97049730                0.00010000               -0.07804219                0.11778965               -0.13389527                0.20193371               28.40933483                0.09117717
               6.44131930                8.97814356               15.09030999                0.00010000               -0.72972924                0.08023964                0.47717891                0.18534179               28.84649056                0.55967247
               7.43071650                8.90784544               15.21896533                0.00010000               -1.32181037                0.00556754                1.11850249               -0.03166166               29.88508983                1.14589722
               8.41488309                8.83690547               15.36332165                0.15085429               -1.14033181               -0.42486179                1.84149493               -0.25920018               18.12365030                2.32961035
               9.40790986                8.77066861               15.26052169                0.43576291               -0.49999271               -0.44395163                1.46645285               -0.11137013                3.01257724                1.36011506
              10.40488324                8.70761017               15.10327188                0.95144706               -0.17213672               -0.18665563                0.59034251               -0.00739443                0.13749249                0.51540125
              11.40446713                8.64558071               14.94299614                0.99985154               -0.04161139                0.10371239               -0.30939794               -0.04591786               -0.01065446               -0.76577219
               1.49779000               10.32525697               15.03123376                1.00000000                0.13649289               -0.03599835               -0.02176896                0.09910340                0.48121245                0.73839842
               2.49915493               10.26011074               14.85933666                0.78761371                0.25709079                0.23072830               -0.86923781                0.13087760                0.96546464               -0.51933013
               3.50293181               10.19412571               14.69708140                0.50350449                0.75073815                0.47070658               -1.66630275               -0.26958373               16.43456979               -1.23151784
               4.51416969               10.11949409               14.83458439                0.43743802                0.69362754                0.09899883               -0.87320960               -0.12888274               30.97431431               -0.24031483
               5.51680436               10.04896897               14.96423438                0.43107466               -0.07826419                0.11492714               -0.16164829                0.12449940               30.63080634                0.07466815
               6.51260441                9.97899751               15.09676874                0.45185766               -0.76581901                0.08539478                0.53739934                0.12121800               31.12467758                0.33577810
               7.50148798                9.90882312               15.23914014                0.49740413               -1.58149559                0.09776872                1.27210492               -0.22181558               32.44461181                0.67071652
               8.48097449                9.83301823               15.40220986                0.57874281               -1.56749586               -0.38872379                2.11396882               -0.54016076               20.02921846                1.43056103
               9.47013807                9.76583711               15.30270353                0.72297558               -0.75298153               -0.48315021                1.75048031               -0.16468796                4.04837772                0.89683274
              10.46591486                9.70526806               15.14833795                0.98364332               -0.27892654               -0.23421140                0.89450614                0.12234903                0.82651497                0.45886902
              11.46455954                9.64622085               14.98451930                0.99999913               -0.13553272                0.06401316               -0.02332354                0.10451983                0.35665088               -0.61392505
               0.83202124                0.40165110               16.36667249                1.00000000               -0.54675928               -0.61038230                2.11979860               -0.12237441               -0.88773135                0.93817364
               1.82655365                0.30712805               16.26257934                1.00000000               -0.45231232               -0.44876572                1.60561074               -0.08230228               -0.90239512               -0.03229631
               2.82297499                0.21236771               16.15818889                0.71062397               -0.16826722               -0.30935290                1.08920724                0.05814985               -0.59792388               -0.84494518
               3.82318830                0.12059721               16.06027709                0.52336577                0.26361100               -0.17492315                0.58303249                0.24889458                1.16127277               -0.09823875
               4.82824722                0.03799660               15.99161230                0.45445910                0.51510769               -0.06950510                0.11538999                0.22646256                4.02738019               -0.08703226
               5.83349046               -0.03393907               15.95246769                0.46186423                0.28354052                0.05208548               -0.33420845                0.09777660                5.34303592               -0.00106905
               6.83391803               -0.10461989               15.91140554                0.53485017               -0.01695057                0.19875154               -0.77618727                0.16545678                3.84589210                0.07026277
               7.83315145               -0.18325785               15.84219447                0.68843673                0.07269006                0.34778259               -1.25019653                0.16983458                1.31008048                0.11782557
               8.83537183               -0.26944909               15.74960756                0.96136469                0.38918642                0.50217810               -1.76707373                0.05206456               -0.30648068                0.41191089
               9.84093517               -0.35852466               15.64748247                1.00000000                0.65676558                0.65487398               -2.31227542               -0.07083175               -0.72251430                0.26095684
              10.84850714               -0.44755011               15.54633074                1.00000000                0.75719634                0.81278853               -2.83663915               -0.13131184               -0.66523858               -0.67120833
               0.92532055                1.39554728               16.33088164                1.00000000               -0.49482288               -0.57987366                1.90363205               -0.04320374               -0.05052151                1.20649095
               1.92037232                1.30264039               16.22612231                1.00000000               -0.42493182               -0.41335991                1.38653048               -0.00698495                0.01756734               -0.07831662
               2.91682192                1.20927418               16.12267714                0.27201555               -0.37547592               -0.26854144                0.87422912                0.16163824                1.20401231               -1.23887485
               3.91286280                1.11884797               16.04159915                0.00322116               -0.45209671               -0.15099586                0.45028734                0.63852795                3.47471094               -1.50226272
               4.90777998                1.03730155               15.98334055                0.00736689               -0.35431680                0.24882382                0.03800208                1.25119477                6.20178341                0.45609349
               5.90577647                0.96658178               15.95631948                0.01033520                0.12260006                0.12089777               -0.33483915                1.52971803                7.64605201                0.40061542
               6.91023198                0.89736763               15.92711442                0.01272608                0.57439624                0.00103484               -0.69567651                1.26279040                6.00983655                0.32193120
               7.91726439                0.82021997               15.86852243                0.23573682                0.66469479                0.34550455               -1.09672693                0.66003549                3.39981409                1.57479779
               8.92352588                0.73557269               15.78816148                0.64744775                0.60064869                0.46795878               -1.54168448                0.21722420                1.57604620                1.23161470
               9.92927737                0.64802407               15.69346377                1.00000000                0.63467941                0.60990720               -2.02697785                0.02187679                0.51956636                0.59787866
              10.93621947                0.56057777               15.59188035                1.00000000                0.69420992                0.77081465               -2.56109817               -0.05158176                0.18142298               -0.71589678
               1.01697094                2.39005363               16.30042288                1.00000000               -0.42838937               -0.52100931                1.70461367               -0.04451356                0.15840453                1.43381141
               2.01268705                2.29886085               16.18871501                0.79998288               -0.34853831               -0.34449067                1.16179252               -0.00949070                0.27220135               -0.32832270
               3.01000018                2.20699688               16.07923060                0.10608213               -0.23777780               -0.17969931                0.64392238                0.16241057                1.63739317               -2.08220353
               4.00793149                2.11757729               15.99477167                0.00010000               -0.22314363                0.12365967                0.21560484                1.15863222                6.65962908               -1.24337313
               5.00553731                2.04297308               15.98568727                0.00010000               -0.19563764                0.39444704                0.02624821                2.08296031                9.95748452                0.60467882
               6.00401874                1.96847888               15.96784349                0.00010000               -0.00008323                0.16940314               -0.24174523                2.22438552                9.37721686                0.95615502
               7.00553564                1.89540081               15.94756162                0.00010000                0.20641757               -0.06778407               -0.51899575                2.12241566                9.04480896                1.30501764
               8.00814709                1.82365224               15.92378632                0.08664283                0.31882840                0.13461913               -0.79466240                1.27231501                5.97797549                2.87467103
               9.01191221                1.73991008               15.84297223                0.34971824                0.41102665                0.39880591               -1.20635746                0.27402533                2.32362777                3.16984415
              10.01636763                1.65367348               15.74604815                0.86384214                0.52279483                0.52720807               -1.71889426                0.03135097                0.88842057                1.17988053
              11.02236811                1.56786618               15.63636668                1.00000000                0.60004790                0.69001816               -2.29327442               -0.04630122                0.25608210               -0.64214761
               1.10681584                3.38512710               16.26913814                1.00000000               -0.35765801               -0.46062083                1.49875336               -0.04706902                0.04219525                1.32939702
               2.10323926                3.29575058               16.14721402                0.74201511               -0.27310751               -0.27337057                0.90745408               -0.01151554                0.11842949               -0.54744224
               3.10135369                3.20568019               16.02676446                0.07832947               -0.15900032               -0.08674486                0.32853285                0.32203564                3.93412763               -2.48759379
               4.10005925                3.12132117               15.98112472                0.00010000               -0.14080469                0.32283195                0.19897845                1.12909848                9.96427744                0.13641163
               5.09853760                3.04519049               15.98177167                0.00010000               -0.11114024                0.19127784                0.01267997                1.65284837               12.28715386                0.43647378
               6.09783645                2.96996984               15.98333989                0.00010000               -0.05153287                0.12165417               -0.14786507                1.77180393               12.18107072                1.29018025
               7.09750694                2.89601194               15.98264701                0.00010000                0.01824846                0.04448835               -0.32371056                1.72522475               11.74975607                2.27817557
               8.09820142                2.82291236               15.97626292                0.09085205                0.07391027               -0.01919919               -0.53056917                1.22311899                8.96083429                3.42166819
               9.09898514                2.74354881               15.92026342                0.33958196                0.18734358                0.28219561               -0.74401890                0.38074858                3.44183692                3.74262718
              10.10194829                2.65856824               15.80358791                0.80627207                0.39614466                0.43895710               -1.36243160                0.01089968                0.23309437                1.29796501
              11.10690804                2.57437814               15.68315852                1.00000000                0.49597479                0.61317959               -2.00980667               -0.04877318                0.04993331               -0.54523616
               1.19478260                4.38084122               16.23654491                1.00000000               -0.28789554               -0.39406022                1.28343929               -0.04593527                0.02102900                1.24628964
               2.19190364                4.29339344               16.10536477                0.71189403               -0.19561469               -0.19817918                0.65320700               -0.00996165                0.06884432               -0.57067763
               3.19087030                4.20526198               15.97508907                0.06585962               -0.04502360               -0.00055099                0.02951980                0.38583448                6.00979937               -2.40604820
               4.19100317                4.12403393               15.96270127                0.00010000               -0.04623520                0.23376508                0.06857654                1.06253695               13.41463708               -0.28310929
               5.18994560                4.04679863               15.98141241                0.00010000               -0.11849014                0.15096634                0.00928030                1.37238488               15.02049189                0.58817347
               6.18863337                3.97091196               16.00217274                0.00010000               -0.14239875                0.07752636               -0.04686674                1.43656113               15.07428817                1.53126439
               7.18709762                3.89629057               16.02293622                0.00010000               -0.17803778                0.01256648               -0.11312403                1.43304420               14.99891858                2.68881702
               8.18507261                3.82326825               16.04298636                0.10073256               -0.16131619                0.01444806               -0.20459257                1.01594566               11.14059833                4.22644848
               9.18387130                3.74555400               15.98709765                0.35465798                0.03418401                0.12909222               -0.33554749                0.34131051                3.70618147                2.89781304
              10.18575629                3.66245262               15.85856673                0.82457720                0.29507703                0.33211477               -1.02123530                0.00657540                0.04294595                1.03341225
              11.18977284                3.58012977               15.72921908                1.00000000                0.40165495                0.53435015               -1.71948279               -0.04704630                0.00593164               -0.66259318
               1.28079268                5.37724589               16.20356298                1.00000000               -0.21734255               -0.32467297                1.06569182               -0.04555438                0.02064379                1.21499874
               2.27861926                5.29178700               16.06334999                0.68412116               -0.11813959               -0.12246725                0.39631011               -0.00783398                0.07571313               -0.58668381
               3.27842989                5.20566918               15.92418532                0.05478323                0.05770423                0.08263356               -0.26693434                0.36568578                7.95002701               -2.36456346
               4.27977334                5.12599647               15.94143942                0.00010000                0.03386830                0.19348021               -0.08577072                0.89988813               16.82989804               -0.48483148
               5.27910726                5.04820982               15.98109020                0.00010000               -0.13488062                0.13758344               -0.01090523                1.07780062               17.99627102                0.54049133
               6.27707573                4.97152037               16.02303754                0.00010000               -0.26478625                0.05242199                0.06077371                1.12508059               18.14179519                1.62770617
               7.27381153                4.89626327               16.06685428                0.00010000               -0.39094104               -0.02639514                0.12060732                1.12970329               18.26883944                2.88173855
               8.26925691                4.82320132               16.11235783                0.11054269               -0.35922727               -0.06547260                0.15558629                0.78488840               12.82711191                4.34238148
               9.26662699                4.74613065               16.04802010                0.37023094               -0.08764447               -0.00694131                0.04823401                0.25973436                3.68262712                2.46483685
              10.26750402                4.66521053               15.91086215                0.84669101                0.19929097                0.22146765               -0.68831522                0.00568668                0.02664631                0.80998252
              11.27061281                4.58506514               15.77326230                1.00000000                0.31087866                0.45058418               -1.43333554               -0.04534623                0.00821689               -0.82502371
               1.36478930                6.37434776               16.17031946                1.00000000               -0.14656214               -0.25531593                0.84658099               -0.04471493                0.02361064                1.18843702
               2.36332368                6.29094410               16.02112691                0.65730681               -0.04073772               -0.04570111                0.13830614               -0.00513800                0.09260532               -0.60820780
               3.36397454                6.20691466               15.87326101                0.04413975                0.15683060                0.16773997               -0.56384850                0.29797094                9.85981871               -2.37140439
               4.36646029                6.12790353               15.91939857                0.00010000                0.10015832                0.20633022               -0.25753639                0.69533760               20.21372492               -0.60510102
               5.36597771                6.04955030               15.98016815                0.00010000               -0.16893842                0.14209352               -0.03834535                0.78212392               21.02533619                0.44738935
               6.36308152                5.97196040               16.04425397                0.00010000               -0.39834840                0.04053007                0.17200858                0.79848957               21.27426310                1.57794559
               7.35801074                5.89576267               16.11161536                0.00010000               -0.60892599               -0.07799152                0.37209952                0.80035512               21.53333463                2.85486937
               8.35090300                5.82195880               16.18222395                0.12017262               -0.54769854               -0.19322883                0.55322721                0.51844934               14.33463331                4.31810477
               9.34705677                5.74541517               16.10659046                0.38547350               -0.19837322               -0.13196162                0.42051210                0.16326879                3.52730223                2.26972356
              10.34693554                5.66688197               15.96138203                0.86856095                0.10499634                0.11477458               -0.36233488                0.00401397                0.03006629                0.66839069
              11.34915670                5.58914146               15.81570352                1.00000000                0.22211622                0.36423210               -1.15173815               -0.04443341                0.01013566               -0.93440749
               1.44670570                7.37213957               16.13678545                1.00000000               -0.07561065               -0.18749458                0.62728388               -0.04359227                0.02559551                1.15663618
               2.44594960                7.29087297               15.97862493                0.63128757                0.03620842                0.03192971               -0.11947466               -0.00175760                0.11164596               -0.63440759
               3.44742987                7.20902397               15.82213277                0.03371050                0.25474245                0.25588191               -0.85990470                0.19828636               11.70638444               -2.38577657
               4.45104445                7.13012307               15.89585513                0.00010000                0.16314955                0.24221154               -0.43462667                0.45843515               23.55130715               -0.74688555
               5.45069286                7.05105169               15.97810441                0.00010000               -0.21056476                0.16271601               -0.06904538                0.49106240               24.07554873                0.31973529
               6.44683315                6.97233097               16.06439089                0.00010000               -0.54363140                0.04679264                0.28381746                0.46648284               24.41612335                1.39544683
               7.43982024                6.89470344               16.15549223                0.00010000               -0.84298772               -0.12042200                0.63335924                0.42022038               24.82814917                2.64459797
               8.42997340                6.81933674               16.25180751                0.12966948               -0.74255226               -0.32494443                0.97957756                0.21286372               15.80784839                4.19581905
               9.42496919                6.74349142               16.16391851                0.40039711               -0.30576927               -0.24955395                0.78385414                0.06543958                3.31724687                2.15881001
              10.42385801                6.66750602               16.01083228                0.89026843                0.01179907                0.01168672               -0.04236730                0.00152701                0.03400356                0.59362246
              11.42520517                6.59234978               15.85721874                1.00000000                0.13471603                0.27827438               -0.87474176               -0.04417306                0.01112324               -0.97965287
               1.52645065                8.37059786               16.10288442                1.00000000               -0.00465271               -0.12293725                0.40858863               -0.04219450                0.03203788                1.12317797
               2.52640412                8.29158269               15.93582028                0.60614430                0.11197602                0.11122254               -0.37583825                0.00147606                0.13844163               -0.67292881
               3.52869017                8.21203229               15.77083272                0.02340202                0.35985777                0.34667791               -1.15283201                0.06608174               13.49042883               -2.33108037
               4.53360128                8.13274776               15.87079483                0.00010000                0.24504453                0.26471064               -0.60370124                0.19740276               26.82389943               -0.77482898
               5.53359106                8.05280462               15.97441697                0.00010000               -0.24209289                0.17147553               -0.10000841                0.24479893               27.08519697                0.19215008
               6.52875942                7.97289626               16.08194334                0.00010000               -0.70908401                0.09096543                0.38886053                0.18362676               27.49837942                1.06695159
               7.51940938                7.89335423               16.19633950                0.00010000               -1.11935608               -0.09351886                0.88811381                0.01333692               28.17107648                2.14011315
               8.50637230                7.81545991               16.31975879                0.13919031               -0.96065506               -0.42256531                1.41325366               -0.15337822               17.38409109                3.79425509
               9.50019628                7.74042409               16.22051856                0.41526368               -0.41322927               -0.35957756                1.13913677               -0.03800849                3.15355469                2.01938958
              10.49810771                7.66711571               16.05983537                0.91237920               -0.08052803               -0.08874851                0.27299922               -0.00286994                0.04750594                0.58846142
              11.49858572                7.59470694               15.89845454                1.00000000                0.04780055                0.19443101               -0.60132746               -0.04441777                0.01601809               -0.97591882
               1.60389216                9.36968083               16.06865388                1.00000000                0.06525270               -0.06249705                0.19207995               -0.04085511                0.01770050                0.93569345
               2.60454469                9.29309742               15.89249193                0.58199702                0.18471356                0.19215167               -0.63114892                0.00299894                0.23966883               -0.62372327
               3.60758643                9.21595753               15.72071957                0.01298861                0.48377415                0.43220505               -1.43436925               -0.12044965               15.32214271               -1.77760344
               4.61422017                9.13541729               15.84619122                0.00010000                0.39269576                0.19913715               -0.75256500               -0.01135228               29.97974290               -0.49968917
               5.61544035                9.05448120               15.96920179                0.00010000               -0.21320476                0.16539823               -0.12904455                0.09027901               29.89218494                0.09444039
               6.60995608                8.97415028               16.09509753                0.00010000               -0.89585160                0.13850423                0.47615319                0.03566172               30.35350867                0.59048038
               7.59752332                8.89283307               16.23011410                0.00010000               -1.50600520                0.07068056                1.10681637               -0.23507263               31.45959325                1.21601255
               8.57983597                8.81088543               16.38162434                0.14900451               -1.24850455               -0.39683668                1.81441285               -0.43372757               19.21094899                2.48055014
               9.57255323                8.73629987               16.27525807                0.43047824               -0.51591070               -0.44982730                1.47952240               -0.15483307                3.29970378                1.43329616
              10.56951776                8.66573105               16.10916439                0.93575922               -0.17094407               -0.18619953                0.58749718               -0.00974513                0.14904758                0.54473921
              11.56913435                8.59623840               15.93979621                0.99987763               -0.03834149                0.11224701               -0.33027948               -0.04609803               -0.01133509               -0.80880899
               1.67880035               10.36934792               16.03096426                1.00000000                0.13870430               -0.03329046               -0.03142888                0.09859907                0.49468156                0.76524675
               2.68018740               10.29542572               15.85061948                0.78399599                0.25804806                0.23282984               -0.87519627                0.13069422                1.00475483               -0.54856006
               3.68396132               10.22067639               15.68043085                0.50345819                0.73315852                0.47188615               -1.66646421               -0.29727276               17.29583402               -1.28453566
               4.69485057               10.13673051               15.82590322                0.43808417                0.63511666                0.13132192               -0.86660698               -0.16515095               32.63052579               -0.25657816
               5.69666365               10.05611259               15.96266639                0.43131299               -0.18648904                0.16313889               -0.15603299                0.06912164               32.26405113                0.07364006
               6.69112079                9.97566634               16.10215928                0.45171199               -0.93454369                0.15160613                0.53629770                0.04923364               32.78485651                0.35019885
               7.67797277                9.89476784               16.25182073                0.49698333               -1.84449203                0.19347760                1.25941623               -0.36221235               34.18417522                0.70748779
               8.65423095                9.80752318               16.42323027                0.57784246               -1.78593877               -0.33622536                2.08539821               -0.72751769               21.23408239                1.52316676
               9.64225400                9.73142755               16.32028837                0.72038723               -0.81283343               -0.48723235                1.76486489               -0.23649583                4.39409712                0.94419278
              10.63797428                9.66339172               16.15728220                0.97585955               -0.28024697               -0.23393350                0.89330990                0.12186873                0.88092983                0.48463614
              11.63664906                9.59695188               15.98418448                0.99999143               -0.13252174                0.07134824               -0.04368402                0.10748816                0.37949551               -0.64924442
               0.92961901                0.44809621               17.38784221                1.00000000               -0.54679918               -0.60906452                2.11461600               -0.12248139               -0.92444122                0.97649673
               1.92415101                0.34434552               17.27862185                1.00000000               -0.45489540               -0.44758546                1.60350756               -0.08157193               -0.94054419               -0.03673327
               2.92052110                0.24032752               17.16908481                0.70862028               -0.18544003               -0.30658218                1.08931608                0.04822498               -0.63317132               -0.88221684
               3.92044221                0.13896819               17.06612765                0.52334753                0.21175779               -0.17171741                0.58655221                0.21507029                1.14456280               -0.09640002
               4.92475625                0.04578407               16.99278523                0.45479616                0.44561805               -0.05799958                0.11773361                0.19458893                4.03155709               -0.08813670
               5.92935458               -0.03778122               16.94909297                0.46194526                0.25588268                0.06914492               -0.34186023                0.08036333                5.35732716                0.00198830
               6.92987391               -0.12000028               16.90355042                0.53418974                0.00952081                0.21292873               -0.79540194                0.13987002                3.85474670                0.07597757
               7.92954499               -0.20913932               16.82957019                0.68634211                0.11003306                0.35780557               -1.27484763                0.14446339                1.29046684                0.12511418
               8.93207457               -0.30492678               16.73180936                0.95636524                0.41098397                0.50896447               -1.79254156                0.04007341               -0.35705143                0.42861570
               9.93776467               -0.40322723               16.62422950                1.00000000                0.66746772                0.66158407               -2.33829382               -0.06992671               -0.77512939                0.28112182
              10.94542392               -0.50142654               16.51784548                1.00000000                0.76592528                0.82134364               -2.86043176               -0.13043915               -0.70652766               -0.71956694
               1.03214488                1.44200556               17.34988875                1.00000000               -0.49252398               -0.57837022                1.89874528               -0.04361080               -0.05348964                1.25216586
               2.02721964                1.33986967               17.23995022                1.00000000               -0.42264351               -0.41179822                1.38113984               -0.00689515                0.01784080               -0.08627852
               3.02369201                1.23726169               17.13140195                0.26884938               -0.36775016               -0.26489256                0.87558496                0.14817231                1.25153009               -1.28477689
               4.01986464                1.13725102               17.04612426                0.00342203               -0.43075797               -0.14628709                0.45597697                0.57873822                3.57423466               -1.55199224
               5.01507685                1.04520408               16.98373330                0.00767914               -0.34071267                0.21689257                0.04073916                1.11546287                6.33232730                0.48680469
               6.01305039                0.96291022               16.95292389                0.01076563                0.09374029                0.11422056               -0.34445157                1.36567950                7.81148818                0.45010426
               7.01695166                0.88212901               16.92004346                0.01199970                0.52012437                0.01494203               -0.71862505                1.13013927                6.16786575                0.37744336
               8.02345287                0.79443873               16.85741451                0.23305273                0.62837981                0.34621160               -1.12487872                0.58453979                3.51793282                1.65692910
               9.02951925                0.70016287               16.77260567                0.63998954                0.59312065                0.47178065               -1.56952921                0.19366824                1.65250077                1.30489094
              10.03531529                0.60338861               16.67307591                1.00000000                0.63997959                0.61521668               -2.05063891                0.01982469                0.55112833                0.62928333
              11.04231885                0.50678689               16.56615520                1.00000000                0.70035605                0.78100135               -2.58404438               -0.05169579                0.18771318               -0.76798823
               1.13301859                2.43652881               17.31743361                1.00000000               -0.42616061               -0.51906578                1.69920408               -0.04345037                0.16630827                1.48319472
               2.12875698                2.33610956               17.20027595                0.78763128               -0.34576985               -0.34230987                1.15120171               -0.00787148                0.29217914               -0.35339764
               3.12610319                2.23502966               17.08560645                0.10408273               -0.23411929               -0.17497851                0.63066988                0.14676591                1.71904913               -2.17681390
               4.12407460                2.13604245               16.99695637                0.00010000               -0.23484425                0.10388629                0.22359464                1.02046887                6.90707727               -1.23540226
               5.12140631                2.05012192               16.98596614                0.00010000               -0.21656801                0.33856939                0.02895135                1.83633980               10.29124801                0.65595163
               6.11974324                1.96450319               16.96539895                0.00010000               -0.02290594                0.13690133               -0.24799244                1.97162573                9.67761835                1.04677812
               7.12094819                1.88029856               16.94229610                0.00010000                0.17293444               -0.07164765               -0.53504914                1.90129291                9.35014887                1.41811947
               8.12320192                1.79778491               16.91569940                0.08520712                0.30249322                0.11636571               -0.82302729                1.14815662                6.22931240                3.01237157
               9.12699805                1.70450884               16.83079413                0.34511480                0.41676061                0.38324381               -1.22947128                0.23762082                2.46025374                3.36381374
              10.13153714                1.60907711               16.72875309                0.84904521                0.52976967                0.52776620               -1.74025561                0.02254390                0.94264646                1.24707394
              11.13759344                1.51419349               16.61332434                1.00000000                0.60563078                0.70549233               -2.31528231               -0.04994459                0.27889316               -0.69006528
               1.23211437                3.43162425               17.28408312                1.00000000               -0.35530199               -0.45878064                1.49131796               -0.04495111                0.04236531                1.37031599
               2.22856135                3.33302347               17.15624908                0.73062127               -0.27099692               -0.27119672                0.90015496               -0.00761467                0.12462359               -0.58750165
               3.22669443                3.23376212               17.03001695                0.07683741               -0.16897978               -0.08316329                0.32281744                0.28262001                4.17647569               -2.61783166
               4.22518176                3.13932875               16.98318087                0.00010000               -0.16757608                0.27900151                0.21171080                0.96561754               10.40554685                0.18401338
               5.22334291                3.05197546               16.98191838                0.00010000               -0.14377462                0.15768212                0.01577964                1.42873172               12.71776071                0.48486874
               6.22230626                2.96564825               16.98184448                0.00010000               -0.08235586                0.08932362               -0.15267874                1.54509984               12.62871373                1.37758138
               7.22169580                2.88069605               16.97934835                0.00010000               -0.00502685                0.01700589               -0.33769363                1.51128399               12.18546398                2.40163554
               8.22220573                2.79676605               16.97084633                0.08927780                0.06418382               -0.05466222               -0.55469309                1.08880291                9.39330234                3.56793764
               9.22297947                2.70782774               16.91276334                0.33502123                0.19378932                0.25132032               -0.75625706                0.34055583                3.67711171                3.96570998
              10.22608151                2.61394394               16.78988028                0.79217221                0.40538622                0.43568672               -1.37912429                0.00768690                0.24999360                1.37933028
              11.23108720                2.52089674               16.66295349                1.00000000                0.50056820                0.63307413               -2.03106603               -0.05055617                0.05245545               -0.58015774
               1.32932113                4.42735319               17.24933609                1.00000000               -0.28543134               -0.39283151                1.27572807               -0.04477183                0.02119312                1.28106638
               2.32646681                4.33068562               17.11185949                0.70071835               -0.19354062               -0.19593431                0.64574280               -0.00710394                0.07231683               -0.61337413
               3.32545031                4.23336640               16.97535887                0.06442005               -0.06466035                0.00246944                0.02359296                0.32360219                6.35118466               -2.52911261
               4.32517361                4.14162248               16.96342554                0.00010000               -0.08944404                0.20144400                0.07533207                0.88671720               14.04395798               -0.31313753
               5.32366143                4.05327557               16.98152338                0.00010000               -0.16244810                0.12460883                0.01133579                1.15241343               15.60997435                0.62730336
               6.32192464                3.96628966               17.00168860                0.00010000               -0.18026803                0.04978448               -0.05196888                1.20967351               15.67259965                1.61954087
               7.32005607                3.88063868               17.02174761                0.00010000               -0.20391764               -0.02108733               -0.12697078                1.20741774               15.59282145                2.82542822
               8.31784629                3.79669166               17.04083635                0.09888639               -0.17123986               -0.02950875               -0.22817579                0.86611045               11.72264737                4.41246490
               9.31663128                3.70953524               16.98370225                0.34950285                0.03877927                0.10296283               -0.34351177                0.30213576                4.00034504                3.07289771
              10.31862188                3.61779084               16.84828203                0.80954067                0.30227188                0.32934459               -1.03542198                0.00576237                0.05030607                1.09949615
              11.32267671                3.52685497               16.71191752                1.00000000                0.40548362                0.55396230               -1.74027352               -0.04685409                0.00695027               -0.69512116
               1.42455408                5.42376762               17.21417500                1.00000000               -0.21480103               -0.32374277                1.05752077               -0.04473208                0.02036750                1.24756464
               2.42240607                5.32910478               17.06727674                0.67326600               -0.11622299               -0.11977620                0.38883905               -0.00553121                0.07853752               -0.63138561
               3.42222962                5.23381151               16.92149323                0.05344141                0.03004333                0.08677089               -0.27267002                0.28883212                8.38017145               -2.48664526
               4.42300693                5.14335763               16.94059774                0.00010000               -0.02528071                0.17855674               -0.08405130                0.71086362               17.63725771               -0.53777303
               5.42172400                5.05446764               16.98099028                0.00010000               -0.19351548                0.12264938               -0.01119535                0.85449576               18.75937387                0.56295657
               6.41913662                4.96664394               17.02362606                0.00010000               -0.31409286                0.03172041                0.05435233                0.88616547               18.91074715                1.71566817
               7.41544215                4.88027431               17.06799698                0.00010000               -0.42526267               -0.05722863                0.10500539                0.88305122               19.03437233                3.03224528
               8.41063137                4.79617587               17.11379291                0.10850198               -0.37595687               -0.10712847                0.12827819                0.62221093               13.53373375                4.55561461
               9.40792301                4.70988700               17.04847702                0.36464841               -0.08771676               -0.02688153                0.04329788                0.22091341                4.01209349                2.61640459
              10.40887704                4.62053083               16.90391394                0.83086571                0.20494253                0.22034350               -0.70082732                0.00473012                0.03149453                0.86587788
              11.41202186                4.53197599               16.75881891                1.00000000                0.31448241                0.46821749               -1.45446130               -0.04513967                0.00848346               -0.86172969
               1.51775216                6.42087834               17.17873912                1.00000000               -0.14398631               -0.25440077                0.83811320               -0.04417262                0.02291924                1.22010463
               2.51631230                6.32829010               17.02247468                0.64695884               -0.03890222               -0.04282433                0.13086767               -0.00329058                0.09507760               -0.65328808
               3.51697411                6.23510182               16.86760335                0.04296775                0.12112278                0.17230129               -0.56918428                0.21406178               10.37102143               -2.49291799
               4.51873475                6.14519362               16.91683010                0.00010000                0.02454595                0.20719801               -0.25819585                0.49932851               21.19616999               -0.66980195
               5.51746503                6.05572855               16.97978824                0.00010000               -0.24467310                0.14265517               -0.04031510                0.55299777               21.97220970                0.46132131
               6.51384129                5.96692407               17.04594999                0.00010000               -0.46399322                0.03164989                0.16405082                0.54439868               22.22619782                1.66296989
               7.50818517                5.87949410               17.11526339                0.00010000               -0.65817363               -0.10072789                0.35403961                0.53125796               22.48666114                3.01303424
               8.50067782                5.79454909               17.18761197                0.11803785               -0.57452917               -0.22712326                0.52080230                0.34250971               15.14989288                4.55764044
               9.49669459                5.70899761               17.11078721                0.37967447               -0.20251619               -0.14748830                0.41884382                0.12569014                3.86791925                2.40755645
              10.49662749                5.62219771               16.95770211                0.85231304                0.10945092                0.11466710               -0.37316449                0.00273453                0.03365352                0.71597145
              11.49888360                5.53621932               16.80407426                1.00000000                0.22561111                0.37987446               -1.17313238               -0.04435640                0.00997686               -0.97585700
               1.60884710                7.41867960               17.14301139                1.00000000               -0.07303280               -0.18640574                0.61862831               -0.04329810                0.02460816                1.18839842
               2.60811678                7.32824830               16.97739577                0.62162444                0.03801153                0.03485338               -0.12688469               -0.00032665                0.11401914               -0.67854610
               3.60960733                7.23725754               16.81351765                0.03277064                0.21249957                0.26035253               -0.86485940                0.11522630               12.29614731               -2.50486430
               4.61236677                7.14750159               16.89151687                0.00010000                0.07230868                0.25909515               -0.43563174                0.26889872               24.70710925               -0.81034360
               5.61105351                7.05732074               16.97741644                0.00010000               -0.30538599                0.18151199               -0.07177743                0.26354538               25.20927456                0.32914434
               6.60625905                6.96727694               17.06720257                0.00010000               -0.63056143                0.05505269                0.27480990                0.20330420               25.55791074                1.47269880
               7.59844228                6.87825975               17.16174636                0.00010000               -0.91404950               -0.13009734                0.61342231                0.13302457               25.98346302                2.79907631
               8.58797806                6.79163341               17.26144286                0.12753009               -0.78270423               -0.34826799                0.94330847                0.02420485               16.72128893                4.44894031
               9.58278820                6.70693723               17.17176965                0.39457138               -0.31340185               -0.26166197                0.78602690                0.02804343                3.65007897                2.28608188
              10.58171002                6.62282417               17.01036378                0.87392542                0.01516615                0.01202863               -0.05109230               -0.00011271                0.03725921                0.63466978
              11.58309152                6.53957348               16.84836089                1.00000000                0.13814975                0.29157152               -0.89595859               -0.04419951                0.01082039               -1.02560095
               1.69774881                8.41715022               17.10692298                1.00000000               -0.00209848               -0.12143114                0.39980366               -0.04212849                0.03115808                1.15619391
               2.69772783                8.32898717               16.93202782                0.59728135                0.11382692                0.11407500               -0.38331969                0.00250418                0.14159568               -0.71565631
               3.70002535                8.24030887               16.75929053                0.02273463                0.31608462                0.35054559               -1.15758959               -0.00780473               14.16180260               -2.44235433
               4.70404952                8.15037552               16.86476853                0.00010000                0.14676184                0.29501735               -0.60461781                0.03379677               28.15193994               -0.82470739
               5.70296059                8.05935879               16.97342055                0.00010000               -0.35405750                0.20691729               -0.10298051                0.04222860               28.39987138                0.19927340
               6.69696837                7.96802512               17.08580549                0.00010000               -0.82356964                0.12301444                0.37936183               -0.06242603               28.82904325                1.12718270
               7.68648919                7.87689216               17.20513998                0.00010000               -1.22419710               -0.07876487                0.86738982               -0.27510582               29.53697161                2.26867249
               8.67248443                7.78758373               17.33372731                0.13710338               -1.02122532               -0.42942096                1.37567578               -0.35738688               18.39449913                4.03269198
               9.66606469                7.70376437               17.23194625                0.40953002               -0.42477155               -0.36862497                1.14559089               -0.07848831                3.47153672                2.13423189
              10.66398900                7.62243828               17.06253448                0.89613898               -0.07818425               -0.08830229                0.26669379               -0.00487939                0.05220039                0.62603644
              11.66450100                7.54205075               16.89233483                1.00000000                0.05120067                0.20505591               -0.62200108               -0.04448975                0.01621405               -1.02540204
               1.78433065                9.41625098               17.07052757                1.00000000                0.06775664               -0.06045362                0.18328969               -0.04089994                0.01513365                0.96617287
               2.78500821                9.33052980               16.88614569                0.57393006                0.18661187                0.19486374               -0.63888802                0.00365338                0.24757964               -0.65993212
               3.78806289                9.24426845               16.70636217                0.01257918                0.44922811                0.43517792               -1.43930362               -0.17942290               16.08412518               -1.85761625
               4.79399278                9.15340193               16.83867680                0.00010000                0.30927964                0.22815103               -0.75365499               -0.11571049               31.47710126               -0.52407890
               5.79424848                9.06145909               16.96791641                0.00010000               -0.32578066                0.20768938               -0.13208551               -0.03979854               31.37458364                0.09846146
               6.78747716                8.96973723               17.09983306                0.00010000               -1.04334639                0.19264271                0.46637549               -0.12979091               31.85945131                0.62315782
               7.77338155                8.87668445               17.24110165                0.00010000               -1.67595293                0.13337320                1.08572664               -0.45404693               33.03327936                1.28982403
               8.75395811                8.78304499               17.39960991                0.14696625               -1.35088356               -0.36570224                1.77753654               -0.62078169               20.32926479                2.63741089
               9.74636388                8.69956473               17.29011214                0.42483006               -0.53160240               -0.45519953                1.49001981               -0.20417335                3.61819828                1.51237261
              10.74332606                8.62105813               17.11502183                0.91958549               -0.16935431               -0.18565598                0.58349131               -0.01208953                0.16156866                0.57700407
              11.74297679                8.54367459               16.93639055                0.99989960               -0.03492636                0.12043330               -0.35052648               -0.04615881               -0.01202453               -0.85229840
               1.86837318               10.41594115               17.03060518                1.00000000                0.14102421               -0.03098306               -0.03984281                0.09858246                0.50778937                0.79198460
               2.86978342               10.33288444               16.84183274                0.78019341                0.25957863                0.23546444               -0.88303674                0.13108481                1.04476110               -0.57859836
               3.87356476               10.24901243               16.66375211                0.50332935                0.73806225                0.47439755               -1.67152571               -0.34710804               18.15956812               -1.33862442
               4.88454467               10.15493854               16.81725225                0.43868952                0.61322826                0.15366078               -0.86710013               -0.21980294               34.28861560               -0.27391935
               5.88582932               10.06351258               16.96111372                0.43154033               -0.26987396                0.20534910               -0.15876914                0.00505595               33.89576026                0.07212985
               6.87914719                9.97187798               17.10749469                0.45155583               -1.08644115                0.21407476                0.52600527               -0.03064531               34.44240155                0.36476119
               7.86410050                9.87955962               17.26432846                0.49651607               -2.09793406                0.28751705                1.23701349               -0.50851965               35.92200737                0.74539073
               8.83718851                9.78026969               17.44391783                0.57682778               -2.00662081               -0.27752967                2.04691592               -0.92192154               22.47372384                1.62045528
               9.82396808                9.69466038               17.33800083                0.71757068               -0.87755819               -0.49043530                1.77619257               -0.31680611                4.77478006                0.99573276
              10.81963735                9.61872516               17.16620415                0.96774652               -0.28115967               -0.23329616                0.89037273                0.12108047                0.93774891                0.51252170
              11.81834489                9.54445941               16.98364562                0.99998345               -0.12924577                0.07848194               -0.06390967                0.11023448                0.40298506               -0.68531510
               1.03197314                0.49708796               18.40896481                1.00000000               -0.54729692               -0.60887587                2.11084986               -0.11966346               -0.96049484                1.01526975
               2.02650017                0.38373665               18.29464949                1.00000000               -0.45836853               -0.44759202                1.60209976               -0.07836767               -0.97935927               -0.04523913
               3.02280577                0.27008908               18.17997521                0.70646563               -0.20605186               -0.30320751                1.08880515                0.03423697               -0.66862931               -0.91760476
               4.02237913                0.15867598               18.07200813                0.52323617                0.15536365               -0.16965705                0.58987240                0.17613521                1.12736171               -0.09530424
               5.02591304                0.05433774               17.99396697                0.45508389                0.37463417               -0.04809982                0.11766080                0.15952957                4.02934140               -0.08942581
               6.02987182               -0.04156115               17.94563049                0.46197960                0.23113457                0.08390378               -0.35140016                0.06121802                5.36106202                0.00518816
               7.03053573               -0.13608641               17.89549750                0.53345370                0.04150158                0.22572226               -0.81551547                0.11214211                3.85444191                0.08215716
               8.03070185               -0.23644420               17.81669752                0.68409640                0.15178800                0.36735493               -1.29966746                0.11675007                1.26586172                0.13286353
               9.03357149               -0.34246940               17.71375673                0.95105818                0.43473104                0.51551351               -1.81780270                0.02675770               -0.41085630                0.44491912
              10.03939647               -0.45059505               17.60071659                1.00000000                0.67865713                0.66812022               -2.36414630               -0.06918165               -0.82970882                0.30332942
              11.04714463               -0.55856090               17.48912210                1.00000000                0.77481669                0.83000421               -2.88419390               -0.12953343               -0.74849389               -0.76976850
               1.14412782                1.49099920               18.36885654                1.00000000               -0.49118849               -0.57824036                1.89475489               -0.04188314               -0.05607646                1.29811941
               2.13921593                1.37926073               18.25374511                1.00000000               -0.42246739               -0.41213040                1.38267543               -0.00422884                0.02259309               -0.10099584
               3.13567847                1.26705700               18.14018884                0.26550834               -0.35998906               -0.26217330                0.88749372                0.13068236                1.30339930               -1.34404408
               4.13201615                1.15697941               18.05071869                0.00361893               -0.40257846               -0.14316702                0.46297763                0.50669778                3.67061773               -1.60235250
               5.12762690                1.05385674               17.98415533                0.00795952               -0.31600407                0.17846441                0.04382938                0.96525631                6.45209518                0.51567073
               6.12569607                0.95927788               17.94943045                0.01115122                0.07358872                0.10275048               -0.35441614                1.18416964                7.96117166                0.50145626
               7.12909868                0.86617081               17.91274192                0.01117252                0.46823842                0.02723616               -0.74164851                0.98269488                6.31491384                0.43791341
               8.13506084                0.76722935               17.84602486                0.23014678                0.59079082                0.34560256               -1.15287365                0.50241982                3.63285897                1.74080156
               9.14091449                0.66268574               17.75677089                0.63209613                0.58447803                0.47490451               -1.59731119                0.16744541                1.73074609                1.38120852
              10.14675040                0.55608615               17.65245099                1.00000000                0.64503289                0.62028193               -2.07429236                0.01736409                0.58459376                0.66263490
              11.15381515                0.44973914               17.54019947                1.00000000                0.70647498                0.79137451               -2.60716940               -0.05175975                0.19410145               -0.82187444
               1.25461243                2.48552316               18.33440696                1.00000000               -0.42546367               -0.51841372                1.69518259               -0.04274126                0.17030551                1.53062063
               2.25035779                2.37549404               18.21173905                0.77511807               -0.34558481               -0.34218631                1.14639643               -0.00477852                0.30990782               -0.38314775
               3.24770073                2.26484561               18.09184400                0.10199836               -0.23222217               -0.17429304                0.62582199                0.12957700                1.81230762               -2.28577156
               4.24571335                2.15581264               17.99924357                0.00010000               -0.23905216                0.07764300                0.23373195                0.86570084                7.15995881               -1.22724437
               5.24291969                2.05790703               17.98626630                0.00010000               -0.22361045                0.27369383                0.03045304                1.56417600               10.61556291                0.70614992
               6.24124114                1.96049386               17.96288364                0.00010000               -0.03407625                0.09769665               -0.25600562                1.69179833                9.96816293                1.14069615
               7.24223817                1.86445831               17.93686064                0.00010000                0.14970881               -0.07888301               -0.55290620                1.65448416                9.64531991                1.53803020
               8.24423532                1.77046785               17.90732578                0.08366457                0.29127151                0.09524077               -0.85182492                1.00810075                6.47924892                3.15481524
               9.24806360                1.66702869               17.81838280                0.34030989                0.42275128                0.36345759               -1.25285484                0.19608372                2.60231200                3.56734393
              10.25269034                1.56181059               17.71124304                0.83403643                0.53699328                0.52698756               -1.76183725                0.01227553                0.99932210                1.31748107
              11.25880346                1.45726659               17.59006103                1.00000000                0.61131187                0.72213322               -2.33747037               -0.05462081                0.30293881               -0.73976670
               1.36333123                3.48063093               18.29896450                1.00000000               -0.35333200               -0.45762466                1.48573709               -0.04403146                0.04379411                1.40820732
               2.35979791                3.37241700               18.16521712                0.71915820               -0.26899074               -0.26978712                0.89360153               -0.00451881                0.13309545               -0.62852756
               3.35795141                3.26357114               18.03322080                0.07528238               -0.17645762               -0.08210845                0.31712343                0.23712404                4.42866330               -2.74909805
               4.35626876                3.15853227               17.98535893                0.00010000               -0.18611041                0.22708336                0.22397449                0.78819678               10.85021980                0.22685205
               5.35422920                3.05933062               17.98208726                0.00010000               -0.16439990                0.11828882                0.01675555                1.18309419               13.13958144                0.53268587
               6.35298076                2.96123182               17.98028632                0.00010000               -0.10074194                0.05136694               -0.16053429                1.29412607               13.06882581                1.46696472
               7.35221437                2.86459315               17.97589314                0.00010000               -0.01641413               -0.01539006               -0.35502900                1.27352448               12.61371810                2.52866571
               8.35265247                2.76913416               17.96516906                0.08764943                0.06395314               -0.09484368               -0.58243415                0.93486710                9.83061049                3.71932906
               9.35349343                2.66995489               17.90513828                0.33036743                0.20527686                0.21347856               -0.76907225                0.29303320                3.92117078                4.19822904
              10.35675801                2.56662590               17.77600542                0.77804096                0.41586522                0.42991463               -1.39593055                0.00418606                0.26677552                1.46414472
              11.36181073                2.46418181               17.64253720                1.00000000                0.50527212                0.65476680               -2.05212317               -0.05253967                0.05476144               -0.61671562
               1.47015966                4.47637066               18.26205947                1.00000000               -0.28324547               -0.39183855                1.26935754               -0.04397029                0.02158494                1.31399414
               2.46732720                4.37009830               18.11827962                0.68954924               -0.19158558               -0.19364492                0.63840096               -0.00466751                0.07668426               -0.65771806
               3.46632795                4.26320344               17.97556093                0.06295336               -0.08046971                0.00603198                0.01630055                0.25084573                6.69963391               -2.65493078
               4.46571781                4.16035430               17.96420791                0.00010000               -0.12229610                0.16520920                0.07978056                0.69110294               14.67767477               -0.35031091
               5.46388202                4.06027280               17.98163913                0.00010000               -0.19283393                0.09367360                0.01002115                0.91020503               16.19454412                0.66505764
               6.46186113                3.96152119               18.00113337                0.00010000               -0.20378583                0.01702637               -0.06130366                0.95904602               16.26527839                1.70890828
               7.45980631                3.86415051               18.02039681                0.00010000               -0.21451055               -0.06003742               -0.14568245                0.95837772               16.18106143                2.96413777
               8.45757092                3.76857098               18.03842284                0.09702542               -0.16868946               -0.07980878               -0.25724819                0.69734079               12.31394104                4.60051914
               9.45643252                3.67129826               17.98022741                0.34433925                0.04881118                0.07094461               -0.35169152                0.25461490                4.30691576                3.25367980
              10.45854714                3.57040888               17.83785830                0.79464463                0.31041717                0.32410485               -1.04923922                0.00488398                0.05783113                1.16772869
              11.46264086                3.47036193               17.69441361                1.00000000                0.40937188                0.57459988               -1.76014192               -0.04660522                0.00798679               -0.72946145
               1.57499655                5.47279416               18.22471340                1.00000000               -0.21247765               -0.32286022                1.05065247               -0.04416005                0.02028255                1.27865937
               2.57287178                5.36854410               18.07112677                0.66245116               -0.11421170               -0.11694947                0.38097993               -0.00342934                0.08209916               -0.67711358
               3.57271232                5.26369178               17.91873192                0.05208734                0.00748385                0.09142202               -0.28054803                0.20019760                8.81453685               -2.60974025
               4.57302145                5.16183645               17.93975839                0.00010000               -0.07229517                0.16170317               -0.08550300                0.49966488               18.44818869               -0.59490951
               5.57126642                5.06120409               17.98086629                0.00010000               -0.23687399                0.10388813               -0.01597827                0.60779403               19.52028482                0.58441455
               6.56828397                4.96157234               18.02412459                0.00010000               -0.34671386                0.00610499                0.04250952                0.62287537               19.67550824                1.80453265
               7.56433214                4.86339240               18.06895439                0.00010000               -0.44162183               -0.09382689                0.08329922                0.61206625               19.79458612                3.18404872
               8.55945154                4.76753799               18.11492339                0.10646069               -0.37921586               -0.15546599                0.09441158                0.43937475               14.25411967                4.76875185
               9.55674782                4.67137378               18.04888606                0.35909305               -0.08297552               -0.05122936                0.03832627                0.17312512                4.35890407                2.77318845
              10.55779203                4.57310800               17.89684561                0.81525196                0.21123592                0.21713416               -0.71262433                0.00372214                0.03688452                0.92363433
              11.56097254                4.47567380               17.74417307                1.00000000                0.31805132                0.48602029               -1.47409688               -0.04486558                0.00886087               -0.90036472
               1.67777657                6.46991346               18.18708173                1.00000000               -0.14155770               -0.25352367                0.83092009               -0.04378696                0.02239657                1.25070272
               2.67636099                6.36775931               18.02374426                0.63663687               -0.03685108               -0.03975977                0.12270687               -0.00148110                0.09829070               -0.69918221
               3.67703955                6.26503188               17.86187733                0.04177935                0.09189030                0.17738681               -0.57725239                0.11742313               10.88491045               -2.61503607
               4.67819880                6.16358837               17.91423465                0.00010000               -0.03687680                0.20706602               -0.26303044                0.27925343               22.18126619               -0.73584575
               5.67630201                6.06235057               17.97936185                0.00010000               -0.30342356                0.13990891               -0.04785782                0.29905823               22.91802014                0.47541463
               6.67213033                5.96164329               18.04753499                0.00010000               -0.51100115                0.01785534                0.14951492                0.26504367               23.17467265                1.74935419
               7.66608199                5.86227397               18.11869615                0.00010000               -0.68766461               -0.12920082                0.32870289                0.23677167               23.43444249                3.17282038
               8.65837704                5.76546166               18.19264000                0.11588696               -0.58784907               -0.26688949                0.48082590                0.14620291               15.98391131                4.79747529
               9.65432501                5.67027367               18.11496734                0.37387934               -0.20277374               -0.16598778                0.41688648                0.07959694                4.23137582                2.55106203
              10.65432156                5.57475157               17.95391874                0.83624947                0.11434683                0.11295243               -0.38330356                0.00142921                0.03800602                0.76573949
              11.65661194                5.48008233               17.79224087                1.00000000                0.22903835                0.39516932               -1.19283340               -0.04418275                0.00996708               -1.01878271
               1.77842911                7.46772368               18.14915802                1.00000000               -0.07053865               -0.18539484                0.61121356               -0.04310035                0.02379297                1.21934371
               2.77772373                7.36774891               17.97608724                0.61192638                0.04013026                0.03801701               -0.13530226                0.00116633                0.11721369               -0.72344550
               3.77923172                7.26723952               17.80483558                0.03179003                0.17820553                0.26544010               -0.87303571                0.01874157               12.88812655               -2.62453823
               4.78128784                7.16597777               17.88714249                0.00010000               -0.00195330                0.27526591               -0.44184445                0.05370013               25.86499383               -0.87385021
               5.77919265                7.06400227               17.97666886                0.00010000               -0.38131979                0.19697773               -0.08113024                0.01005990               26.34222471                0.33944221
               6.77366144                6.96192945               18.06988709                0.00010000               -0.69717223                0.05830648                0.25811320               -0.08516775               26.69678581                1.55191723
               7.76524921                6.86080838               18.16776067                0.00010000               -0.96427761               -0.14507891                0.58502654               -0.17921282               27.13339996                2.95623204
               8.75437589                6.76220020               18.27067367                0.12533748               -0.80996788               -0.37574773                0.89827346               -0.18376920               17.65853911                4.70455899
               9.74904985                6.66805402               18.17963905                0.38867350               -0.31819691               -0.27537162                0.78730881               -0.01691559                4.01078218                2.41963033
              10.74801195                6.57536705               18.00981043                0.85764011                0.01887495                0.01134112               -0.05952045               -0.00176280                0.04138671                0.67839476
              11.74942735                6.48357719               17.83929956                1.00000000                0.14153979                0.30434558               -0.91564898               -0.04411798                0.01066224               -1.07244676
               1.87686412                8.46620556               18.11088049                1.00000000                0.00043664               -0.12008039                0.39220135               -0.04211640                0.03042519                1.18861242
               2.87686849                8.36851965               17.92815389                0.58828710                0.11606971                0.11724802               -0.39206426                0.00365436                0.14564279               -0.75924700
               3.87918551                8.27034069               17.74768093                0.02198953                0.28207827                0.35520515               -1.16602511               -0.09599274               14.83533418               -2.55450553
               4.88251005                8.16909369               17.85870247                0.00010000                0.06830085                0.32371100               -0.61157477               -0.15652232               29.48190026               -0.87480582
               5.88055153                8.06629012               17.97235736                0.00010000               -0.44445974                0.23774945               -0.11346438               -0.18505766               29.71401326                0.20721503
               6.87362086                7.96280942               18.08953057                0.00010000               -0.91622727                0.14973914                0.36120661               -0.33096557               30.15757766                1.18950362
               7.86222699                7.85937239               18.21368729                0.00010000               -1.30824225               -0.06836603                0.83715415               -0.58499391               30.89865886                2.40071534
               8.84745601                7.75794670               18.34727231                0.13490856               -1.07035706               -0.43785296                1.32811158               -0.57856270               19.43340543                4.27607581
               9.84081985                7.66476624               18.24343038                0.40361205               -0.43464371               -0.37806427                1.15037273               -0.12564456                3.82121108                2.25554827
              10.83876314                7.57497839               18.06516925                0.87975970               -0.07552709               -0.08827921                0.26007972               -0.00691171                0.05777359                0.66650959
              11.83930930                7.48616924               17.88601452                1.00000000                0.05461652                0.21522269               -0.64155489               -0.04446169                0.01651820               -1.07550137
               1.97295861                9.46532208               18.07231967                1.00000000                0.07030771               -0.05865820                0.17560202               -0.04097528                0.01252717                0.99639568
               2.97366169                9.37009387               17.87971417                0.56562153                0.18896062                0.19800037               -0.64811511                0.00443741                0.25635095               -0.69701788
               3.97673783                9.27434362               17.69193349                0.01205323                0.42731331                0.43916656               -1.44829252               -0.25471106               16.84836566               -1.93869854
               4.98220796                9.17245199               17.83111812                0.00010000                0.25189687                0.25037686               -0.76128429               -0.24175730               32.97646697               -0.54905111
               5.98177576                9.06875726               17.96656008                0.00010000               -0.41240481                0.24352197               -0.14329031               -0.18714394               32.85661602                0.10275437
               6.97395986                8.96492423               18.10442503                0.00010000               -1.16818553                0.24144394                0.44723458               -0.30914880               33.36374228                0.65713707
               7.95841205                8.85944106               18.25182864                0.00010000               -1.82745369                0.19248225                1.05439628               -0.68591483               34.60479009                1.36657504
               8.93741079                8.75344314               18.41717507                0.14476376               -1.44533889               -0.33151243                1.72995561               -0.81856411               21.48049327                2.79922563
               9.92950527                8.66049274               18.30505847                0.41887764               -0.54700352               -0.46007156                1.49806703               -0.25991216                3.97099265                1.59635392
              10.92647072                8.57360147               18.12083422                0.90305260               -0.16744353               -0.18504420                0.57857855               -0.01448832                0.17497383                0.61162205
              11.92615640                8.48788164               17.93278568                0.99991826               -0.03143122                0.12831011               -0.37008923               -0.04615616               -0.01272790               -0.89650731
               2.06650104               10.46503240               18.03016740                1.00000000                0.14346556               -0.02896803               -0.04732390                0.09896801                0.52065528                0.81873791
               3.06793569               10.37247965               17.83295874                0.77624095                0.26160664                0.23857879               -0.89255460                0.13198105                1.08567712               -0.60947415
               4.07173317               10.27912402               17.64700034                0.50313222                0.76627897                0.47803955               -1.68074299               -0.41938730               19.02614197               -1.39386627
               5.08326127               10.17410122               17.80856121                0.43925881                0.63016215                0.16492315               -0.87447333               -0.29284143               35.94877110               -0.29236503
               6.08433641               10.07116056               17.95949101                0.43176126               -0.32535975                0.24033036               -0.17008445               -0.06708125               35.52602455                0.07004069
               7.07675408                9.96763830               18.11267939                0.45139147               -1.21733131                0.27140688                0.50596039               -0.11750468               36.09687218                0.37932903
               8.05998978                9.86322204               18.27656100                0.49600999               -2.33605101                0.37809739                1.20407635               -0.65831923               37.65701901                0.78423062
               9.03003306                9.75131645               18.46416859                0.57571636               -2.22632548               -0.21266854                1.99768545               -1.12063446               23.74970346                1.72165744
              10.01546328                9.65556481               18.35581222                0.71457141               -0.94742950               -0.49279272                1.78480725               -0.40614743                5.19283452                1.05067179
              11.01108447                9.57127750               18.17508966                0.95939241               -0.28187264               -0.23239618                0.88622231                0.11990666                0.99674432                0.54214737
              12.00982582                9.48873545               17.98290629                0.99997585               -0.12586429                0.08538017               -0.08363825                0.11273606                0.42709425               -0.72226242
               1.13903976                0.54861814               19.43005921                1.00000000               -0.54863259               -0.60923356                2.10887449               -0.11621912               -0.99923827                1.05178322
               2.13355344                0.42524949               19.31066385                1.00000000               -0.46249469               -0.44893040                1.60248813               -0.07492272               -1.02115587               -0.05044475
               3.12978987                0.30154815               19.19086091                0.70416554               -0.22778733               -0.30361253                1.09091020                0.01922965               -0.70536004               -0.94306254
               4.12899769                0.17964099               19.07792510                0.52303978                0.09654293               -0.16724547                0.59360309                0.13481555                1.10863787               -0.09789070
               5.13172073                0.06361883               18.99513845                0.45532678                0.30237987               -0.04006682                0.11653621                0.12270885                4.02057250               -0.09081194
               6.13504529               -0.04527738               18.94206496                0.46197047                0.20874937                0.09635786               -0.36213313                0.04095366                5.35563497                0.00832594
               7.13589571               -0.15284599               18.88724011                0.53265094                0.07788534                0.23701138               -0.83606773                0.08301337                3.84638284                0.08869267
               8.13660299               -0.26513673               18.80357685                0.68171299                0.19713292                0.37632389               -1.32431048                0.08727149                1.23731521                0.14098729
               9.13983837               -0.38205673               18.69545330                0.94548197                0.46010645                0.52176919               -1.84257950                0.01233285               -0.46725455                0.46063120
              10.14580512               -0.50062943               18.57694657                1.00000000                0.69023276                0.67442947               -2.38960157               -0.06864883               -0.88586304                0.32764314
              11.15364303               -0.61897664               18.46016160                1.00000000                0.78379051                0.83871130               -2.90777801               -0.12863178               -0.79080181               -0.82151963
               1.26124622                1.54252581               19.38778385                1.00000000               -0.49070156               -0.57924422                1.89226290               -0.04052397               -0.05141707                1.34258807
               2.25633921                1.42076019               19.26760373                0.99772808               -0.42299024               -0.41374514                1.38773594               -0.00245588                0.03541326               -0.11857834
               3.25278642                1.29851203               19.14915183                0.26195173               -0.35143499               -0.26329389                0.90117605                0.11316512                1.35529002               -1.40854753
               4.24931051                1.17796854               19.05538382                0.00380066               -0.36897081               -0.13918337                0.47035075                0.42799578                3.75968442               -1.65653826
               5.24540700                1.06321816               18.98460989                0.00820806               -0.28116378                0.13470805                0.04629061                0.80372140                6.56130272                0.54121512
               6.24368723                0.95568620               18.94583557                0.01149208                0.06242617                0.08693110               -0.36491808                0.98864164                8.09531898                0.55326244
               7.24665552                0.84952413               18.90521049                0.01024803                0.41969240                0.03769641               -0.76459751                0.82285220                6.45153133                0.50207860
               8.25208108                0.73862651               18.83435704                0.22704011                0.55262630                0.34368705               -1.18042831                0.41492949                3.74485541                1.82592754
               9.25770805                0.62316097               18.74065944                0.62381473                0.57487564                0.47725290               -1.62475001                0.13885081                1.81088108                1.46029669
              10.26357859                0.50611487               18.63159006                1.00000000                0.64979351                0.62508605               -2.09775126                0.01448659                0.62002748                0.69795350
              11.27070392                0.38941047               18.51401181                1.00000000                0.71253289                0.80185254               -2.63037042               -0.05177903                0.20059396               -0.87717851
               1.38176052                2.53703326               19.35133726                1.00000000               -0.42424186               -0.51949612                1.69177897               -0.04392697                0.17756880                1.57743531
               2.37751810                2.41697459               19.22320388                0.76246065               -0.34578479               -0.34239250                1.14620135               -0.00616160                0.33138306               -0.42104202
               3.37484482                2.29628227               19.09812289                0.09984967               -0.23333160               -0.17243962                0.63007027                0.11111017                1.91203383               -2.41136871
               4.37285147                2.17685732               19.00163101                0.00010000               -0.23836667                0.04664546                0.24462502                0.70199524                7.41382794               -1.22195613
               5.37007749                2.06631299               18.98657520                0.00010000               -0.21696592                0.20190963                0.03028541                1.27020395               10.93108381                0.75325110
               6.36851215                1.95646124               18.96027884                0.00010000               -0.03325208                0.05258109               -0.26598849                1.38923144               10.24917702                1.23576567
               7.36941245                1.84790794               18.93123798                0.00010000                0.13762968               -0.08954639               -0.57249311                1.38538274                9.93127640                1.66255798
               8.37126474                1.74173701               18.89866290                0.08201133                0.28572904                0.07145264               -0.88074283                0.85360569                6.72842303                3.29983289
               9.37512703                1.62748833               18.80573703                0.33530637                0.42903009                0.33933738               -1.27624883                0.14968807                2.74980522                3.78000227
              10.37984535                1.51187229               18.69351634                0.81884389                0.54446001                0.52483543               -1.78353312                0.00057926                1.05839257                1.39120165
              11.38601623                1.39706041               18.56657493                1.00000000                0.61708837                0.73996906               -2.35982077               -0.06044091                0.32818087               -0.79061197
               1.50048502                3.53213589               19.31379786                1.00000000               -0.35180590               -0.45745412                1.48116316               -0.04475515                0.04450461                1.44511212
               2.49696696                3.41391234               19.17412111                0.70760210               -0.26795659               -0.26764907                0.88788745               -0.00458571                0.14169507               -0.67405526
               3.49512589                3.29506323               19.03635941                0.07367010               -0.18236334               -0.07628005                0.31090894                0.18294954                4.69087267               -2.88784649
               4.49331969                3.17890144               18.98766036                0.00010000               -0.19593641                0.16797417                0.23513151                0.59952755               11.29903103                0.26348514
               5.49120716                3.06725635               18.98225349                0.00010000               -0.17213942                0.07423515                0.01507743                0.91928719               13.55201768                0.57847436
               6.48987691                2.95673782               18.97863379                0.00010000               -0.10598742                0.00841537               -0.17167713                1.02186142               13.50152379                1.55668635
               7.48908741                2.84773320               18.97224777                0.00010000               -0.01520517               -0.05238804               -0.37569975                1.01465577               13.03451751                2.65734628
               8.48957280                2.74005556               18.95919765                0.08594698                0.07395585               -0.13946474               -0.61332559                0.76221394               10.27386816                3.87312956
               9.49056653                2.62994771               18.89738189                0.32559236                0.22226475                0.16863624               -0.78255392                0.23815614                4.17528620                4.43997705
              10.49401810                2.51661157               18.76196167                0.76384452                0.42761670                0.42164696               -1.41292210                0.00045492                0.28351192                1.55276399
              11.49911886                2.40420986               18.62191102                1.00000000                0.51007653                0.67847294               -2.07306566               -0.05469212                0.05684105               -0.65399422
               1.61731251                4.52788418               19.27472324                1.00000000               -0.28134696               -0.39086706                1.26369969               -0.04385845                0.02217374                1.34590535
               2.61449904                4.41162161               19.12462751                0.67833326               -0.18989002               -0.19072333                0.63119346               -0.00324657                0.08164067               -0.70356358
               3.61351471                4.29475667               18.97568488                0.06143864               -0.09250701                0.01185370                0.00796712                0.16790226                7.05460127               -2.78317228
               4.61264890                4.18021681               18.96502115                0.00010000               -0.14439256                0.12656227                0.08134806                0.47788305               15.31567763               -0.39612644
               5.61062686                4.06779769               18.98172381                0.00010000               -0.20881844                0.05884294                0.00488837                0.64845419               16.77416550                0.70009145
               6.60847253                3.95662955               19.00046253                0.00010000               -0.21195168               -0.02024241               -0.07520720                0.68721372               16.85207344                1.79785249
               7.60638783                3.84686018               19.01883396                0.00010000               -0.20890109               -0.10386316               -0.16938455                0.68829105               16.76313984                3.10324133
               8.60429451                3.73894771               19.03569138                0.09511996               -0.15268433               -0.13609052               -0.29164859                0.51050858               12.91626675                4.78881886
               9.60333414                3.63086106               18.97666842                0.33912159                0.06488970                0.03315646               -0.36051355                0.19849338                4.62815171                3.44019147
              10.60559230                3.52030523               18.82729724                0.77981672                0.31958437                0.31657492               -1.06302571                0.00392140                0.06554780                1.23852015
              11.60972583                3.41062987               18.67671468                1.00000000                0.41335221                0.59657857               -1.77941472               -0.04627191                0.00901358               -0.76472013
               1.73213299                5.52431854               19.23518805                1.00000000               -0.21034517               -0.32182034                1.04458370               -0.04394164                0.02028469                1.30912078
               2.73002953                5.41009787               19.07489634                0.65162939               -0.11221254               -0.11378120                0.37279434               -0.00173837                0.08623133               -0.72400663
               3.72988874                5.29530031               18.91588227                0.05070506               -0.00966006                0.09703789               -0.29011032                0.10010200                9.25297965               -2.73448464
               4.72983633                5.18143269               18.93888768                0.00010000               -0.10626179                0.14378963               -0.09046205                0.26797791               19.26244408               -0.65706434
               5.72776350                5.06843321               18.98067071                0.00010000               -0.26388219                0.08182930               -0.02566035                0.33992623               20.27870698                0.60357639
               6.72455869                4.95633297               19.02447625                0.00010000               -0.36142166               -0.02404500                0.02485218                0.33753162               20.43566097                1.89282713
               7.72053507                4.84565594               19.06966296                0.00010000               -0.43882961               -0.13579762                0.05515770                0.31909792               20.54879183                3.33560141
               8.71578210                4.73733375               19.11568114                0.10438856               -0.36780940               -0.20996981                0.05364861                0.23726265               14.99060705                4.98041531
               9.71317888                4.63061084               19.04924355                0.35351399               -0.07271932               -0.07975988                0.03275486                0.11592741                4.72591783                2.93496627
              10.71432771                4.52294307               18.88966145                0.79977829                0.21826329                0.21212213               -0.72419274                0.00261780                0.04280352                0.98340081
              11.71754414                4.41614143               18.72933697                1.00000000                0.32164333                0.50436508               -1.49270848               -0.04452213                0.00930847               -0.94034436
               1.84487502                6.52144777               19.19535752                1.00000000               -0.13925100               -0.25254153                0.82458716               -0.04360154                0.02200614                1.28079981
               2.84348251                6.40934599               19.02492881                0.62630351               -0.03465444               -0.03640573                0.11389682                0.00018062                0.10217957               -0.74594527
               3.84418193                6.29669743               18.85605831                0.04055782                0.06965212                0.18314301               -0.58756345                0.00862446               11.40140295               -2.73828404
               4.84487555                6.18309260               18.91156949                0.00010000               -0.08284158                0.20620344               -0.27215199                0.03669417               23.16869842               -0.80428411
               5.84252510                6.06943428               18.97883109                0.00010000               -0.34375577                0.13404314               -0.06127890                0.02229768               23.86236026                0.48842629
               6.83800044                5.95614865               19.04894029                0.00010000               -0.53780474               -0.00066378                0.12798811               -0.03728943               24.11909468                1.83567744
               7.83176901                5.84414423               19.12183745                0.00010000               -0.69577907               -0.16313456                0.29560705               -0.08058500               24.37584567                3.33270096
               8.82408486                5.73474832               19.19722848                0.11369956               -0.58628213               -0.31207357                0.43264739               -0.06950025               16.83928014                5.03619379
               9.82004336                5.62926586               19.11912494                0.36804944               -0.19853902               -0.18720245                0.41412788                0.02437787                4.62088427                2.69964620
              10.82011408                5.52454767               18.95003604                0.82030589                0.11976560                0.10992423               -0.39322793                0.00004211                0.04311632                0.81749096
              11.82243868                5.42071717               18.78021759                1.00000000                0.23245990                0.41047343               -1.21132029               -0.04393233                0.01007922               -1.06298501
               1.95546453                7.51926771               19.15523566                1.00000000               -0.06810378               -0.18434770                0.60467808               -0.04302070                0.02311824                1.24989512
               2.95478349                7.40936976               18.97468972                0.60217036                0.04250426                0.04146547               -0.14462636                0.00265913                0.12119265               -0.76916089
               3.95631461                7.29896317               18.79605693                0.03076372                0.15249397                0.27117077               -0.88392498               -0.09057420               13.48217592               -2.74527533
               4.95783337                7.18555676               18.88267998                0.00010000               -0.05806043                0.29055868               -0.45319537               -0.18567750               27.02458638               -0.93836909
               5.95515340                7.07111407               18.97579383                0.00010000               -0.43652088                0.20887955               -0.09729003               -0.26747050               27.47394967                0.34951769
               6.94910295                6.95631970               19.07236484                0.00010000               -0.74148526                0.05643010                0.23334699               -0.39656381               27.83196684                1.63181745
               7.94032370                6.84239325               19.17344689                0.00010000               -0.99162439               -0.16528656                0.54764171               -0.51378927               28.27688066                3.11463675
               8.92927046                6.73109228               19.27940833                0.12307953               -0.82283083               -0.40722305                0.84375171               -0.41009311               18.62225945                4.96110958
               9.92386708                6.62686679               19.18751583                0.38268735               -0.31966107               -0.29049713                0.78737370               -0.07010577                4.40281454                2.55858896
              10.92287724                6.52514156               19.00917337                0.84138884                0.02297100                0.00985072               -0.06797321               -0.00348220                0.04638111                0.72431127
              11.92432650                6.42435090               18.83004791                1.00000000                0.14492600                0.31687164               -0.93418803               -0.04395884                0.01062947               -1.12030973
               2.06381052                8.51776082               19.11476700                1.00000000                0.00297221               -0.11878641                0.38546094               -0.04216844                0.02981496                1.22075131
               3.06384024                8.41017529               18.92418654                0.57916094                0.11864645                0.12074128               -0.40193198                0.00489767                0.15055653               -0.80373883
               4.06618345                8.30212084               18.73597002                0.02117121                0.25854276                0.36059531               -1.17757741               -0.19799447               15.51081882               -2.66792141
               5.06901110                8.18890377               18.85253703                0.00010000                0.01146524                0.35027062               -0.62434563               -0.37234080               30.81332339               -0.92576629
               6.06641275                8.07361187               18.97115126                0.00010000               -0.51105530                0.26332291               -0.13153507               -0.43530180               31.02711601                0.21517248
               7.05878999                7.95727725               19.09302962                0.00010000               -0.98460569                0.17057294                0.33407429               -0.61964333               31.48302421                1.25293590
               8.04672064                7.84083850               19.22188306                0.00010000               -1.36902719               -0.06255026                0.79690241               -0.91348855               32.25472627                2.53508295
               9.03140945                7.72660386               19.36028955                0.13260611               -1.10643351               -0.44795324                1.26985239               -0.81574528               20.50348760                4.52305875
              10.02459197                7.62345592               19.25495370                0.39752260               -0.44245574               -0.38784081                1.15340314               -0.18008348                4.20623132                2.38236464
              11.02256033                7.52474469               19.06773608                0.86326786               -0.07255731               -0.08856998                0.25306888               -0.00901142                0.06421304                0.70928562
              12.02314082                7.42705461               18.87950373                1.00000000                0.05804912                0.22508928               -0.66017532               -0.04436756                0.01691907               -1.12648133
               2.16979220                9.51689199               19.07403961                1.00000000                0.07292125               -0.05701796                0.16872284               -0.04108618                0.00987420                1.02657300
               3.17052141                9.41178458               18.87318338                0.55710528                0.19170215                0.20152567               -0.65865375                0.00534365                0.26598228               -0.73499997
               4.17362624                9.30617507               18.67739632                0.01142649                0.41870567                0.44402824               -1.46070082               -0.34603682               17.61470223               -2.02105569
               5.17889553                9.19256217               18.82345111                0.00010000                0.22238217                0.26506434               -0.77512900               -0.38881059               34.47736480               -0.57488832
               6.17807389                9.07638053               18.96505060                0.00010000               -0.47060363                0.27198396               -0.16265053               -0.35060656               34.33769187                0.10693203
               7.16948345                8.95973116               19.10877775                0.00010000               -1.26732836                0.28392996                0.41846747               -0.50068228               34.86533557                0.69191678
               8.15272732                8.84114224               19.26218958                0.00010000               -1.95726584                0.24705013                1.01234310               -0.92834537               36.17254841                1.44556791
               9.13033814                8.72213321               19.43420902                0.14241713               -1.53013699               -0.29440342                1.67098866               -1.02551722               22.66715265                2.96517447
              10.12212458                8.61910998               19.32007348                0.41266805               -0.56199066               -0.46447972                1.50384978               -0.32256585                4.36165523                1.68447611
              11.11909832                8.52337016               19.12659340                0.88625338               -0.16526323               -0.18437248                0.57291706               -0.01697331                0.18925690                0.64812513
              12.11881932                8.42885268               18.92898877                0.99993405               -0.02790087                0.13591727               -0.38892444               -0.04611328               -0.01343664               -0.94160862
               2.27320360               10.51662046               19.02965871                1.00000000                0.14604276               -0.02715284               -0.05415754                0.09967487                0.53338510                0.84564698
               3.27466403               10.41420581               18.82398164                0.77216596                0.26407624                0.24212242               -0.90356546                0.13330892                1.12766658               -0.64119762
               4.27848512               10.31100141               18.63013725                0.50287842                0.81826989                0.48263363               -1.69347476               -0.51414944               19.89546649               -1.45033100
               5.29102942               10.19420506               18.79976278                0.43979644                0.68732564                0.16428879               -0.88837767               -0.38410325               37.61036696               -0.31188576
               6.29223164               10.07905155               18.95771203                0.43197454               -0.35073944                0.26710161               -0.18994581               -0.14668547               37.15425865                0.06732364
               7.28401464                9.96295585               19.11761390                0.45122174               -1.32399817                0.32246949                0.47591757               -0.21048423               37.74735317                0.39379378
               8.26575167                9.84577950               19.28840999                0.49547081               -2.55416358                0.46372598                1.16012514               -0.80956772               39.38788109                0.82380977
               9.23293136                9.72071579               19.48387154                0.57452490               -2.44239832               -0.14174242                1.93698711               -1.32133622               25.06435292                1.82619183
              10.21690371                9.61416632               19.37369698                0.71142389               -1.02266010               -0.49436556                1.79103053               -0.50501483                5.65153058                1.10845397
              11.21247816                9.52105724               19.18392860                0.95086817               -0.28250984               -0.23129190                0.88120521                0.11831520                1.05780155                0.57320280
              12.21125351                9.42977295               18.98197286                0.99996890               -0.12246520                0.09202696               -0.10265184                0.11499067                0.45181169               -0.76013437
               1.25077910                0.60267435               20.45114230                1.00000000               -0.55037478               -0.61014334                2.10881844               -0.11457430               -1.03774692                1.08788941
               2.24527535                0.46884799               20.32669925                1.00000000               -0.46708925               -0.44988566                1.60489471               -0.07333113               -1.06275994               -0.05567526
               3.24143731                0.33464599               20.20179341                0.70171452               -0.25005012               -0.30219136                1.09517766                0.00432397               -0.74356935               -0.96597773
               4.24027435                0.20180073               20.08388019                0.52275896                0.03736563               -0.16579979                0.59735862                0.09437565                1.08520601               -0.10074139
               5.24218463                0.07357863               19.99629769                0.45552623                0.23042532               -0.03343333                0.11507508                0.08482978                4.00446676               -0.09294718
               6.24488285               -0.04893584               19.93838783                0.46192064                0.18834406                0.10651016               -0.37355023                0.02030225                5.34126643                0.01136154
               7.24595151               -0.17025332               19.87877614                0.53178781                0.11760524                0.24678256               -0.85673474                0.05318265                3.83157431                0.09544798
               8.24723496               -0.29518484               19.79021131                0.67920758                0.24525824                0.38466810               -1.34855950                0.05661623                1.20575472                0.14939608
               9.25085667               -0.42366906               19.67690514                0.93966847                0.48679762                0.52769975               -1.86666442               -0.00297463               -0.52557827                0.47556802
              10.25697091               -0.55332916               19.55292456                1.00000000                0.70209401                0.68046181               -2.41444658               -0.06836607               -0.94317737                0.35410119
              11.26489855               -0.68269172               19.43096654                1.00000000                0.79276404                0.84739563               -2.93100823               -0.12775762               -0.83311368               -0.87451960
               1.38345972                1.59657291               20.40670180                1.00000000               -0.49034982               -0.58082509                1.89198913               -0.03980478               -0.04451509                1.38588585
               2.37855622                1.46434913               20.28149983                0.98334653               -0.42277672               -0.41460854                1.39069248               -0.00121818                0.05159181               -0.13836720
               3.37500418                1.33162408               20.15821236                0.25814568               -0.34022172               -0.26176681                0.90901521                0.09352796                1.40777694               -1.47350664
               4.37175178                1.20014273               20.06012571                0.00396304               -0.33014875               -0.13518777                0.47661702                0.34417348                3.84443292               -1.71118517
               5.36840121                1.07324430               19.98508114                0.00842495               -0.23749675                0.08749072                0.04691198                0.63477245                6.66020518                0.56334096
               6.36700185                0.95212926               19.94213209                0.01179038                0.06033126                0.06733927               -0.37641739                0.78246285                8.21536548                0.60482822
               7.36960783                0.83221451               19.89744997                0.00923941                0.37535718                0.04627531               -0.78753572                0.65303504                6.57872329                0.56883910
               8.37450899                0.70866184               19.82241629                0.22374487                0.51456278                0.34043689               -1.20743801                0.32315976                3.85439503                1.91191083
               9.37989909                0.58160794               19.72427589                0.61518422                0.56447947                0.47876735               -1.65166764                0.10815991                1.89306151                1.54189780
              10.38579858                0.45347545               19.61049596                1.00000000                0.65422223                0.62960912               -2.12085270                0.01118379                0.65748736                0.73522599
              11.39298353                0.32578223               19.48759206                1.00000000                0.71849506                0.81234312               -2.65351047               -0.05175466                0.20718547               -0.93353657
               1.51443057                2.59105785               20.36824254                1.00000000               -0.42307461               -0.52128642                1.68986352               -0.04444775                0.18488158                1.62284570
               2.51019983                2.46055582               20.23466307                0.74959517               -0.34581497               -0.34184359                1.14505740               -0.00665772                0.35412677               -0.46331584
               3.50751427                2.32941065               20.10444540                0.09760456               -0.23311146               -0.16859268                0.63302493                0.08832946                2.01647917               -2.54233613
               4.50553760                2.19909697               20.00413607                0.00010000               -0.23103649                0.01345506                0.25504826                0.52606523                7.66706884               -1.22018456
               5.50289354                2.07532844               19.98687201                0.00010000               -0.19878497                0.12535994                0.02805101                0.96044465               11.23653918                0.79694373
               6.50156190                1.95241094               19.95756387                0.00010000               -0.02069582                0.00262954               -0.27820079                1.06794276               10.52133248                1.33057854
               7.50247963                1.83067219               19.92541078                0.00010000                0.13714141               -0.10352092               -0.59381374                1.09729909               10.20927378                1.78979618
               8.50430473                1.71162390               19.88971092                0.08024565                0.28633158                0.04532168               -0.90967932                0.68604087                6.97774111                3.44553443
               9.50820626                1.58590629               19.79285782                0.33010987                0.43577829                0.31075512               -1.29949516                0.09875807                2.90269267                4.00123308
              10.51302029                1.45926302               19.67557238                0.80349207                0.55218190                0.52124160               -1.80524866               -0.01253056                1.11974748                1.46825534
              11.51924990                1.33355514               19.54286462                1.00000000                0.62296050                0.75899716               -2.38227126               -0.06752211                0.35455017               -0.84199763
               1.64357482                3.58614719               20.32858777                1.00000000               -0.35045656               -0.45796328                1.47724745               -0.04529161                0.04463147                1.48151491
               2.64007026                3.45751226               20.18297487                0.69592805               -0.26726039               -0.26520103                0.88294929               -0.00482035                0.14977730               -0.72284322
               3.63822962                3.32825222               20.03943898                0.07198917               -0.18574799               -0.06967576                0.30514707                0.12058157                4.96151176               -3.03277392
               4.63635530                3.20041183               19.99006156                0.00010000               -0.19667440                0.10537407                0.24332644                0.39770540               11.75131299                0.29246677
               5.63429613                3.07575149               19.98238881                0.00010000               -0.16691700                0.02644840                0.01030742                0.64002186               13.95518499                0.62127536
               6.63301696                2.95218185               19.97685277                0.00010000               -0.09776336               -0.03875817               -0.18628257                0.73115718               13.92695622                1.64535503
               7.63234086                2.83014409               19.96837914                0.00010000               -0.00106226               -0.09360259               -0.39963581                0.73735246               13.44816860                2.78590080
               8.63299571                2.70956828               19.95290255                0.08415727                0.09471351               -0.18800177               -0.64691927                0.57180115               10.72415804                4.02667420
               9.63423513                2.58782304               19.88948720                0.32067699                0.24517030                0.11670715               -0.79675381                0.17577222                4.44050334                4.69046228
              10.63789912                2.46390029               19.74774698                0.74956600                0.44068571                0.41082403               -1.43011706               -0.00346574                0.30029331                1.64535402
              11.64304885                2.34096218               19.60107589                1.00000000                0.51497261                0.70432168               -2.09389182               -0.05699261                0.05870111               -0.69121281
               1.77079460                4.58189858               20.28733346                1.00000000               -0.27962128               -0.39024445                1.25869314               -0.04413638                0.02258983                1.37784412
               2.76799838                4.45525179               20.13090349                0.66704447               -0.18841323               -0.18747946                0.62403781               -0.00247601                0.08659871               -0.75124858
               3.76702633                4.32801714               19.97572027                0.05986690               -0.10029760                0.01882190               -0.00120597                0.07518054                7.41499754               -2.91429238
               4.76599243                4.20120445               19.96583487                0.00010000               -0.15511864                0.08674984                0.07962068                0.24834360               15.95726915               -0.45078633
               5.76392396                4.07585741               19.98173689                0.00010000               -0.20999937                0.02084215               -0.00444390                0.36935926               17.34871935                0.73133664
               6.76179244                3.95163578               19.99962922                0.00010000               -0.20418536               -0.06153627               -0.09382462                0.39653562               17.43283679                1.88497565
               7.75984025                3.82880014               20.01700912                0.00010000               -0.18653225               -0.15215751               -0.19801927                0.39951570               17.33874744                3.24099133
               8.75806180                3.70786386               20.03258987                0.09315037               -0.12252795               -0.19795420               -0.33097768                0.30638344               13.53132177                4.97534498
               9.75738969                3.58824043               19.97301714                0.33381524                0.08750203               -0.01032307               -0.37027450                0.13331821                4.96602680                3.63227200
              10.75981184                3.46747950               19.81659778                0.76500729                0.32982834                0.30684653               -1.07698836                0.00283498                0.07350323                1.31208014
              11.76398626                3.34764157               19.65882531                1.00000000                0.41744200                0.62009134               -1.79827111               -0.04585093                0.01000735               -0.80017799
               1.89598567                5.57834230               20.24560507                1.00000000               -0.20834867               -0.32083697                1.03911425               -0.04398721                0.02031872                1.33972030
               2.89390218                5.45376267               20.07858266                0.64075867               -0.11025495               -0.11023884                0.36432275               -0.00041112                0.09074784               -0.77207926
               3.89378057                5.32862866               19.91292971                0.04927510               -0.02101423                0.10372033               -0.30105059               -0.01076215                9.69478195               -2.86124681
               4.89348190                5.20214683               19.93794915                0.00010000               -0.12642917                0.12529684               -0.09916794                0.01736169               20.07918146               -0.72477780
               5.89125198                5.07616834               19.98035308                0.00010000               -0.27384762                0.05692789               -0.04043940                0.05293797               21.03416652                0.61941931
               6.88800494                4.95095113               20.02462163                0.00010000               -0.35744461               -0.05837597                0.00125310                0.03230091               21.19073410                1.97916598
               7.88410309                4.82710094               20.07005754                0.00010000               -0.41609271               -0.18280412                0.02053346                0.00642607               21.29628544                3.48525637
               8.87968309                4.70560919               20.11599637                0.10226391               -0.34086162               -0.27027613                0.00606217                0.01644920               15.74543248                5.18894262
               9.87728586                4.58761658               20.04954115                0.34787513               -0.05642069               -0.11230543                0.02618247                0.04867332                5.11584444                3.10146555
              10.87855468                4.47003722               19.88236175                0.78437548                0.22609073                0.20549854               -0.73587084                0.00134127                0.04926323                1.04524042
              11.88180767                4.35336400               19.71431890                1.00000000                0.32529991                0.52350575               -1.51062317               -0.04411253                0.00979850               -0.98118845
               2.01907411                6.57548184               20.20357347                1.00000000               -0.13703105               -0.25150956                0.81887944               -0.04359774                0.02169651                1.31099650
               3.01770380                6.45304702               20.02602220                0.61592010               -0.03235894               -0.03273517                0.10451108                0.00169180                0.10664697               -0.79362292
               4.01842693                6.33009154               19.85012606                0.03929331                0.05480943                0.18968178               -0.59974772               -0.11161071               11.91996307               -2.86312915
               5.01879999                6.20371039               19.90879161                0.00010000               -0.11242556                0.20480098               -0.28557292               -0.22674035               24.15757319               -0.87586843
               6.01617842                6.07699597               19.97813627                0.00010000               -0.36470641                0.12520542               -0.08065619               -0.27536602               24.80450966                0.49933379
               7.01150586                5.95046826               20.05009475                0.00010000               -0.54338556               -0.02373280                0.09936719               -0.36045684               25.05868203                1.92061023
               8.00531071                5.82514406               20.12460829                0.00010000               -0.68153570               -0.20227171                0.25459476               -0.41848422               25.30985397                3.49110392
               8.99787515                5.70245834               20.20129295                0.11145398               -0.56877867               -0.36239316                0.37600259               -0.30403371               17.71862358                5.27224374
               9.99393513                5.58599432               20.12324989                0.36214826               -0.18919524               -0.21097680                0.41022656               -0.04068153                5.03970067                2.85282620
              10.99409124                5.47158947               19.94605418                0.80443170                0.12576488                0.10580122               -0.40327463               -0.00149111                0.04898947                0.87104461
              11.99645043                5.35811169               19.76801447                1.00000000                0.23591920                0.42604244               -1.22895487               -0.04361915                0.01028519               -1.10830793
               2.13998336                7.57331211               20.16125158                1.00000000               -0.06570452               -0.18326026                0.59877769               -0.04305189                0.02255361                1.28049276
               3.13932631                7.45310797               19.97319471                0.59233273                0.04508119                0.04520966               -0.15474977                0.00414936                0.12590777               -0.81570323
               4.14088498                7.33242230               19.78715708                0.02968147                0.13581751                0.27756639               -0.89708843               -0.21203280               14.07775005               -2.86744778
               5.14204266                7.20624285               19.87807859                0.00010000               -0.09490950                0.30484192               -0.46950974               -0.44772779               28.18489830               -1.00462491
               6.13898679                7.07867245               19.97472306                0.00010000               -0.46974717                0.21704163               -0.12020695               -0.56717644               28.60359356                0.35845835
               7.13264772                6.95047647               20.07455403                0.00010000               -0.76217315                0.04934828                0.20043811               -0.72866278               28.96239174                1.71122655
               8.12374333                6.82305551               20.17871351                0.00010000               -0.99477856               -0.19063448                0.50105296               -0.86821324               29.41256497                3.27286090
               9.11275215                6.69836133               20.28754871                0.12074614               -0.82011141               -0.44255790                0.77928419               -0.65392427               19.61530232                5.21711222
              10.10734110                6.58339704               20.19538652                0.37659480               -0.31723311               -0.30692196                0.78603008               -0.13226416                4.82986042                2.70229628
              11.10640749                6.47215324               20.00845097                0.82514149                0.02748751                0.00773006               -0.07668125               -0.00530312                0.05224993                0.77203742
              12.10789085                6.36188485               19.82061580                1.00000000                0.14833646                0.32935365               -0.95186543               -0.04374173                0.01070362               -1.16928368
               2.25862135                8.57181664               20.11858971                1.00000000                0.00552443               -0.11751360                0.37934094               -0.04228241                0.02930362                1.25293993
               3.25867660                8.45395121               19.92011525                0.56990252                0.12150203                0.12453967               -0.41277822                0.00622786                0.15629917               -0.84912198
               4.26105139                8.33564287               19.72412938                0.02028097                0.24593419                0.36664916               -1.19173088               -0.31324120               16.18770214               -2.78287062
               5.26359528                8.20980723               19.84621556                0.00010000               -0.02250630                0.37428166               -0.64258687               -0.61238832               32.14515885               -0.97803818
               6.26060127                8.08133680               19.96972666                0.00010000               -0.55228689                0.28313410               -0.15704083               -0.70679145               32.33819567                0.22249761
               7.25254954                7.95145523               20.09621206                0.00010000               -1.02698408                0.18509106                0.29793211               -0.92627797               32.80408357                1.31661316
               8.24006159                7.82133137               20.22962534                0.00010000               -1.40472097               -0.06150071                0.74637466               -1.25798130               33.60354304                2.67065036
               9.22445512                7.69360718               20.37266935                0.13020031               -1.12818229               -0.45983450                1.20046249               -1.06788453               21.60770584                4.77240424
              10.21749794                7.57985588               20.26649845                0.39127147               -0.44788776               -0.39790283                1.15467785               -0.24251052                4.63057448                2.51392867
              11.21549737                7.47174407               20.07023062                0.84668320               -0.06927837               -0.08908966                0.24560210               -0.01120225                0.07153771                0.75390420
              12.21611237                7.36469876               19.87281101                1.00000000                0.06150040                0.23477479               -0.67801814               -0.04422677                0.01741188               -1.17853702
               2.37486856                9.57096183               20.07569413                1.00000000                0.07560745               -0.05547407                0.16241116               -0.04123214                0.00716835                1.05691484
               3.37562463                9.45559876               19.86654109                0.54840494                0.19477908                0.20539846               -0.67032496                0.00636621                0.27646301               -0.77386121
               4.37876414                9.33975528               19.66271948                0.01070940                0.42381663                0.44963270               -1.47593659               -0.45301545               18.38262367               -2.10479098
               5.38410097                9.21372848               19.81561554                0.00010000                0.22194113                0.27164732               -0.79475698               -0.55608004               35.97870420               -0.60176947
               6.38320296                9.08433513               19.96330707                0.00010000               -0.49866853                0.29236863               -0.18994224               -0.52904942               35.81671421                0.11069850
               7.37412760                8.95417829               20.11279438                0.00010000               -1.33856079                0.31933281                0.38007355               -0.70279988               36.36281751                0.72706764
               8.35643175                8.82182549               20.27207550                0.00010000               -2.06288272                0.29630211                0.95931041               -1.17927352               37.73475113                1.52615890
               9.33286994                8.68916464               20.45059484                0.13994212               -1.60388725               -0.25459594                1.60003080               -1.24042505               23.89217350                3.13446501
              10.32435400                8.57543899               20.33513547                0.40624019               -0.57646895               -0.46844959                1.50756233               -0.39271531                4.79425801                1.77614713
              11.32134056                8.47037145               20.13229256                0.86925963               -0.16285355               -0.18364546                0.56662815               -0.01956949                0.20444262                0.68615593
              12.32109693                8.36658035               19.92500719                0.99994721               -0.02436306                0.14329103               -0.40703499               -0.04605142               -0.01414660               -0.98771902
               2.48852286               10.57070715               20.02908425                1.00000000                0.14876166               -0.02546794               -0.06058138                0.10063263                0.54606533                0.87284215
               3.49001048               10.45805918               19.81488743                0.76798812                0.26692516                0.24604216               -0.91587657                0.13500282                1.17086403               -0.67375711
               4.49386136               10.34463553               19.61313084                0.50257542                0.89416767                0.48802476               -1.70912188               -0.63122813               20.76707413               -1.50801936
               5.50789383               10.21524017               19.79079366                0.44030656                0.78545520                0.15116946               -0.90835854               -0.49328123               39.27215891               -0.33241638
               6.50957047               10.08718418               19.95569209                0.43218538               -0.34453246                0.28490467               -0.21811051               -0.23316423               38.77936696                0.06396241
               7.50100318                9.95784188               20.12219774                0.45104660               -1.40403493                0.36635922                0.43588416               -0.30877984               39.39254733                0.40806889
               8.48148977                9.82725741               20.29976351                0.49490370               -2.74850263                0.54319163                1.10489896               -0.96052897               41.11299916                0.86395773
               9.44603313                9.68851526               20.50290833                0.57326439               -2.65264720               -0.06493743                1.86410510               -1.52220723               26.42054663                1.93348331
              10.42843682                9.57048689               20.39163283                0.70815203               -1.10342561               -0.49520954                1.79516489               -0.61392302                6.15483510                1.16865628
              11.42396462                9.46807116               20.19271376                0.94222011               -0.28316423               -0.23002860                0.87557156                0.11628989                1.12086776                0.60544260
              12.42277354                9.36756458               19.98085325                0.99996261               -0.11910762                0.09842336               -0.12084411                0.11700292                0.47711453               -0.79894615
               1.36717093                0.65925694               21.47223558                1.00000000               -0.55238004               -0.61136440                2.11044812               -0.11331672               -1.07569242                1.12377270
               2.36164713                0.51453483               21.34276174                1.00000000               -0.47166960               -0.45058102                1.60741674               -0.07197714               -1.10388965               -0.06115261
               3.35773754                0.36939069               21.21276446                0.69911517               -0.27247996               -0.30007878                1.09817742               -0.01213079               -0.78182971               -0.98643357
               4.35619753                0.22513514               21.08987227                0.52240673               -0.02175535               -0.16461777                0.60013417                0.05339997                1.05838179               -0.10354575
               5.35730243                0.08419298               20.99743995                0.45568743                0.15973175               -0.02823164                0.11265870                0.04653905                3.98066225               -0.09525048
               6.35939216               -0.05253867               20.93459396                0.46183233                0.17006422                0.11453889               -0.38566450               -0.00052827                5.31812829                0.01419684
               7.36070371               -0.18828468               20.87010542                0.53087006                0.15984628                0.25509543               -0.87748089                0.02320152                3.81074473                0.10231336
               8.36258909               -0.32655877               20.77660566                0.67659328                0.29549216                0.39238904               -1.37235114                0.02528670                1.17201605                0.15799738
               9.36661356               -0.46728687               20.65812001                0.93363702                0.51455414                0.53331129               -1.88996894               -0.01896629               -0.58517107                0.48954947
              10.37288017               -0.60869021               20.52865764                1.00000000                0.71416177                0.68617784               -2.43852137               -0.06835907               -1.00123543                0.38273378
              11.38089679               -0.74971806               20.40154143                1.00000000                0.80166201                0.85597279               -2.95367852               -0.12692075               -0.87509564               -0.92844993
               1.51075987                1.65314329               21.42562363                1.00000000               -0.48993860               -0.58263626                1.89271841               -0.03911953               -0.03603288                1.42857538
               2.50586048                1.51002902               21.29541758                0.96858934               -0.42218944               -0.41507992                1.39253305               -0.00013715                0.07042623               -0.16018641
               3.50231608                1.36638990               21.16733213                0.25413129               -0.32650475               -0.25908800                0.91404302                0.07119077                1.46101841               -1.53991959
               4.49933038                1.22348896               21.06491616                0.00410822               -0.28556764               -0.13086810                0.48017001                0.25447359                3.92554655               -1.76381263
               5.49660472                1.08391066               20.98554813                0.00861265               -0.18523357                0.03756069                0.04525458                0.45979004                6.75022853                0.58333653
               6.49562571                0.94860672               20.93830722                0.01204975                0.06705290                0.04453982               -0.38928078                0.56817355                8.32308663                0.65596010
               7.49794578                0.81426627               20.88945977                0.00918220                0.33586704                0.05296862               -0.81062976                0.47527790                6.69789317                0.63734181
               8.50234305                0.67736512               20.81020828                0.22028324                0.47719147                0.33601076               -1.23392504                0.22816987                3.96209675                1.99835616
               9.50748961                0.53804624               20.70762609                0.60623959                0.55345609                0.47942829               -1.67799671                0.07561624                1.97749132                1.62576551
              10.51341218                0.39817157               20.58917301                1.00000000                0.65829143                0.63382938               -2.14346404                0.00743787                0.69703525                0.77442280
              11.52065544                0.25884167               20.46094160                1.00000000                0.72432642                0.82273433               -2.67640371               -0.05169271                0.21386358               -0.99058697
               1.65261708                2.64760421               21.38513453                1.00000000               -0.42193043               -0.52340155                1.68887704               -0.04491889                0.19203924                1.66707431
               2.64839777                2.50623323               21.24610502                0.73654320               -0.34578316               -0.34069834                1.14289689               -0.00722350                0.37857611               -0.50930034
               3.64570142                2.36420893               21.11078339                0.09526982               -0.23157667               -0.16285082                0.63345248                0.06189466                2.12647761               -2.68052231
               4.64376624                2.22251778               21.00673198                0.00010000               -0.21604720               -0.02184908                0.26269239                0.34005012                7.91803019               -1.21878819
               5.64138047                2.08494419               20.98713622                0.00010000               -0.16831066                0.04531538                0.02331842                0.63746384               11.53192898                0.83724599
               6.64040003                1.94835213               20.95471482                0.00010000                0.00352021               -0.05135746               -0.29282612                0.73152403               10.78512290                1.42438739
               7.64145088                1.81277469               20.91936171                0.00010000                0.14862476               -0.12066967               -0.61686596                0.79322688               10.48065458                1.91817924
               8.64337252                1.68016144               20.88046932                0.07837304                0.29342761                0.01724884               -0.93862145                0.50659278                7.22804099                3.59021878
               9.64731943                1.54230169               20.77974713                0.32472689                0.44304900                0.27757031               -1.32250752                0.04337465                3.06099634                4.23043537
              10.65223350                1.40398638               20.65741137                0.78800592                0.56016606                0.51608391               -1.82688079               -0.02709862                1.18324726                1.54861736
              11.65852275                1.26673663               20.51892951                1.00000000                0.62892463                0.77916192               -2.40468394               -0.07599438                0.38194545               -0.89333738
               1.79260344                3.64267526               21.34334281                1.00000000               -0.34921523               -0.45902296                1.47417007               -0.04566245                0.04437539                1.51722961
               2.78911129                3.50321506               21.19178010                0.68411424               -0.26670063               -0.26221925                0.87789954               -0.00479696                0.15783097               -0.77443945
               3.78726943                3.36313289               21.04246236                0.07022908               -0.18575826               -0.06144170                0.29884354                0.05093965                5.23906670               -3.18405225
               4.78539612                3.22305198               20.99252689                0.00010000               -0.18748895                0.03978591                0.24765808                0.18477506               12.20563595                0.31416342
               5.78351965                3.08481697               20.98245964                0.00010000               -0.14852132               -0.02420201                0.00203238                0.34770072               14.34948371                0.66025217
               6.78242570                2.94757957               20.97490814                0.00010000               -0.07593222               -0.08959628               -0.20439011                0.42464625               14.34539281                1.73184965
               7.78200100                2.81185288               20.96425505                0.00010000                0.02611062               -0.13865408               -0.42668293                0.44408860               13.85517771                2.91271602
               8.78294791                2.67771009               20.94625926                0.08227530                0.12655800               -0.24003208               -0.68271355                0.36425823               11.18240414                4.17750563
               9.78453217                2.54359764               20.88144681                0.31561247                0.27436799                0.05754250               -0.81170075                0.10552465                4.71757393                4.94902127
              10.78843527                2.40849325               20.73335933                0.73518562                0.45514491                0.39728417               -1.44749320               -0.00760232                0.31721125                1.74197219
              11.79363506                2.27442490               20.58003319                1.00000000                0.51997937                0.73233373               -2.11451234               -0.05942638                0.06035658               -0.72767703
               1.93062424                4.63842375               21.29989711                1.00000000               -0.27800323               -0.39011602                1.25441703               -0.04445268                0.02281691                1.40994650
               2.92784421                4.50098885               21.13710827                0.65565667               -0.18704775               -0.18387361                0.61680849               -0.00175436                0.09146991               -0.80081844
               3.92688329                4.36298010               20.97566076                0.05822969               -0.10332757                0.02683468               -0.01117602               -0.02634505                7.77966284               -3.04903318
               4.92577766                4.22331349               20.96661357                0.00010000               -0.15381960                0.04642062                0.07411137                0.00402613               16.60121837               -0.51427515
               5.92380689                4.08446015               20.98163493                0.00010000               -0.19603059               -0.01973745               -0.01817791                0.07507016               17.91812088                0.75800029
               6.92185704                3.94656020               20.99858604                0.00010000               -0.18023845               -0.10644032               -0.11710800                0.08923346               18.00751037                1.96900948
               7.92020212                3.81000161               21.01487358                0.00010000               -0.14720613               -0.20454948               -0.23133872                0.09428189               17.90775893                3.37565643
               8.91891292                3.67536080               21.02907183                0.09110637               -0.07776802               -0.26502840               -0.37463569                0.08550793               14.16041043                5.15784370
               9.91864676                3.54345254               20.96926293                0.32839914                0.11706367               -0.05951221               -0.38114773                0.05847409                5.32211272                3.82957296
              10.92125420                3.41193206               20.80575747                0.75017313                0.34120730                0.29491168               -1.09123614                0.00153582                0.08178962                1.38846274
              11.92547091                3.28138330               20.64074926                1.00000000                0.42167145                0.64517992               -1.81676781               -0.04533902                0.01096896               -0.83531046
               2.06658419                5.63487294               21.25597034                1.00000000               -0.20643367               -0.32012793                1.03425074               -0.04417294                0.02030688                1.37079883
               3.06451986                5.49953758               21.08218280                0.62980956               -0.10831547               -0.10636879                0.35553518                0.00076486                0.09549820               -0.82144303
               4.06441788                5.36366958               20.90986126                0.04778540               -0.02616334                0.11136881               -0.31328152               -0.13143493               10.13902623               -2.99050077
               5.06399659                5.22398039               20.93690433                0.00010000               -0.13217690                0.10661503               -0.11184005               -0.25041042               20.89726126               -0.79835373
               6.06177435                5.08442222               20.97986192                0.00010000               -0.26638388                0.02954127               -0.06033238               -0.25121813               21.78613638                0.63110826
               7.05866891                4.94545076               21.02450132                0.00010000               -0.33441503               -0.09658724               -0.02817483               -0.29076611               21.94023498                2.06226185
               8.05508604                4.80776189               21.07007363                0.00010000               -0.37308872               -0.23456320               -0.02033954               -0.32377378               22.03641117                3.63132269
               9.05120714                4.67240953               21.11580238                0.10007337               -0.29778309               -0.33599744               -0.04794956               -0.22258431               16.52038951                5.39222512
              10.04913038                4.54240740               21.04976720                0.34214447               -0.03359547               -0.14877631                0.01834717               -0.02943306                5.53107269                3.27238699
              11.05053523                4.41439148               20.87494404                0.76899808                0.23477144                0.19736426               -0.74786201               -0.00018999                0.05629190                1.10911037
              12.05382581                4.28732850               20.69912451                1.00000000                0.32905838                0.54354070               -1.52802245               -0.04365329                0.01029894               -1.02259470
               2.20041150                6.63202119               21.21173511                1.00000000               -0.13486318               -0.25058049                0.81370722               -0.04371466                0.02143113                1.34167002
               3.19906286                6.49886147               21.02701903                0.60545559               -0.02998586               -0.02874702                0.09459654                0.00312843                0.11160662               -0.84225672
               4.19981178                6.36520747               20.84406335                0.03797286                0.04769705                0.19706515               -0.61358331               -0.24239119               12.43980600               -2.98995301
               5.20001681                6.22544579               20.90585803                0.00010000               -0.12498111                0.20299606               -0.30329726               -0.50938620               25.14669049               -0.95109056
               6.19731216                6.08505098               20.97721796                0.00010000               -0.36573749                0.11353136               -0.10587356               -0.59209280               25.74361967                0.50729289
               7.19270206                5.94462846               21.05092763                0.00010000               -0.52721350               -0.05119229                0.06380614               -0.70246046               25.99253382                2.00290845
               8.18676789                5.80531035               21.12692935                0.00010000               -0.64431650               -0.24642377                0.20582625               -0.77466645               26.23534744                3.64642635
               9.17981573                5.66864085               21.20474854                0.10914222               -0.53458711               -0.41757044                0.31094116               -0.55684882               18.62422641                5.50367740
              10.17607615                5.54047701               21.12732948                0.35616016               -0.17432166               -0.23716157                0.40496796               -0.11649271                5.49096148                3.01018280
              11.17632929                5.41587935               20.94197055                0.78858465                0.13238294                0.10071890               -0.41365974               -0.00325843                0.05562122                0.92621881
              12.17872380                5.29225411               20.75563849                1.00000000                0.23945111                0.44200868               -1.24596858               -0.04326892                0.01054774               -1.15466833
               2.33202934                7.62986133               21.16721122                1.00000000               -0.06331950               -0.18220632                0.59337462               -0.04316806                0.02206888                1.31147012
               3.33139614                7.49896264               20.97159473                0.58239233                0.04781999                0.04924998               -0.16557891                0.00566190                0.13130093               -0.86306890
               4.33298574                7.36761088               20.77811516                0.02853669                0.12846075                0.28467818               -0.91220545               -0.34484663               14.67407582               -2.99134460
               5.33396536                7.22804031               20.87328979                0.00010000               -0.11179556                0.31801285               -0.49054266               -0.73089206               29.34459500               -1.07308280
               6.33074983                7.08669285               20.97338970                0.00010000               -0.48025110                0.22134135               -0.14965345               -0.88726911               29.73006151                0.36552616
               7.32436034                6.94442692               21.07637360                0.00010000               -0.75847530                0.03703534                0.15956087               -1.07942561               30.08679149                1.78905414
               8.31558032                6.80283341               21.18346795                0.00010000               -0.97284225               -0.22104167                0.44532359               -1.24012416               30.53892148                3.42947044
               9.30490349                6.66405812               21.29499401                0.11833260               -0.80091455               -0.48175199                0.70467417               -0.91472565               20.64038553                5.47086002
              10.29956203                6.53766417               21.20323643                0.37038790               -0.31052657               -0.32457330                0.78316148               -0.20431062                5.29569421                2.85020268
              11.29869296                6.41640586               21.00763974                0.80887701                0.03244369                0.00509155               -0.08579202               -0.00731331                0.05899356                0.82126498
              12.30021090                6.29616868               20.81101061                1.00000000                0.15179437                0.34191820               -0.96889884               -0.04349440                0.01086503               -1.21946999
               2.46134551                8.62837707               21.12235382                1.00000000                0.00810380               -0.11627930                0.37367751               -0.04244419                0.02887021                1.28544079
               3.46142655                8.49984647               20.91593097                0.56050760                0.12458332                0.12862665               -0.42446226                0.00765775                0.16282975               -0.89535012
               4.46383718                8.37090104               20.71213541                0.01931579                0.24452241                0.37334552               -1.20805826               -0.44109458               16.86520890               -2.89950634
               5.46631700                8.23180605               20.83968530                0.00010000               -0.03285047                0.39541865               -0.66588516               -0.87532862               33.47597727               -1.03187877
               6.46318017                8.08947781               20.96801045                0.00010000               -0.56720091                0.29681112               -0.18965504               -0.99786921               33.64594307                0.22868455
               7.45497298                7.94536916               21.09898826                0.00010000               -1.04229816                0.19299558                0.25296775               -1.24886269               34.11917667                1.37974269
               8.44233421                7.80088951               21.23681056                0.00010000               -1.41412605               -0.06530802                0.68554152               -1.61608931               34.94326078                2.80633395
               9.42669046                7.65900581               21.38429880                0.12769656               -1.13460088               -0.47372909                1.11957339               -1.33429068               22.74904866                5.02266709
              10.41964219                7.53398555               21.27804726                0.38486385               -0.45059702               -0.40828150                1.15426759               -0.31373199                5.09845853                2.64965326
              11.41767852                7.41598118               21.07264812                0.83001446               -0.06569518               -0.08978598                0.23765360               -0.01352894                0.07977037                0.80001358
              12.41832828                7.29909248               20.86594337                1.00000000                0.06497659                0.24436934               -0.69523168               -0.04405923                0.01798399               -1.23183886
               2.58824164                9.62753574               21.07728784                1.00000000                0.07836857               -0.05400003                0.15648418               -0.04140579                0.00440544                1.08758394
               3.58902533                9.50153518               20.85977688                0.53953791                0.19813132                0.20957565               -0.68294279                0.00751059                0.28778325               -0.81355046
               4.59220427                9.37507779               20.64787759                0.00990681                0.44283444                0.45586259               -1.49345044               -0.57516443               19.15137122               -2.18992660
               5.59788202                9.23594868               20.80755597                0.00010000                0.25125313                0.26972236               -0.81965811               -0.74271811               37.47895823               -0.62976528
               6.59722933                9.09262907               20.96125176                0.00010000               -0.49553194                0.30414775               -0.22477789               -0.72135632               37.29221443                0.11383726
               7.58797138                8.94828683               21.11637922                0.00010000               -1.38037219                0.34706780                0.33225434               -0.91403164               37.85446898                0.76220420
               8.56962189                8.80152725               21.28137579                0.00010000               -2.14248679                0.33965648                0.89520625               -1.43682189               39.28929151                1.60777279
               9.54512164                8.65458353               21.46620964                0.13735000               -1.66549331               -0.21236709                1.51651845               -1.46230995               25.15878894                3.30615251
              10.53631202                8.52949854               21.35022472                0.39962278               -0.59030946               -0.47204126                1.50942342               -0.47102990                5.27336974                1.87091209
              11.53331545                8.41461014               21.13792596                0.85211997               -0.16024483               -0.18287439                0.55981886               -0.02229489                0.22058617                0.72544305
              12.53310712                8.30105606               20.92084807                0.99995791               -0.02083283                0.15047154               -0.42447397               -0.04598096               -0.01484555               -1.03493192
               2.71251853               10.62729707               21.02844708                1.00000000                0.15161779               -0.02386789               -0.06677464                0.10178124                0.55875244                0.90041545
               3.71403471               10.50403799               20.80566411                0.76371662                0.27009234                0.25028101               -0.92927591                0.13699962                1.21535047               -0.70711445
               4.71792038               10.38001829               20.59595481                0.50222867                0.99383226                0.49404947               -1.72711729               -0.77026310               21.64019188               -1.56686896
               5.73391136               10.23720050               20.78159561                0.44079193                0.92472583                0.12518139               -0.93388625               -0.61994225               40.93247692               -0.35386048
               6.73641490               10.09556076               20.95334982                0.43239116               -0.30585957                0.29316891               -0.25416696               -0.32594229               40.39986947                0.05996257
               7.72779417                9.95231052               21.12633158                0.45086975               -1.45569174                0.40236898                0.38607200               -0.41162715               41.03084381                0.42207740
               8.70730106                9.80768264               21.31050797                0.49430767               -2.91605951                0.61553878                1.03827564               -1.10968493               42.83043844                0.90450653
               9.66947298                9.65475847               21.52115364                0.57194353               -2.85530397                0.01749346                1.77842611               -1.72176251               27.82171877                2.04295027
              10.65019498                9.52454472               21.40960027                0.70478070               -1.18989398               -0.49538150                1.79749559               -0.73344259                6.70736438                1.23093635
              11.64567510                9.41232369               21.20144003                0.93348879               -0.28390811               -0.22864490                0.86952158                0.11382360                1.18595720                0.63867738
              12.64451682                9.30210191               20.97955597                0.99995691               -0.11582750                0.10458450               -0.13819778                0.11879130                0.50299752               -0.83870899
               1.48821292                0.71837370               22.49335127                1.00000000               -0.55442526               -0.61282254                2.11297832               -0.11221979               -1.11324257                1.15929821
               2.48266867                0.56231326               22.35884759                1.00000000               -0.47613686               -0.45111402                1.60950061               -0.07082904               -1.14462292               -0.06718241
               3.47869019                0.40578198               22.22375696                0.69637890               -0.29510887               -0.29752164                1.09952654               -0.02998263               -0.81989002               -1.00509891
               4.47676649                0.24964204               22.09588288                0.52198371               -0.08070021               -0.16352687                0.60079297                0.01178758                1.02937847               -0.10634036
               5.47707618                0.09545727               21.99855087                0.45581600                0.09067308               -0.02425121                0.10835995                0.00783025                3.95027844               -0.09760361
               6.47857996               -0.05607842               21.93067454                0.46171366                0.15392612                0.12060256               -0.39896515               -0.02145410                5.28691773                0.01690331
               7.48015471               -0.20691576               21.86122652                0.52990695                0.20403630                0.26208202               -0.89856871               -0.00659231                3.78467899                0.10920898
               8.48266068               -0.35923013               21.76276429                0.67387824                0.34732787                0.39954393               -1.39584769               -0.00633010                1.13689025                0.16670707
               9.48710126               -0.51289022               21.63910576                0.92741119                0.54320510                0.53863571               -1.91254100               -0.03546244               -0.64537940                0.50241669
              10.49352478               -0.66670522               21.50415413                1.00000000                0.72638982                0.69154041               -2.46172533               -0.06864265               -1.05958388                0.41358213
              11.50162906               -0.82006106               21.37189297                1.00000000                0.81042753                0.86434782               -2.97558669               -0.12612790               -0.91637678               -0.98295978
               1.64315116                1.71224547               22.44455617                1.00000000               -0.48949234               -0.58467724                1.89404488               -0.03846303               -0.02613808                1.47070072
               2.63825624                1.55780212               22.30935049                0.95350470               -0.42125969               -0.41529841                1.39376467                0.00075554                0.09176701               -0.18425081
               3.63472597                1.40280676               22.17649322                0.24993905               -0.31047591               -0.25559965                0.91744978                0.04656681                1.51556191               -1.60811292
               4.63204672                1.24800677               22.06972911                0.00424039               -0.23556267               -0.12657814                0.48136222                0.15934367                4.00375180               -1.81452967
               5.63001472                1.09521476               21.98598624                0.00877548               -0.12473945               -0.01477117                0.04122292                0.27969644                6.83241006                0.60173490
               6.62955193                0.94512760               21.93434647                0.01227470                0.08249605                0.01880977               -0.40360420                0.34746032                8.42012308                0.70659326
               7.63166464                0.79570506               21.88123737                0.00943873                0.30163386                0.05781318               -0.83406184                0.29106097                6.81036305                0.70688273
               8.63558461                0.64476530               21.79773779                0.21666292                0.44097721                0.33037127               -1.26002131                0.13052590                4.06861528                2.08498857
               9.64048418                0.49249613               21.69071596                0.59701050                0.54195824                0.47922478               -1.70375465                0.04138727                2.06439929                1.71170700
              10.64642378                0.34021018               21.56762668                1.00000000                0.66197179                0.63771351               -2.16546611                0.00321786                0.73875004                0.81553321
              11.65372362                0.18858242               21.43406398                1.00000000                0.72998424                0.83289349               -2.69880990               -0.05160295                0.22062704               -1.04794120
               1.79633037                2.70668015               22.40202008                1.00000000               -0.42078763               -0.52581349                1.68849740               -0.04545624                0.19885489                1.71027205
               2.79212249                2.55400729               22.25752101                0.72332278               -0.34567488               -0.33909471                1.13993097               -0.00795369                0.40463560               -0.55855981
               3.78941687                2.40066998               22.11711445                0.09285232               -0.22885621               -0.15564785                0.63191277                0.03206860                2.24249676               -2.82491617
               4.78754537                2.24711048               22.00938991                0.00010000               -0.19337953               -0.05966300                0.26782743                0.14579373                8.16771007               -1.21833802
               5.78554928                2.09516185               21.98733837                0.00010000               -0.12532504               -0.03784671                0.01565071                0.30385651               11.81774648                0.87424432
               6.78503887                1.94429777               21.95170735                0.00010000                0.03944710               -0.10899865               -0.30987398                0.38280600               11.04142130                1.51647270
               7.78633822                1.79424050               21.91307346                0.00010000                0.17206276               -0.14092579               -0.64155572                0.47540871               10.74676415                2.04635757
               8.78848012                1.64737729               21.87093849                0.07639091                0.30729542               -0.01247139               -0.96762323                0.31605964                7.48016720                3.73255330
               9.79248413                1.49669427               21.76640767                0.31916777                0.45113669                0.23957664               -1.34520463               -0.01629406                3.22464082                4.46696587
              10.79750286                1.34604905               21.63903476                0.77240369                0.56841983                0.50917216               -1.84828585               -0.04321326                1.24871180                1.63223909
              11.80385253                1.19659681               21.49477094                1.00000000                0.63496710                0.80032357               -2.42680456               -0.08599180                0.41022897               -0.94405615
               1.94758776                3.70172920               22.35807117                1.00000000               -0.34804277               -0.46050823                1.47182007               -0.04598553                0.04386098                1.55224639
               2.94410733                3.55102022               22.20053286                0.67215311               -0.26618026               -0.25872815                0.87239904               -0.00468791                0.16608321               -0.82839384
               3.94226416                3.39969380               22.04541585                0.06838969               -0.18183008               -0.05162083                0.29106461               -0.02546466                5.52283376               -3.34117541
               4.94047073                3.24681351               21.99501473                0.00010000               -0.16798023               -0.02844808                0.24765556               -0.03693591               12.66156775                0.32827349
               5.93890455                3.09445783               21.98242946                0.00010000               -0.11706641               -0.07733581               -0.00984966                0.04493725               14.73563652                0.69490404
               6.93812940                2.94294763               21.97276497                0.00010000               -0.04056291               -0.14374886               -0.22587859                0.10469249               14.75732500                1.81514878
               7.93809329                2.79288654               21.95984549                0.00010000                0.06613136               -0.18729064               -0.45652830                0.13698320               14.25622043                3.03633676
               8.93945203                2.64451588               21.93924828                0.08029753                0.16966250               -0.29498361               -0.72020891                0.14008302               11.64934512                4.32341182
               9.94148654                2.49728767               21.87325318                0.31039063                0.31024709               -0.00913832               -0.82736163                0.02699591                5.00691655                5.21484776
              10.94565697                2.35039363               21.71879712                0.72070579                0.47108574                0.38074971               -1.46493671               -0.01201641                0.33432935                1.84254285
              11.95090826                2.20458889               21.55878564                1.00000000                0.52512856                0.76236166               -2.13467689               -0.06199616                0.06180641               -0.76283704
               2.09682861                4.69746999               22.31242180                1.00000000               -0.27644807               -0.39044648                1.25086682               -0.04476973                0.02289180                1.44213364
               3.09406413                4.54883273               22.14323966                0.64414589               -0.18571601               -0.17985908                0.60926062               -0.00092666                0.09639374               -0.85221613
               4.09311429                4.39963757               21.97549675                0.05652057               -0.10107517                0.03611229               -0.02232413               -0.13579029                8.14765899               -3.18755580
               5.09204263                4.24654151               21.96731710                0.00010000               -0.14001921                0.00608883                0.06442021               -0.25333543               17.24653879               -0.58641688
               6.09031391                4.09361513               21.98137334                0.00010000               -0.16693119               -0.06251785               -0.03629752               -0.23227753               18.48251757                0.77941484
               7.08870400                3.94142279               21.99728706                0.00010000               -0.14021342               -0.15464312               -0.14480648               -0.23259570               18.57621251                2.04877737
               8.08750964                3.79049469               22.01238234                0.00010000               -0.09116734               -0.26074560               -0.26886613               -0.22541088               18.47025969                3.50557912
               9.08688066                3.64147762               22.02509716                0.08897587               -0.01816691               -0.33694453               -0.42192722               -0.15189507               14.80458895                5.33402978
              10.08714630                3.49651151               21.96539419                0.32285620                0.15403239               -0.11449463               -0.39323240               -0.02672317                5.69754071                4.03163039
              11.08996130                3.35366404               21.79477306                0.73529274                0.35378872                0.28063615               -1.10575987               -0.00006150                0.09044890                1.46756971
              12.09422207                3.21184404               21.62248996                1.00000000                0.42607703                0.67169918               -1.83478989               -0.04477720                0.01186463               -0.86979863
               2.24396689                5.69392027               22.26629009                1.00000000               -0.20456665               -0.31978131                1.03000377               -0.04440933                0.02023622                1.40237692
               3.24192122                5.54742304               22.08569336                0.61876625               -0.10636613               -0.10213882                0.34635124                0.00196681                0.10046582               -0.87214960
               4.24183956                5.40041605               21.90666408                0.04623628               -0.02473805                0.12005075               -0.32685738               -0.26089968               10.58478696               -3.12254711
               5.24142646                5.24693529               21.93571235                0.00010000               -0.12309209                0.08808022               -0.12864361               -0.53360108               21.71547398               -0.87788389
               6.23937772                5.09320747               21.97914644                0.00010000               -0.24142609               -0.00005386               -0.08520252               -0.57066078               22.53423963                0.63796843
               7.23659794                4.93985477               22.02405814                0.00010000               -0.29237346               -0.13843224               -0.06310481               -0.62973455               22.68378710                2.14088214
               8.23353025                4.78767163               22.06965075                0.00010000               -0.31003128               -0.29082130               -0.06695322               -0.66953326               22.76866607                3.77209520
               9.23039731                4.63777699               22.11503737                0.09780168               -0.23822980               -0.40686808               -0.10772519               -0.47974839               17.31713300                5.58799704
              10.22876566                4.49499777               22.04990810                0.33630532               -0.00370528               -0.18913772                0.00913513               -0.11922942                5.97363632                3.44736015
              11.23032321                4.35600635               21.86740451                0.75361076                0.24435281                0.18770480               -0.76024266               -0.00207795                0.06391956                1.17486745
              12.23365271                4.21802287               21.68375845                1.00000000                0.33295073                0.56440911               -1.54492613               -0.04317621                0.01077437               -1.06442962
               2.38893488                6.69107436               22.21984762                1.00000000               -0.13271940               -0.24987371                0.80904136               -0.04389955                0.02118397                1.37294826
               3.38760769                6.54678995               22.02791413                0.59489759               -0.02754146               -0.02441959                0.08414785                0.00456949                0.11701235               -0.89187197
               4.38838405                6.40203858               21.83785439                0.03658885                0.04857488                0.20536503               -0.62897671               -0.38274765               12.96005640               -3.11891687
               5.38857919                6.24830312               21.90272567                0.00010000               -0.12014206                0.20093197               -0.32528023               -0.80954772               26.13471144               -1.03016438
               6.38598121                6.09361406               21.97601880                0.00010000               -0.34670161                0.09915088               -0.13666547               -0.92612401               26.67887524                0.51159789
               7.38164515                5.93865415               22.05137087                0.00010000               -0.48922291               -0.08289207                0.02166358               -1.06142200               26.91978896                2.08137493
               8.37619675                5.78467826               22.12872482                0.00010000               -0.58428052               -0.29539609                0.14975296               -1.14714005               27.15122414                3.79698916
               9.36995954                5.63334026               22.20751177                0.10674614               -0.48322019               -0.47743582                0.23789859               -0.82777171               19.55838616                5.72838719
              10.36653235                5.49272875               22.13134925                0.35006078               -0.15324488               -0.26572306                0.39821106               -0.20392609                5.97767237                3.17134614
              11.36689465                5.35741814               21.93778098                0.77272922                0.13965750                0.09473116               -0.42449542               -0.00532756                0.06302155                0.98279783
              12.36932550                5.22313223               21.74309510                1.00000000                0.24308541                0.45838516               -1.26248720               -0.04290541                0.01084422               -1.20213012
               2.53165771                7.68892280               22.17311907                1.00000000               -0.06093271               -0.18127644                0.58839443               -0.04333595                0.02164176                1.34299390
               3.53104839                7.54693465               21.96988313                0.57233925                0.05068641                0.05360513               -0.17705061                0.00722363                0.13732304               -0.91121496
               4.53267144                7.40452335               21.76891297                0.02733032                0.13058219                0.29258704               -0.92904548               -0.48817656               15.27029109               -3.11703163
               5.53366003                7.25095393               21.86826773                0.00010000               -0.10836159                0.33001732               -0.51600939               -1.03361320               30.50221486               -1.14393498
               6.53050421                7.09519049               21.97172999                0.00010000               -0.46773693                0.22171876               -0.18526344               -1.22605248               30.85216747                0.37012192
               7.52430529                6.93819692               22.07774525                0.00010000               -0.73014330                0.01951543                0.11108751               -1.44694837               31.20383832                1.86424969
               8.51590134                6.78176371               22.18761998                0.00010000               -0.92569529               -0.25640238                0.38075879               -1.62745713               31.65430414                3.58293375
               9.50579139                6.62822827               22.30164219                0.11583093               -0.76460457               -0.52476792                0.62005072               -1.19202729               21.70035683                5.72052333
              10.50060925                6.48968331               22.21104975                0.36405130               -0.29891031               -0.34340494                0.77877296               -0.28709313                5.80417554                3.00193770
              11.49981318                6.35790097               22.00673513                0.79258230                0.03785887                0.00199931               -0.09538340               -0.00953587                0.06664338                0.87172601
              12.50136643                6.22719058               21.80123783                1.00000000                0.15532505                0.35461481               -0.98545887               -0.04323702                0.01109040               -1.27105427
               2.67204446                8.68744883               22.12606326                1.00000000                0.01071513               -0.11512705                0.36836533               -0.04263476                0.02849658                1.31840121
               3.67215161                8.54786205               21.91162600                0.55098113                0.12783949                0.13299788               -0.43685444                0.00918288                0.17009536               -0.94232415
               4.67460125                8.40789032               21.69996822                0.01827443                0.25440890                0.38069936               -1.22616927               -0.58087764               17.54244345               -3.01775377
               5.67723979                8.25490347               21.83289786                0.00010000               -0.01920412                0.41344679               -0.69378047               -1.15979821               34.80413154               -1.08734340
               6.67421716                8.09804843               21.96593356                0.00010000               -0.55534090                0.30410055               -0.22892496               -1.30696061               34.94885806                0.23334623
               7.66613297                7.93904446               22.10127141                0.00010000               -1.03004484                0.19410658                0.19955055               -1.58552816               35.42656589                1.44157068
               8.65361627                7.77955021               22.24333617                0.00010000               -1.39667879               -0.07400861                0.61457513               -1.98568720               36.27178137                2.94094149
               9.63819939                7.62284490               22.39506082                0.12509639               -1.12492406               -0.48977117                1.02690272               -1.61420812               23.93079506                5.27235679
              10.63111779                7.48586065               22.28958380                0.37830832               -0.45013636               -0.41895488                1.15229900               -0.39454761                5.61443305                2.78918067
              11.62919666                7.35745812               22.07498370                0.81327724               -0.06181185               -0.09062863                0.22922128               -0.01601850                0.08893843                0.84733945
              12.62988155                7.23022452               21.85890638                1.00000000                0.06848844                0.25392656               -0.71195611               -0.04389146                0.01861683               -1.28657791
               2.80997857                9.68662026               22.07882381                1.00000000                0.08119770               -0.05259241                0.15081238               -0.04159567                0.00158420                1.11866294
               3.81079055                9.54959461               21.85288224                0.53050669                0.20169509                0.21401906               -0.69631226                0.00876119                0.29992889               -0.85396626
               4.81401248                9.41213734               21.63285047                0.00902710                0.47577032                0.46266822               -1.51274573               -0.71196435               19.92002077               -2.27630364
               5.82030596                9.25922286               21.79922238                0.00010000                0.31057640                0.25901143               -0.84926645               -0.94781320               38.97632574               -0.65883775
               6.82022400                9.10127250               21.95881151                0.00010000               -0.46065058                0.30694339               -0.26664523               -0.92645421               38.76247045                0.11619568
               7.81109295                8.94207906               22.11943947                0.00010000               -1.39184224                0.36671271                0.27537212               -1.13300110               39.33833045                0.79696644
               8.79238716                8.78028353               22.28997962                0.00010000               -2.19480814                0.37664807                0.82010764               -1.69929988               40.83375014                1.68974100
               9.76719678                8.61843285               22.48092521                0.13465281               -1.71410429               -0.16793135                1.41992976               -1.69017559               26.47049424                3.47930866
              10.75810507                8.48130421               22.36532393                0.39283368               -0.60339217               -0.47530675                1.50969667               -0.55822567                5.80406536                1.96845260
              11.75512894                8.35608840               22.14348894                0.83486937               -0.15746336               -0.18207753                0.55258808               -0.02518559                0.23776101                0.76578722
              12.75495581                8.23226911               21.91651771                0.99996635               -0.01731335                0.15750354               -0.44134738               -0.04592649               -0.01553155               -1.08335067
               2.94526384               10.68639698               22.02774876                1.00000000                0.15459110               -0.02232726               -0.07286259                0.10307146                0.57146197                0.92839935
               3.94680975               10.55214243               21.79630192                0.75936782                0.27349332                0.25478264               -0.94352570                0.13925498                1.26115330               -0.74119356
               4.95073370               10.41714369               21.57858850                0.50184026                1.11693058                0.50063504               -1.74699048               -0.93081423               22.51384672               -1.62674758
               5.96914836               10.26008369               21.77211594                0.44125258                1.10490900                0.08608318               -0.96435478               -0.76357917               42.58935019               -0.37609101
               6.97283188               10.10418730               21.95060875                0.43259178               -0.23432260                0.29148012               -0.29757402               -0.42446108               42.01403922                0.05534613
               7.96446191                9.94637871               22.12991918                0.45068801               -1.47777026                0.42996559                0.32685825               -0.51831001               42.66035019                0.43573007
               8.94327648                9.78708317               22.32052902                0.49368775               -3.05433550                0.67996403                0.96031321               -1.25569012               44.53794080                0.94523453
               9.90337520                9.61948627               22.53847686                0.57056591               -3.04893798                0.10534251                1.67933926               -1.91859134               29.27146099                2.15396475
              10.88229772                9.47635452               22.42758274                0.70131885               -1.28235698               -0.49496974                1.79837541               -0.86422031                7.31434552                1.29504595
              11.87772806                9.35381657               22.21010419                0.92469319               -0.28480598               -0.22718245                0.86323466                0.11091563                1.25315642                0.67277342
              12.87660160                9.23337459               21.97808929                0.99995169               -0.11264591                0.11054846               -0.15477584                0.12038115                0.52946874               -0.87945162
               1.61391344                0.78003309               23.51449514                1.00000000               -0.55644625               -0.61445976                2.11597692               -0.11126907               -1.15055589                1.19447371
               2.60834898                0.61218538               23.37495175                1.00000000               -0.48044972               -0.45147961                1.61105509               -0.06986643               -1.18522041               -0.07391936
               3.60430444                0.44381619               23.23475499                0.69352456               -0.31788913               -0.29460295                1.09931400               -0.04904991               -0.85784538               -1.02212773
               4.60199119                0.27531587               23.10188813                0.52149879               -0.13940519               -0.16245420                0.59904536               -0.03017914                0.99873507               -0.10926491
               5.60151634                0.10737017               22.99960715                0.45590910                0.02318332               -0.02123163                0.10154992               -0.03109513                3.91456112               -0.10004935
               6.60245486               -0.05954447               22.92661466                0.46156606                0.13956004                0.12502458               -0.41408160               -0.04240115                5.24892312                0.01947461
               7.60430754               -0.22612220               22.85213404                0.52889582                0.24963993                0.26791937               -0.92052546               -0.03594046                3.75439329                0.11606179
               8.60744766               -0.39317164               22.74868870                0.67107694                0.40042919                0.40623268               -1.41945270               -0.03792539                1.10123624                0.17546205
               9.61231613               -0.56045894               22.61986919                0.92100161                0.57268133                0.54374056               -1.93461284               -0.05234260               -0.70550386                0.51402009
              10.61890129               -0.72736366               22.47942314                1.00000000                0.73877289                0.69652696               -2.48407062               -0.06923012               -1.11775558                0.44669321
              11.62709158               -0.89371928               22.34202970                1.00000000                0.81902975                0.87241546               -2.99658317               -0.12538246               -0.95658762               -1.03762092
               1.78064846                1.77388849               23.46350453                1.00000000               -0.48896991               -0.58692183                1.89580271               -0.03784804               -0.01493541                1.51229104
               2.77575877                1.60767058               23.32329287                0.93811541               -0.41998836               -0.41528539                1.39442826                0.00143993                0.11562673               -0.21071561
               3.77224870                1.44087016               23.18568113                0.24558922               -0.29231778               -0.25141030                0.91947230                0.01993766                1.57163526               -1.67833666
               4.76991241                1.27369133               23.07454340                0.00436278               -0.18065680               -0.12252370                0.48048273                0.05965107                4.07960338               -1.86366915
               5.76863556                1.10715785               22.98637258                0.00891801               -0.05676875               -0.06921569                0.03497738                0.09580353                6.90781668                0.61817190
               6.76877703                0.94170577               22.93023513                0.01247020                0.10630796               -0.00962231               -0.41943526                0.12188226                8.50791291                0.75635836
               7.77076172                0.77655699               22.87277854                0.00968113                0.27298695                0.06079667               -0.85799814                0.10161938                6.91731043                0.77685648
               8.77423677                0.61089069               22.78500785                0.21289976                0.40634942                0.32368305               -1.28591774                0.03077341                4.17455527                2.17149792
               9.77888871                0.44497847               22.67355100                0.58751528                0.53011902                0.47813632               -1.72902269                0.00553865                2.15402809                1.79958024
              10.78483915                0.27960161               22.54586369                1.00000000                0.66523347                0.64121936               -2.18674619               -0.00152018                0.78271309                0.85855602
              11.79219338                0.11500487               22.40696540                1.00000000                0.73542241                0.84265604               -2.72042344               -0.05150421                0.22746136               -1.10514501
               1.94559231                2.76829466               23.41890448                1.00000000               -0.41961942               -0.52850145                1.68859766               -0.04605827                0.20514797                1.75260321
               2.94139611                2.60387967               23.26890364                0.70994335               -0.34549301               -0.33710264                1.13624877               -0.00885880                0.43227464               -0.61101378
               3.93868245                2.43878798               23.12342164                0.09035709               -0.22497984               -0.14715367                0.62878178               -0.00093649                2.36492200               -2.97558679
               4.93689652                2.27286540               23.01208853                0.00010000               -0.16322401               -0.10005318                0.27102900               -0.05503305                8.41671349               -1.22020807
               5.93541797                2.10598586               22.98744923                0.00010000               -0.07015748               -0.12388809                0.00519157               -0.03778720               12.09455717                0.90732870
               6.93549337                1.94026308               22.94851734                0.00010000                0.08685240               -0.17014703               -0.32918377                0.02435055               11.29119429                1.60590824
               7.93715502                1.77509373               22.90653059                0.00010000                0.20741428               -0.16431292               -0.66767257                0.14596617               11.00876299                2.17307529
               8.93964165                1.61330202               22.86111685                0.07430395                0.32804796               -0.04355114               -0.99668678                0.11501984                7.73485328                3.87147442
               9.94371597                1.44910379               22.75284304                0.31343307                0.46014099                0.19648114               -1.36749995               -0.08041716                3.39364166                4.71024615
              10.94884447                1.28546073               22.62044565                0.75670075                0.57694970                0.50020992               -1.86922379               -0.06098525                1.31590112                1.71905128
              11.95525497                1.12313384               22.47039342                1.00000000                0.64104959                0.82221364               -2.44819742               -0.09765076                0.43921477               -0.99355440
               2.10855727                3.76331847               23.37277921                1.00000000               -0.34690085               -0.46235764                1.47005434               -0.04629170                0.04313912                1.58669594
               3.10508827                3.60092853               23.20922808                0.66004768               -0.26565180               -0.25478215                0.86637037               -0.00451801                0.17461344               -0.88447266
               4.10324424                3.43792708               23.04828365                0.06647138               -0.17371970               -0.04036115                0.28169787               -0.10808381                5.81193889               -3.50381212
               5.10161387                3.27169027               22.99748000                0.00010000               -0.13810523               -0.09889323                0.24317633               -0.26558319               13.11888709                0.33383724
               6.10048213                3.10468009               22.98226265                0.00010000               -0.07288505               -0.13271900               -0.02516036               -0.26590606               15.11475098                0.72451289
               7.10015617                2.93830283               22.97039057                0.00010000                0.00799853               -0.20102497               -0.25041174               -0.22652188               15.16343481                1.89421487
               8.10064210                2.77327073               22.95512448                0.00010000                0.11854723               -0.23929027               -0.48868421               -0.18204810               14.65210501                3.15534692
               9.10252712                2.61001966               22.93185508                0.07821941                0.22397774               -0.35248600               -0.75878118               -0.10057197               12.12556526                4.46256624
              10.10512166                2.44890809               22.86489958                0.30501177                0.35311397               -0.08367759               -0.84362578               -0.06040767                5.30863390                5.48704758
              11.10958940                2.28960581               22.70406059                0.70611787                0.48862384                0.36076686               -1.48219650               -0.01680058                0.35165448                1.94686415
              12.11489414                2.13144915               22.53733965                1.00000000                0.53047411                0.79403386               -2.15392450               -0.06469418                0.06304457               -0.79628027
               2.26944635                4.75904750               23.32491444                1.00000000               -0.27492144               -0.39119003                1.24796105               -0.04509297                0.02286165                1.47439259
               3.26669714                4.59878402               23.14929348                0.63251778               -0.18436595               -0.17542006                0.60123518                0.00000845                0.10147410               -0.90536316
               4.26575903                4.43798076               22.97521428                0.05473362               -0.09326468                0.04669565               -0.03494676               -0.25230477                8.51811915               -3.32971265
               5.26483184                4.27088753               22.96790197                0.00010000               -0.11358763               -0.03380622                0.05040946               -0.52197201               17.89242949               -0.66696425
               6.26348728                4.10333148               22.98090898                0.00010000               -0.12297773               -0.10719807               -0.05860214               -0.55068686               19.04241417                0.79484863
               7.26237229                3.93624258               22.99568991                0.00010000               -0.08450286               -0.20591184               -0.17645783               -0.56696929               19.13928956                2.12308791
               8.26179722                3.77030793               23.00949626                0.00010000               -0.01897151               -0.32047066               -0.30992409               -0.55761283               19.02654169                3.62907219
               9.26199286                3.60625230               23.02063328                0.08675442                0.05622272               -0.41324056               -0.47195206               -0.40561773               15.46463080                5.50167346
              10.26292168                3.44743023               22.96139828                0.31716950                0.19872721               -0.17542766               -0.40649124               -0.12309614                6.09299302                4.23793327
              11.26596740                3.29267606               22.78364228                0.72034551                0.36763649                0.26375489               -1.12041654               -0.00209247                0.09955622                1.54910546
              12.27027441                3.13901452               22.60405346                1.00000000                0.43070041                0.69928122               -1.85204234               -0.04419081                0.01267400               -0.90363634
               2.42818237                5.75549466               23.27657041                1.00000000               -0.20271890               -0.31981651                1.02633510               -0.04466407                0.02011998                1.43438796
               3.42615518                5.59742013               23.08910982                0.60760192               -0.10438677               -0.09748813                0.33665461                0.00327650                0.10571274               -0.92420835
               4.42609464                5.43886100               22.90332411                0.04461592               -0.01657348                0.12997432               -0.34192166               -0.39818238               11.03125992               -3.25741369
               5.42582371                5.27101414               22.93433145                0.00010000               -0.09906436                0.06997950               -0.14959192               -0.83050402               22.53285202               -0.96326260
               6.42411335                5.10253613               22.97815787                0.00010000               -0.19916881               -0.03160454               -0.11477085               -0.90361843               23.27837834                0.63935902
               7.42184034                4.93418460               23.02323922                0.00010000               -0.23166094               -0.18368693               -0.10300861               -0.98276416               23.42122580                2.21377696
               8.41948013                4.76686132               23.06873457                0.00010000               -0.22739417               -0.35135107               -0.11859700               -1.02877472               23.49273936                3.90576247
               9.41729245                4.60175485               23.11364788                0.09544572               -0.16220780               -0.48242616               -0.17225205               -0.75478154               18.13696372                5.77384444
              10.41623597                4.44539954               23.04994990                0.33034054                0.03354051               -0.23339760               -0.00149227               -0.22176225                6.44508401                3.62606972
              11.41796326                4.29488091               22.85973918                0.73818428                0.25487199                0.17643124               -0.77298718               -0.00441425                0.07214924                1.24220754
              12.42133341                4.14543477               22.66822599                1.00000000                0.33701502                0.58588106               -1.56124189               -0.04271044                0.01119770               -1.10690443
               2.58470215                6.75265117               23.22791594                1.00000000               -0.13058117               -0.24945501                0.80484472               -0.04410680                0.02094856                1.40480567
               3.58339634                6.59683426               23.02870199                0.58422321               -0.02503897               -0.01968286                0.07311338                0.00612968                0.12288136               -0.94245349
               4.58420137                6.44058024               22.83148382                0.03513906                0.05751455                0.21477139               -0.64594506               -0.53174068               13.47991837               -3.25004417
               5.58454663                6.27228712               22.89935243                0.00010000               -0.09784559                0.19876395               -0.35135437               -1.12559646               27.12041507               -1.11308393
               6.58224446                6.10269939               22.97448465                0.00010000               -0.30774058                0.08221986               -0.17266382               -1.27579844               27.60964717                0.51164801
               7.57839182                5.93256884               23.05136090                0.00010000               -0.42964928               -0.11866129               -0.02650773               -1.43558517               27.83971954                2.15481084
               8.57365147                5.76328090               23.12992440                0.00010000               -0.50164018               -0.34902926                0.08698865               -1.53378666               28.05651427                3.94096106
               9.56835901                5.59660378               23.20950651                0.10426669               -0.41455466               -0.54176599                0.15788180               -1.11651107               20.52312952                5.94397394
              10.56536038                5.44276228               23.13529370                0.34383559               -0.12575656               -0.29655782                0.38997219               -0.30412282                6.50246355                3.33608642
              11.56584388                5.29620469               22.93348064                0.75684412                0.14760439                0.08783819               -0.43580988               -0.00778257                0.07122467                1.04049715
              12.56831247                5.15073214               22.73038875                1.00000000                0.24685850                0.47507684               -1.27858402               -0.04255990                0.01114606               -1.25100440
               2.73893406                7.75050556               23.17897911                1.00000000               -0.05853500               -0.18054110                0.58378245               -0.04351934                0.02126214                1.37508276
               3.73834871                7.59702647               22.96805372                0.56216864                0.05364529                0.05833114               -0.18914538                0.00890096                0.14396456               -0.96003797
               4.74000696                7.44315642               22.75953425                0.02604561                0.14219674                0.30141121               -0.94746033               -0.64121123               15.86556326               -3.24432456
               5.74119264                7.27498942               22.86296960                0.00010000               -0.08456511                0.34087058               -0.54559303               -1.35441169               31.65632402               -1.21713937
               6.73831566                7.10418053               22.96968443                0.00010000               -0.43227633                0.21819104               -0.22657369               -1.58193668               31.96879062                0.37175253
               7.73254711                6.93181137               23.07859535                0.00010000               -0.67730986               -0.00312437                0.05556225               -1.82949623               32.31223559                1.93577759
               8.72476946                6.75988073               23.19108313                0.00010000               -0.85331302               -0.29661043                0.30787422               -2.02814417               32.75707355                3.73157191
               9.71548085                6.59091953               23.30739503                0.11324321               -0.71084283               -0.57169239                0.52588132               -1.48563170               22.79788733                5.96384011
              10.71055261                6.43946838               23.21881189                0.35759332               -0.28215492               -0.36336505                0.77293439               -0.38171334                6.35904373                3.15727752
              11.70983775                6.29663767               23.00573208                0.77624593                0.04373548               -0.00152647               -0.10548140               -0.01206232                0.07519482                0.92315090
              12.71142731                6.15493631               22.79130143                1.00000000                0.15895601                0.36744480               -1.00169539               -0.04299662                0.01135262               -1.32435535
               2.89078995                8.74904035               23.12972113                1.00000000                0.01335435               -0.11410282                0.36333455               -0.04282541                0.02817524                1.35184406
               3.89092350                8.59800089               22.90719388                0.54131352                0.13121192                0.13767354               -0.44984648                0.01083311                0.17809223               -0.98986165
               4.89341419                8.44660847               22.68761202                0.01716068                0.27553957                0.38875102               -1.24574017               -0.73193855               18.21849154               -3.13728768
               5.89643429                8.27910453               22.82580969                0.00010000                0.01847909                0.42822166               -0.72578655               -1.46452079               36.12791250               -1.14427941
               6.89378377                8.10706321               22.96343195                0.00010000               -0.51663022                0.30486338               -0.27431859               -1.63260939               36.24538732                0.23619204
               7.88610168                7.93250636               23.10297927                0.00010000               -0.99016743                0.18835122                0.13819715               -1.93458738               36.72445442                1.50133433
               8.87398043                7.75734870               23.24910206                0.00010000               -1.35214751               -0.08757539                0.53385039               -2.36473680               37.58685231                3.07321937
               9.85905873                7.58516993               23.40483685                0.12240151               -1.09862258               -0.50829291                0.92237253               -1.90736752               25.15620724                5.51955032
              10.85200797                7.43549498               23.30109324                0.37161185               -0.44620145               -0.42998652                1.14892113               -0.48593877                6.18329551                2.93219373
              11.85013471                7.29617416               23.07723255                0.79646547               -0.05763590               -0.09161392                0.22033133               -0.01874027                0.09909437                0.89565254
              12.85085526                7.15808103               22.85170425                1.00000000                0.07205509                0.26349133               -0.72837454               -0.04373085                0.01932514               -1.34302868
               3.04015648                9.74822351               23.08030409                1.00000000                0.08407732               -0.05125899                0.14531028               -0.04178201               -0.00129091                1.15013631
               4.04099725                9.59977994               22.84585064                0.52133210                0.20540313                0.21869371               -0.71022519                0.01012362                0.31287332               -0.89492610
               5.04426454                9.45093144               22.61762267                0.00806832                0.52251169                0.46994058               -1.53334385               -0.86284912               20.68753018               -2.36365269
               6.05144749                9.28355385               22.79057064                0.00010000                0.39985546                0.23935180               -0.88298189               -1.17049142               40.46882765               -0.68878840
               7.05226165                9.11027780               22.95591885                0.00010000               -0.39388045                0.30050034               -0.31495252               -1.14333982               40.22561573                0.11767441
               8.04356988                8.93557839               23.12188666                0.00010000               -1.37252491                0.37796747                0.20991924               -1.35846763               40.81231167                0.83096630
               9.02481115                8.75812923               23.29777794                0.00010000               -2.21913296                0.40699239                0.73423557               -1.96514721               42.36544515                1.77138326
               9.99918722                8.58075367               23.49460823                0.13185426               -1.74907760               -0.12177291                1.30993519               -1.92354191               27.83124291                3.65278859
              10.98982960                8.43086865               23.38041866                0.38589130               -0.61551606               -0.47834752                1.50868701               -0.65508496                6.39195692                2.06855881
              11.98687690                8.29480539               23.14897772                0.81753333               -0.15453266               -0.18127531                0.54503450               -0.02827745                0.25606659                0.80705012
              12.98673895                8.16020613               22.91202112                0.99997285               -0.01379491                0.16443373               -0.45782929               -0.04588894               -0.01618731               -1.13314024
               3.18684145               10.74801517               23.02698983                1.00000000                0.15765832               -0.02083376               -0.07892394                0.10445627                0.58415825                0.95674444
               4.18841804               10.60237476               22.78679360                0.75493717                0.27709219                0.25948199               -0.95835076                0.14168381                1.30812874               -0.77584680
               5.19238330               10.45600728               22.56101500                0.50141449                1.26300367                0.50758351               -1.76819744               -1.11228390               23.38679386               -1.68745011
               6.21367811               10.28389157               22.76230851                0.44169026                1.32545710                0.03377168               -0.99913147               -0.92364090               44.24069394               -0.39890591
               7.21889244               10.11307321               22.94739834                0.43279089               -0.12986040                0.27954176               -0.34769735               -0.52821447               43.61998781                0.05013287
               8.21108090                9.94006570               23.13286875                0.45050102               -1.46951180                0.44873109                0.25876154               -0.62813101               44.27904019                0.44889825
               9.18950220                9.76548854               23.32971423                0.49304393               -3.16162129                0.73593166                0.87120580               -1.39745665               46.23287412                0.98584941
              10.14784848                9.58273447               23.55474042                0.56914096               -3.23238219                0.19807975                1.56642711               -2.11189983               30.77404523                2.26581320
              11.12485456                9.42592803               23.44556778                0.69777801               -1.38084024               -0.49406174                1.79817443               -1.00679507                7.98171853                1.36086708
              12.12023167                9.29254865               23.21870472                0.91585171               -0.28592840               -0.22567378                0.85686526                0.10756137                1.32257769                0.70765071
              13.11913599                9.16136971               22.97646046                0.99994686               -0.10956800                0.11635746               -0.17071877                0.12180998                0.55654840               -0.92124056
               1.74428859                0.84424440               24.53567080                1.00000000               -0.55841762               -0.61624437                2.11930999               -0.11045894               -1.18780399                1.22938766
               2.73870441                0.66415263               24.39106869                1.00000000               -0.48458447               -0.45167176                1.61204336               -0.06908632               -1.22591449               -0.08142767
               3.73459690                0.48348715               24.24574324                0.69054500               -0.34076878               -0.29137723                1.09758258               -0.06919738               -0.89591057               -1.03753636
               4.73188904                0.30214620               24.10786379                0.52095136               -0.19780104               -0.16132055                0.59492225               -0.07225700                0.96659192               -0.11239880
               5.73064088                0.11992542               24.00058186                0.45597902               -0.04287552               -0.01893026                0.09197511               -0.06996053                3.87425426               -0.10266981
               6.73103153               -0.06292989               23.92239290                0.46139227                0.12638230                0.12819740               -0.43157028               -0.06317588                5.20519381                0.02183569
               7.73316853               -0.24588352               23.84281601                0.52785531                0.29593634                0.27291545               -0.94406197               -0.06450470                3.72085136                0.12280882
               8.73695025               -0.42835919               23.73437523                0.66819893                0.45441125                0.41263055               -1.44383259               -0.06919545                1.06587448                0.18420530
               9.74225675               -0.60997343               23.60041350                0.91443816                0.60294563                0.54873255               -1.95663467               -0.06944772               -0.76480755                0.52421787
              10.74900917               -0.79065246               23.45447272                1.00000000                0.75137152                0.70112451               -2.50573954               -0.07012664               -1.17519558                0.48213689
              11.75728418               -0.97068489               23.31196131                1.00000000                0.82750141                0.88006883               -3.01666913               -0.12472004               -0.99526489               -1.09188571
               1.92327577                1.83808196               24.48247222                1.00000000               -0.48835945               -0.58934358                1.89789072               -0.03728394               -0.00246735                1.55344906
               2.91839217                1.65963591               24.33723906                0.92244773               -0.41838125               -0.41504122                1.39451258                0.00189152                0.14202733               -0.23970152
               3.91490814                1.48057338               24.19488267                0.24109312               -0.27224201               -0.24657117                0.92017185               -0.00846981                1.62939485               -1.75076094
               4.91294733                1.30053299               24.07933876                0.00447782               -0.12144132               -0.11882406                0.47759095               -0.04371276                4.15363306               -1.91134717
               5.91247932                1.11973612               23.98668578                0.00904440                0.01784521               -0.12535296                0.02662761               -0.09050889                6.97742549                0.63208610
               6.91330424                0.93835208               23.92595777                0.01264058                0.13794064               -0.04048035               -0.43673265               -0.10703082                8.58761647                0.80468948
               7.91523813                0.75684564               23.86407741                0.00991242                0.24995084                0.06197887               -0.88254720               -0.09197633                7.01956884                0.84663403
               8.91830326                0.57576711               23.77201944                0.20900136                0.37353884                0.31593698               -1.31180998               -0.07086254                4.28026163                2.25762401
               9.92270891                0.39551390               23.65613551                0.57778823                0.51801877                0.47620203               -1.75386865               -0.03184584                2.24654339                1.88923345
              10.92866363                0.21635879               23.52389176                1.00000000                0.66802515                0.64428143               -2.20716083               -0.00683836                0.82901947                0.90352892
              11.93606941                0.03811580               23.37965551                1.00000000                0.74057798                0.85181841               -2.74086962               -0.05144304                0.23437694               -1.16162483
               2.10043500                2.83245753               24.43579203                1.00000000               -0.41841752               -0.53144023                1.68911640               -0.04671987                0.21078588                1.79422942
               3.09625082                2.65585181               24.28024599                0.69642320               -0.34522845               -0.33474913                1.13187091               -0.00994035                0.46150791               -0.66668185
               4.09353043                2.47855573               24.12969009                0.08779556               -0.21993876               -0.13742269                0.62416403               -0.03696130                2.49422344               -3.13276961
               5.09185205                2.29976972               24.01481049                0.00010000               -0.12594091               -0.14280905                0.27257716               -0.26076142                8.66556229               -1.22601977
               6.09101161                2.11741836               23.98744221                0.00010000               -0.00353263               -0.21238902               -0.00774414               -0.38497630               12.36287656                0.93557211
               7.09178139                1.93626050               23.94512367                0.00010000                0.14511809               -0.23463622               -0.35038612               -0.34151393               11.53541510                1.69156642
               8.09391397                1.75535606               23.89972001                0.00010000                0.25416749               -0.19089102               -0.69484792               -0.19341042               11.26765144                2.29704711
               9.09686474                1.57795955               23.85100476                0.07211436                0.35570954               -0.07581717               -1.02563096               -0.09602324                7.99250211                4.00604964
              10.10102816                1.39955061               23.73905767                0.30753790                0.47028768                0.14797388               -1.38904800               -0.14907872                3.56777994                4.95948225
              11.10627050                1.22223317               23.60165028                0.74089658                0.58565656                0.48877496               -1.88924938               -0.08063833                1.38454753                1.80890866
              12.11274129                1.04635148               23.44580699                1.00000000                0.64707961                0.84437226               -2.46816211               -0.11108759                0.46866507               -1.04125657
               2.27555282                3.82745315               24.38747225                1.00000000               -0.34576471               -0.46454449                1.46880168               -0.04658344                0.04223873                1.62071657
               3.27209517                3.65294093               24.21786027                0.64779369               -0.26509024               -0.25040437                0.85977925               -0.00426335                0.18345326               -0.94260516
               4.27025101                3.47782493               24.05104981                0.06446059               -0.16128467               -0.02764405                0.27072286               -0.19631820                6.10550802               -3.67200735
               5.26886947                3.29767681               23.99987825                0.00010000               -0.09810030               -0.17094694                0.23430392               -0.49960613               13.57763219                0.32953697
               6.26828900                3.11548834               23.98192625                0.00010000               -0.01666061               -0.19007411               -0.04353877               -0.58274028               15.48820027                0.74810393
               7.26853626                2.93365936               23.96775674                0.00010000                0.06909372               -0.26123016               -0.27744592               -0.56696987               15.56459119                1.96784356
               8.26967088                2.75302781               23.95007180                0.00010000                0.18259877               -0.29450052               -0.52246454               -0.51127334               15.04375951                3.26829505
               9.27218824                2.57425077               23.92407266                0.07604211                0.28914163               -0.41206265               -0.79752240               -0.35739690               12.61130370                4.59323105
              10.27545371                2.39847337               23.85638067                0.29947151                0.40308791               -0.16653799               -0.86016553               -0.15737403                5.62239450                5.76444424
              11.28025000                2.22613428               23.68915319                0.69142296                0.50786634                0.33671957               -1.49883780               -0.02216874                0.36913776                2.05446620
              12.28561104                2.05500324               23.51570715                1.00000000                0.53610423                0.82667503               -2.17156474               -0.06750910                0.06403428               -0.82795295
               2.44852777                4.82316664               24.33738102                1.00000000               -0.27339884               -0.39233081                1.24562311               -0.04540933                0.02275641                1.50674323
               3.44579378                4.65084372               24.15526437                0.62074582               -0.18297920               -0.17052837                0.59264028                0.00114060                0.10679098               -0.96027331
               4.44486818                4.47800285               23.97479781                0.05286439               -0.07986338                0.05866532               -0.04916346               -0.37504125                8.89029182               -3.47550827
               5.44419651                4.29635078               23.96832529                0.00010000               -0.07469652               -0.07286165                0.03215441               -0.80028532               18.53858329               -0.75577413
               6.44337425                4.11361688               23.98020129                0.00010000               -0.06469973               -0.15346809               -0.08471826               -0.87831802               19.59867858                0.80346219
               7.44290252                3.93103590               23.99375790                0.00010000               -0.01385796               -0.26000262               -0.21140550               -0.91206669               19.69739775                2.19064183
               8.44309710                3.74946605               24.00618386                0.00010000                0.06843643               -0.38345430               -0.35360557               -0.90060510               19.57715720                3.74434537
               9.44427125                3.56971829               24.01565812                0.08443869                0.14500357               -0.49350594               -0.52352907               -0.67565927               16.14088246                5.65846481
              10.44599717                3.39621985               23.95726436                0.31134461                0.25130022               -0.24248100               -0.42070201               -0.23142090                6.50856813                4.44769000
              11.44929725                3.22896756               23.77236473                0.70532455                0.38280126                0.24389250               -1.13492558               -0.00473806                0.10907454                1.63246629
              12.45365319                3.06288498               23.58544911                1.00000000                0.43559404                0.72731250               -1.86807459               -0.04365677                0.01333428               -0.93730691
               2.61929047                5.81960654               24.28681679                1.00000000               -0.20086955               -0.32024305                1.02317660               -0.04491839                0.01998341                1.46674196
               3.61728177                5.64953036               24.09242645                0.59631956               -0.10236692               -0.09233679                0.32633015                0.00476749                0.11132141               -0.97764366
               4.61724313                5.47899823               23.89982565                0.04291334               -0.00160166                0.14123556               -0.35861636               -0.54234937               11.47779168               -3.39511343
               5.61724974                5.29621958               23.93272051                0.00010000               -0.06028038                0.05262593               -0.17461019               -1.13945596               23.34879853               -1.05434884
               6.61603752                5.11241897               23.97685102                0.00010000               -0.14019894               -0.06482078               -0.14860078               -1.24844233               24.01883854                0.63463219
               7.61444576                4.92845931               24.02199797                0.00010000               -0.15305689               -0.23208307               -0.14717052               -1.34814854               24.15269840                2.27961945
               8.61297638                4.74535873               24.06727881                0.00010000               -0.12622551               -0.41585646               -0.17428127               -1.39971584               24.20862123                4.03032118
               9.61192125                4.56438065               24.11159233                0.09300178               -0.07001776               -0.56228545               -0.24032953               -1.04766904               18.98060002                5.94715073
              10.61157603                4.39362375               24.04987825                0.32424058                0.07844287               -0.28156779               -0.01344245               -0.33790981                6.94635718                3.80807860
              11.61349011                4.23101213               23.85194477                0.72270053                0.26635182                0.16338146               -0.78597466               -0.00737126                0.08099943                1.31061121
              12.61690306                4.06954949               23.65253362                1.00000000                0.34129576                0.60758578               -1.57681681               -0.04231339                0.01152897               -1.15065825
               2.78778174                6.81676178               24.23594451                1.00000000               -0.12843105               -0.24936378                0.80105064               -0.04431595                0.02073860                1.43713313
               3.78649743                6.64899698               24.02937640                0.57342406               -0.02248800               -0.01441826                0.06139710                0.00782699                0.12926441               -0.99396110
               4.78733198                6.48082756               23.82493549                0.03361027                0.07446088                0.22552123               -0.66457330               -0.68849958               13.99878241               -3.38321244
               5.78798665                6.29740330               23.89569858                0.00010000               -0.05831532                0.19671506               -0.38132309               -1.45602491               28.10298516               -1.19973527
               6.78616568                6.11232046               23.97256552                0.00010000               -0.24934288                0.06296349               -0.21339105               -1.63961529               28.53561624                0.50687417
               7.78299979                5.92639424               24.05084072                0.00010000               -0.34921212               -0.15825993               -0.07998089               -1.82330015               28.75185167                2.22195213
               8.77918144                5.74114892               24.13046459                0.00010000               -0.39734762               -0.40706186                0.01847284               -1.93274504               28.95058584                4.07639265
               9.77505284                5.55847258               24.21066941                0.10170253               -0.32869746               -0.61029604                0.07191824               -1.42306486               21.51977317                6.14743957
              10.77260749                5.39058850               24.13914870                0.33748354               -0.09143781               -0.32972170                0.38039982               -0.41801734                7.06738198                3.50415930
              11.77322409                5.23223519               23.92906479                0.74091325                0.15623591                0.07999758               -0.44757390               -0.01071862                0.08022502                1.09891815
              12.77573220                5.07503669               23.71752342                1.00000000                0.25081194                0.49192384               -1.29432891               -0.04226362                0.01141768               -1.30192649
               2.95393374                7.81461926               24.18479472                1.00000000               -0.05612054               -0.18005227                0.57947155               -0.04369080                0.02093517                1.40765074
               3.95337253                7.64924200               23.96610023                0.55186267                0.05665450                0.06354563               -0.20189893                0.01072610                0.15126467               -1.00936667
               4.95506683                7.48350866               23.74996377                0.02468378                0.16319033                0.31142965               -0.96742054               -0.80324165               16.45919693               -3.37290210
               5.95663634                7.30015388               23.85735587                0.00010000               -0.04062769                0.35067673               -0.57897408               -1.69194779               32.80569820               -1.29249589
               6.95425427                7.11367824               23.96719851                0.00010000               -0.37425180                0.21086914               -0.27306361               -1.95350616               33.07902833                0.36998649
               7.94915130                6.92529411               24.07885649                0.00010000               -0.60055679               -0.03072046               -0.00633629               -2.22543013               33.41089806                2.00252521
               8.94224314                6.73721749               24.19377746                0.00010000               -0.75654626               -0.34145642                0.22749623               -2.44025399               33.84577195                3.87364351
               9.93402038                6.55217473               24.31215982                0.11055916               -0.63950296               -0.62249436                0.42286398               -1.79543301               23.93538476                6.19782957
              10.92945308                6.38702932               24.22650844                0.35099277               -0.25964205               -0.38453693                0.76578967               -0.48910650                6.96392722                3.31604394
              11.92882753                6.23261209               24.00462550                0.75985849                0.05008514               -0.00548303               -0.11607408               -0.01489456                0.08471950                0.97524667
              12.93045478                6.07938797               23.78120392                1.00000000                0.16272455                0.38037798               -1.01780378               -0.04278959                0.01164796               -1.37991829
               3.11766245                8.81316073               24.13332995                1.00000000                0.01601084               -0.11324887                0.35852753               -0.04298793                0.02790746                1.38568408
               4.11782256                8.65026790               23.90262908                0.53151498                0.13464105                0.14271849               -0.46336380                0.01261612                0.18682713               -1.03765792
               5.12035527                8.48705615               23.67505342                0.01596348                0.30777744                0.39763208               -1.26655461               -0.89374087               18.89248726               -3.25751947
               6.12397811                8.30441683               23.81838213                0.00010000                0.08000264                0.43971944               -0.76145434               -1.78841579               37.44569200               -1.20234071
               7.12195532                8.11653785               23.96044719                0.00010000               -0.45130817                0.29906734               -0.32527160               -1.97354861               37.53405694                0.23698233
               8.11495194                7.92577983               24.10403536                0.00010000               -0.92297949                0.17574002                0.06952542               -2.29446314               38.01116485                1.55819392
               9.10349574                7.73431979               24.25401318                0.00010000               -1.28097956               -0.10592342                0.44396856               -2.75128880               38.88623010                3.20169033
              10.08933235                7.54602270               24.41350827                0.11961095               -1.05538674               -0.52948424                0.80629433               -2.21307421               26.42885412                5.76198142
              11.08238800                7.38289776               24.31256222                0.36477087               -0.43824056               -0.44142351                1.14443582               -0.58877621                6.81012746                3.07863197
              12.08056754                7.23212553               24.07939032                0.77959632               -0.05316784               -0.09274313                0.21102450               -0.02166146                0.11035098                0.94475400
              13.08132464                7.08264425               23.84433889                1.00000000                0.07571009                0.27310619               -0.74474088               -0.04360312                0.02009544               -1.40159458
               3.27885965                9.81235428               24.08173002                1.00000000                0.08697843               -0.05001716                0.13993003               -0.04194107               -0.00420252                1.18188840
               4.27972943                9.65209637               23.83867773                0.51200830                0.20917131                0.22358407               -0.72445515                0.01158007                0.32659305               -0.93611464
               5.28304308                9.49146130               23.60218359                0.00702618                0.58284474                0.47769320               -1.55474744               -1.02743532               21.45276621               -2.45130883
               6.29138633                9.30894827               23.78156274                0.00010000                0.51886127                0.21065035               -0.92023143               -1.41004564               41.95440031               -0.71929831
               7.29342030                9.11965959               23.95251246                0.00010000               -0.29531173                0.28465674               -0.36908665               -1.37116372               41.67976406                0.11820796
               8.28548009                8.92880891               24.12363786                0.00010000               -1.32229042                0.38063415                0.13648211               -1.58928466               42.27429601                0.86376078
               9.26697449                8.73509902               24.30466434                0.00010000               -2.21495844                0.43038923                0.63797989               -2.23286576               43.88155728                1.85177165
              10.24118092                8.54158504               24.50712391                0.12896609               -1.76998849               -0.07422704                1.18640888               -2.16139865               29.24517349                3.82534160
              11.23157472                8.37820085               24.39549767                0.37880502               -0.62665586               -0.48120742                1.50677018               -0.76240156                7.04309448                2.17119162
              12.22864781                8.23075722               24.15438963                0.80012319               -0.15147286               -0.18049690                0.53724991               -0.03156796                0.27564207                0.84912138
              13.22854527                8.08485009               23.90736112                0.99997790               -0.01025422                0.17134271               -0.47417488               -0.04589015               -0.01680885               -1.18451277
               3.43733946               10.81216039               24.02617028                1.00000000                0.16076878               -0.01938933               -0.08498363                0.10589972                0.59675560                0.98530835
               4.43894715               10.65473958               23.77713490                0.75042892                0.28076050                0.26432092               -0.97342655                0.14425254                1.35610540               -0.81081092
               5.44295467               10.49661002               23.54322455                0.50094746                1.43158788                0.51487178               -1.79020673               -1.31432783               24.25753193               -1.74837516
               6.46757890               10.30862984               23.75213331                0.44210622                1.58583706               -0.03184302               -1.03758967               -1.09969432               45.88425713               -0.42208502
               7.47467141               10.12223098               23.94365480                0.43298184                0.00739587                0.25713889               -0.40386180               -0.63675542               45.21584482                0.04434578
               8.46772682                9.93339251               24.13509441                0.45031141               -1.43045622                0.45836035                0.18241600               -0.74049761               45.88479782                0.46139627
               9.44606228                9.74292757               24.33795314                0.49237976               -3.23621328                0.78285516                0.77131700               -1.53393858               47.91240076                1.02592907
              10.40300255                9.54453816               24.56980540                0.56766889               -3.40472470                0.29531122                1.43940121               -2.30053532               32.33368950                2.37765247
              11.37796779                9.37327361               24.46354623                0.69416769               -1.48578085               -0.49272406                1.79728454               -1.16182153                8.71591882                1.42833035
              12.37328694                9.22851559               24.22724150                0.90697729               -0.28733461               -0.22416331                0.85056110                0.10378803                1.39444502                0.74324658
              13.37222110                9.08607111               23.97467492                0.99994237               -0.10658394                0.12210142               -0.18626275                0.12313512                0.58430335               -0.96417334
               1.87936159                0.91101801               25.55688134                1.00000000               -0.56033425               -0.61817563                2.12297613               -0.10980548               -1.22514064                1.26414994
               2.87375825                0.71821609               25.40719262                1.00000000               -0.48852289               -0.45168379                1.61243915               -0.06850882               -1.26689156               -0.08974647
               3.86959114                0.52478660               25.25670664                0.68746364               -0.36369210               -0.28785063                1.09429212               -0.09033203               -0.93422203               -1.05130758
               4.86648441                0.33011794               25.11378658                0.52035562               -0.25594144               -0.16002657                0.58845607               -0.11412805                0.93296273               -0.11577595
               5.86447231                0.13310894               25.00144665                0.45602038               -0.10799118               -0.01697031                0.07960880               -0.10849515                3.82959251               -0.10550067
               6.86432459               -0.06623748               24.91798325                0.46120036                0.11349655                0.13062766               -0.45185689               -0.08357284                5.15613239                0.02388560
               7.86674224               -0.26618882               24.83325280                0.52677609                0.34215371                0.27744975               -0.97009646               -0.09200422                3.68459243                0.12934690
               8.87116766               -0.46477594               24.71981205                0.66524950                0.50901252                0.41895875               -1.47003619               -0.09986322                1.03154235                0.19287953
               9.87692249               -0.66141859               24.58073650                0.90772720                0.63409554                0.55375518               -1.97943760               -0.08667577               -0.82248912                0.53287676
              10.88384957               -0.85655900               24.42930835                1.00000000                0.76433121                0.70536207               -2.52723651               -0.07134434               -1.23132197                0.51999330
              11.89220911               -1.05094541               24.28169632                1.00000000                0.83595420                0.88721019               -3.03611711               -0.12421194               -1.03194146               -1.14502507
               2.07106546                1.90483625               25.50146234                1.00000000               -0.48765905               -0.59193951                1.90031858               -0.03677398                0.01121577                1.59430454
               3.06618887                1.71369925               25.35118312                0.90651866               -0.41642845               -0.41456341                1.39399178                0.00209047                0.17098829               -0.27129407
               4.06273689                1.52190809               25.20408457                0.23646341               -0.25034536               -0.24105757                0.91947126               -0.03851495                1.68900604               -1.82549768
               5.06118196                1.32851768               25.08409522                0.00458779               -0.05859102               -0.11562149                0.47265030               -0.14988123                4.22638447               -1.95751378
               6.06156507                1.13293923               24.98690514                0.00915856                0.09778879               -0.18260543                0.01638559               -0.27794338                7.04233991                0.64299487
               7.06313773                0.93506879               24.92150048                0.01278922                0.17631788               -0.07335394               -0.45521337               -0.33771371                8.66022545                0.85083909
               8.06509143                0.73658568               24.85512759                0.01013435                0.23230884                0.06145512               -0.90767976               -0.28852119                7.11754096                0.91544101
               9.06778391                0.53941365               24.75877165                0.20497984                0.34279163                0.30728683               -1.33785626               -0.17401721                4.38582191                2.34297726
              10.07194726                0.34411896               24.63847362                0.56783585                0.50578124                0.47334294               -1.77837643               -0.07077321                2.34203328                1.98061313
              11.07789954                0.15049462               24.50172047                1.00000000                0.67030736                0.64682334               -2.22653073               -0.01278659                0.87771766                0.95050282
              12.08535340               -0.04207331               24.35214801                1.00000000                0.74538682                0.86012380               -2.75968532               -0.05150585                0.24134053               -1.21664852
               2.26090011                2.89917922               25.45268680                1.00000000               -0.41718956               -0.53462216                1.69007571               -0.04741137                0.21562925                1.83530525
               3.25672822                2.70992482               25.29154106                0.68276084               -0.34488520               -0.33206027                1.12680224               -0.01114307                0.49233811               -0.72559493
               4.25400241                2.51996545               25.13590492                0.08516526               -0.21362876               -0.12644413                0.61802675               -0.07598901                2.63092781               -3.29671301
               5.25245564                2.32780551               25.01754007                0.00010000               -0.08200441               -0.18757310                0.27259681               -0.47002518                8.91491122               -1.23726990
               6.25236232                2.12945683               24.98729435                0.00010000                0.07341120               -0.30280749               -0.02270857               -0.73537430               12.62332709                0.95794493
               7.25392387                1.93229544               24.94150962                0.00010000                0.21323204               -0.30216615               -0.37294149               -0.71259172               11.77509714                1.77205309
               8.25662696                1.73504028               24.89263363                0.00010000                0.31150816               -0.22064476               -0.72251517               -0.54078469               11.52418486                2.41679443
               9.26015403                1.54136980               24.84060423                0.06982545                0.38995416               -0.10913611               -1.05394560               -0.31657998                8.25334744                4.13533770
              10.26442605                1.34804827               24.72506208                0.30147318                0.48160390                0.09356620               -1.40919381               -0.22252815                3.74685325                5.21374517
              11.26978611                1.15637747               24.58266067                0.72499080                0.59444057                0.47430315               -1.90754761               -0.10225375                1.45420668                1.90142913
              12.27631486                0.96625707               24.42103018                1.00000000                0.65287489                0.86606376               -2.48558048               -0.12636616                0.49824002               -1.08673526
               2.44862602                3.89414381               25.40215525                1.00000000               -0.34462481               -0.46706922                1.46806437               -0.04684241                0.04118026                1.65440748
               3.44517977                3.70705804               25.22642366                0.63539743               -0.26448037               -0.24562233                0.85261326               -0.00383237                0.19262436               -1.00279657
               4.44333641                3.51937921               25.05369810                0.06236896               -0.14448498               -0.01353451                0.25812599               -0.28951441                6.40273582               -3.84593223
               5.44229007                3.32476621               25.00216608                0.00010000               -0.04843798               -0.24378602                0.22124005               -0.73758700               14.03799492                0.31393822
               6.44236765                3.12688308               24.98139187                0.00010000                0.05061858               -0.24904368               -0.06448066               -0.90374158               15.85764465                0.76452221
               7.44330245                2.92902547               24.96484165                0.00010000                0.14168600               -0.32406251               -0.30628665               -0.91482454               15.96185250                2.03461005
               8.44520137                2.73217278               24.94467519                0.00010000                0.25709395               -0.35262303               -0.55699782               -0.84906766               15.43232639                3.37357055
               9.44844432                2.53723092               24.91590463                0.07376462                0.36438221               -0.47339380               -0.83529333               -0.63032585               13.10663138                4.71375412
              10.45248902                2.34599029               24.84769627                0.29377458                0.46006695               -0.25809104               -0.87635381               -0.26449267                5.94743743                6.04543860
              11.45764566                2.15998069               24.67408384                0.67660771                0.52889339                0.30781691               -1.51413261               -0.02821405                0.38658702                2.16438207
              12.46306689                1.97524797               24.49390835                1.00000000                0.54212231                0.85924246               -2.18659744               -0.07039825                0.06466981               -0.85840957
               2.63413479                4.88983783               25.34982691                1.00000000               -0.27186224               -0.39388948                1.24381084               -0.04571133                0.02261219                1.53916509
               3.63141617                4.70501237               25.16114629                0.60884989               -0.18154195               -0.16514104                0.58341068                0.00249531                0.11242887               -1.01704691
               4.63050395                4.51969476               24.97423101                0.05091155               -0.06080696                0.07209200               -0.06503778               -0.50312912                9.26352231               -3.62503235
               5.63020003                4.32292979               24.96854506                0.00010000               -0.02378590               -0.11061721                0.00981642               -1.08672831               19.18491746               -0.85280358
               6.63002823                4.12447595               24.97921461                0.00010000                0.00688244               -0.20092685               -0.11408799               -1.21352976               20.15253433                0.80426570
               7.63033768                3.92581419               24.99146180                0.00010000                0.07059617               -0.31656499               -0.24886273               -1.26620342               20.25155421                2.24998231
               8.63144016                3.72798782               25.00242414                0.00010000                0.16961657               -0.44928840               -0.39884089               -1.25277291               20.12307948                3.84952688
               9.63373001                3.53190192               25.01016270                0.08202284                0.24731359               -0.57721742               -0.57516533               -0.96203418               16.83351282                5.80199239
              10.63638643                3.34288645               24.95298424                0.30537252                0.31170684               -0.31567584               -0.43548803               -0.35232230                6.94378236                4.65975392
              11.63996414                3.16253381               24.76094377                0.69020781                0.39929506                0.22061911               -1.14889613               -0.00811541                0.11894139                1.71656750
              12.64437233                2.98344192               24.56669197                1.00000000                0.44081842                0.75496655               -1.88237246               -0.04321876                0.01377726               -0.97207485
               2.81736271                5.88626602               25.29703394                1.00000000               -0.19899575               -0.32109640                1.02044718               -0.04516149                0.01985969                1.49930748
               3.81537275                5.70375522               25.09563642                0.58489966               -0.10031497               -0.08655520                0.31526294                0.00647554                0.11740135               -1.03254540
               4.81535641                5.52082105               24.89615179                0.04113527                0.02007776                0.15415586               -0.37706652               -0.69252347               11.92386916               -3.53567829
               5.81577431                5.32255387               24.93083925                0.00010000               -0.00718749                0.03636319               -0.20353106               -1.45901154               24.16301857               -1.15103927
               6.81521266                5.12286455               24.97518586                0.00010000               -0.06539001               -0.09932908               -0.18613499               -1.60366433               24.75631963                0.62303557
               7.81446651                4.92269417               25.02029581                0.00010000               -0.05772384               -0.28324159               -0.19474540               -1.72427137               24.87882864                2.33694986
               8.81405819                4.72318701               25.06524894                0.00010000               -0.00807478               -0.48388571               -0.23282002               -1.78066261               24.91682752                4.14369149
               9.81430501                4.52568658               25.10884129                0.09045955                0.03762486               -0.64584178               -0.31045859               -1.35849416               19.84887216                6.10519183
              10.81481068                4.33967677               25.04968105                0.31800107                0.13114368               -0.33355850               -0.02638999               -0.46836476                7.47791046                3.99276600
              11.81692789                4.16439307               24.84401969                0.70715166                0.27878058                0.14842550               -0.79903551               -0.01099757                0.09045324                1.37921656
              12.82038629                3.99034730               24.63668965                1.00000000                0.34584074                0.62906944               -1.59154895               -0.04201523                0.01171784               -1.19700598
               2.99825315                6.88341590               25.24393695                1.00000000               -0.12625013               -0.24964388                0.79755503               -0.04451138                0.02057850                1.46975679
               3.99699065                6.70328127               25.02992993                0.56250448               -0.01991563               -0.00843828                0.04886062                0.00970858                0.13626154               -1.04636673
               4.99785483                6.52277787               24.81819235                0.03199887                0.09928271                0.23797029               -0.68498092               -0.85226858               14.51621311               -3.51822528
               5.99897630                6.32365706               24.89172597                0.00010000               -0.00200947                0.19510424               -0.41500843               -1.79954771               29.08189001               -1.28995221
               6.99781464                6.12248937               24.97021683                0.00010000               -0.17232592                0.04170226               -0.25829221               -2.01623797               29.45687881                0.49661308
               7.99552978                5.92014936               25.04976129                0.00010000               -0.24900725               -0.20134686               -0.13792097               -2.22298235               29.65624257                2.28137498
               8.99283450                5.71831011               25.13029386                0.00010000               -0.27297062               -0.46909998               -0.05455369               -2.34204409               29.83325973                4.20110924
               9.99007037                5.51898508               25.21094487                0.09904080               -0.22609309               -0.68246587               -0.01885795               -1.74711363               22.55008181                6.33587959
              10.98831264                5.33621528               25.14290169                0.33099753               -0.04983527               -0.36505180                0.36967084               -0.54639896                7.67428877                3.67531101
              11.98907366                5.16550232               24.92452916                0.72492854                0.16554629                0.07119983               -0.45973607               -0.01415967                0.09003904                1.15749638
              12.99162356                4.99602331               24.70450217                1.00000000                0.25499003                0.50875846               -1.30988319               -0.04204423                0.01163547               -1.35596632
               3.17674175                7.88127314               25.19056854                1.00000000               -0.05367977               -0.17985836                0.57536070               -0.04383269                0.02068387                1.44053256
               4.17620496                7.70358646               24.96401574                0.54142789                0.05967503                0.06944749               -0.21542210                0.01266231                0.15929419               -1.05896155
               5.17793525                7.52558045               24.74018584                0.02323910                0.19334503                0.32301896               -0.98899166               -0.97372258               17.05067547               -3.50216235
               6.18007186                7.32645595               24.85139012                0.00010000                0.02301743                0.35968966               -0.61590906               -2.04519024               33.94947004               -1.36973233
               7.17839560                7.12369859               24.96422315                0.00010000               -0.29428644                0.19997654               -0.32420401               -2.33958410               34.18231831                0.36432078
               8.17418613                6.91866723               25.07846862                0.00010000               -0.50070126               -0.06302418               -0.07383261               -2.63321842               34.49919951                2.06320044
               9.16838158                6.71380501               25.19563305                0.00010000               -0.63642787               -0.39072397                0.14060131               -2.86161813               34.91937310                4.00699680
              10.16145757                6.51203726               25.31585231                0.10778027               -0.55080543               -0.67698102                0.31238829               -2.12064363               25.11579747                6.41955458
              11.15736547                6.33237573               25.23412768                0.34425777               -0.23104513               -0.40684461                0.75767514               -0.61021780                7.62233637                3.47821956
              12.15683667                6.16581707               25.00341060                0.74341828                0.05689839               -0.00986040               -0.12713650               -0.01809355                0.09530190                1.02766733
              13.15850344                6.00052247               24.77094535                1.00000000                0.16667691                0.39343151               -1.03409758               -0.04263612                0.01197202               -1.43850953
               3.35274986                8.87981874               25.13689168                1.00000000                0.01867197               -0.11260938                0.35388110               -0.04308946                0.02771270                1.41974344
               4.35293658                8.70467022               24.89792661                0.52156785                0.13805145                0.14826818               -0.47739299                0.01450513                0.19634109               -1.08524002
               5.35551088                8.52923825               24.66228093                0.01468036                0.35088912                0.40768394               -1.28851240               -1.06598836               19.56364936               -3.37746112
               6.35995436                8.33085085               24.81058060                0.00010000                0.16503994                0.44803775               -0.80045749               -2.13072930               38.75601835               -1.26106655
               7.35881168                8.12648890               24.95692652                0.00010000               -0.35976842                0.28678735               -0.38127081               -2.32878797               38.81363973                0.23543981
               8.35275899                7.91888887               25.10436978                0.00010000               -0.82897852                0.15636617               -0.00578460               -2.66377389               39.28532890                1.61115107
               9.34223211                7.71049563               25.25798143                0.00010000               -1.18361065               -0.12901553                0.34566272               -3.14343732               40.16796506                3.32449701
              10.32908678                7.50544546               25.42096274                0.11672755               -0.99518201               -0.55369387                0.67961567               -2.53087311               27.75263990                5.99697960
              11.32232847                7.32807839               25.32398196                0.35779402               -0.42608597               -0.45336311                1.13919138               -0.70400227                7.50006033                3.22854689
              12.32056506                7.16530511               25.08145304                0.76266199               -0.04842187               -0.09402108                0.20133967               -0.02484157                0.12280346                0.99444335
              13.32136004                7.00389194               24.83680943                1.00000000                0.07949784                0.28286895               -0.76141731               -0.04350055                0.02095548               -1.46278420
               3.52617700                9.87902095               25.08310269                1.00000000                0.08985423               -0.04889555                0.13465247               -0.04204003               -0.00711672                1.21370575
               4.52707554                9.70655182               24.83136154                0.50253753                0.21289286                0.22869950               -0.73874334                0.01312388                0.34107995               -0.97701636
               5.53043486                9.53373413               24.58652772                0.00590309                0.65655390                0.48598035               -1.57657785               -1.20552332               22.21449348               -2.53836981
               6.54020662                9.33541671               24.77216602                0.00010000                0.66734814                0.17289483               -0.96056858               -1.66605780               43.43094340               -0.74988068
               7.54378182                9.12943434               24.94853712                0.00010000               -0.16513472                0.25932731               -0.42851080               -1.60928029               43.12317493                0.11770536
               8.53690392                8.92179456               25.12461631                0.00010000               -1.24127892                0.37458247                0.05568790               -1.82450493               43.72238045                0.89479710
               9.51895624                8.71122470               25.31053754                0.00010000               -2.18232879                0.44669488                0.53193742               -2.50120306               45.37926687                1.92980847
              10.49325735                8.50096338               25.51833641                0.12598681               -1.77652326               -0.02604561                1.04947338               -2.40369184               30.71679137                3.99521236
              11.48342577                8.32330847               25.41055406                0.37158626               -0.63655311               -0.48404290                1.50434498               -0.88091861                7.76399830                2.27632108
              12.48052629                8.16393665               25.15972272                0.78265097               -0.14830001               -0.17976323                0.52931367               -0.03509005                0.29666215                0.89193165
              13.48045977                8.00617985               24.90253762                0.99998216               -0.00665117                0.17833592               -0.49074594               -0.04592082               -0.01736071               -1.23775504
               3.69684732               10.87884082               25.02529015                1.00000000                0.16385551               -0.01801267               -0.09099100                0.10737008                0.60909542                1.01385746
               4.69848587               10.70924421               24.76732507                0.74584832                0.28441070                0.26923871               -0.98831928                0.14688475                1.40463601               -0.84567556
               5.70253553               10.53895786               24.52521087                0.50044033                1.62235633                0.52237259               -1.81255595               -1.53670575               25.12426003               -1.80885094
               6.73093300               10.33430875               24.74155672                0.44250151                1.88563504               -0.11079645               -1.07918603               -1.29148263               47.51785448               -0.44529462
               7.74024823               10.13167545               24.93932111                0.43317201                0.17727640                0.22411113               -0.46543518               -0.74976996               46.79988231                0.03798018
               8.73447853                9.92638052               25.13651707                0.45011878               -1.36045006                0.45859650                0.09852488               -0.85483608               47.47570970                0.47295558
               9.71303923                9.71942953               25.34514057                0.49169257               -3.27746768                0.82048219                0.66125020               -1.66449966               49.57349290                1.06493531
              10.66892917                9.50492455               25.58352845                0.56615476               -3.56511966                0.39611706                1.29809463               -2.48441750               33.95518241                2.48832772
              11.64173684                9.31839753               25.48151347                0.69048853               -1.59686459               -0.49109429                1.79613713               -1.32962910                9.52407946                1.49738877
              12.63699188                9.16170985               25.23571594                0.89807216               -0.28908117               -0.22267984                0.84444298                0.09961566                1.46904277                0.77956559
              13.63595521                9.00745866               24.97273520                0.99993825               -0.10366674                0.12788065               -0.20174299                0.12442463                0.61279631               -1.00841011
               2.01916323                0.98036540               26.57813033                1.00000000               -0.56219449               -0.62028154                2.12707865               -0.10934085               -1.26270136                1.29884946
               3.01354128                0.77437670               26.42331747                1.00000000               -0.49223613               -0.45151041                1.61216365               -0.06816840               -1.30828424               -0.09888389
               4.00931850                0.56770516               26.26762908                0.68426862               -0.38664982               -0.28400100                1.08926326               -0.11239911               -0.97274978               -1.06333481
               5.00580828                0.35921339               26.11963291                0.51970585               -0.31412240               -0.15841645                0.57971919               -0.15571914                0.89804256               -0.11933468
               6.00303606                0.14689844               26.00217404                0.45604443               -0.17301289               -0.01501221                0.06472172               -0.14652135                3.78043121               -0.10850254
               7.00234803               -0.06948664               25.91335577                0.46098404                0.09977602                0.13291391               -0.47516907               -0.10340377                5.10122393                0.02546342
               8.00503158               -0.28704616               25.82341409                0.52567482                0.38746884                0.28197871               -0.99967017               -0.11808776                3.64539995                0.13549060
               9.01009740               -0.50242081               25.70497451                0.66223098                0.56395486                0.42552808               -1.49956414               -0.12957318                0.99869340                0.20141344
              10.01631067               -0.71479014               25.56082475                0.90089741                0.66627543                0.55907251               -2.00440012               -0.10379389               -0.87772782                0.53987064
              11.02342291               -0.92507684               25.40392799                1.00000000                0.77793686                0.70933655               -2.54955903               -0.07286352               -1.28543443                0.56040781
              12.03186941               -1.13448878               25.25123897                1.00000000                0.84464981                0.89377512               -3.05564810               -0.12402099               -1.06600905               -1.19611295
               2.22405852                1.97416259               26.52047860                1.00000000               -0.48688062               -0.59473360                1.90322368               -0.03630734                0.02604020                1.63495488
               3.21918972                1.76986159               26.36511889                0.89035180               -0.41411787               -0.41386629                1.39282336                0.00203750                0.20249324               -0.30553002
               4.21577617                1.56486515               26.21327210                0.23170520               -0.22676323               -0.23486154                0.91714916               -0.07004486                1.75068389               -1.90250527
               5.21465445                1.35762922               26.08879177                0.00469599                0.00723444               -0.11299635                0.46567335               -0.25821371                4.29881697               -2.00194274
               6.21592086                1.14674832               25.98701349                0.00926485                0.18159188               -0.24039582                0.00488920               -0.46570883                7.10411499                0.65039694
               7.21828629                0.93184250               25.91685350                0.01291803                0.21984627               -0.10764809               -0.47424366               -0.56893344                8.72673416                0.89369088
               8.22031778                0.71577362               25.84592382                0.01034641                0.21936856                0.05952548               -0.93310604               -0.48682725                7.21117101                0.98208955
               9.22267366                0.50183448               25.74526231                0.20083786                0.31414865                0.29770616               -1.36406121               -0.27835984                4.49082832                2.42704630
              10.22660075                0.29080058               25.62056798                0.55768668                0.49349673                0.46965053               -1.80259662               -0.11099171                2.44040883                2.07361991
              11.23254360                0.08201652               25.47936114                1.00000000                0.67201923                0.64876151               -2.24460257               -0.01939971                0.92887819                0.99959859
              12.24004114               -0.12555103               25.32446181                1.00000000                0.74975416                0.86726075               -2.77630075               -0.05187206                0.24835337               -1.26931402
               2.42703907                2.96847073               26.46959355                1.00000000               -0.41596023               -0.53806925                1.69161473               -0.04808279                0.21955196                1.87593378
               3.42287947                2.76609937               26.30278203                0.66898511               -0.34445472               -0.32909082                1.12106851               -0.01238603                0.52475371               -0.78776132
               4.42014998                2.56300793               26.14205062                0.08246429               -0.20593124               -0.11424768                0.61025274               -0.11793832                2.77561547               -3.46744193
               5.41876084                2.35695346               26.02026243                0.00010000               -0.03206864               -0.23393182                0.27134382               -0.68181260                9.16554589               -1.25507416
               6.41950860                2.14209052               25.98698803                0.00010000                0.15916049               -0.39449011               -0.03908701               -1.08737950               12.87677922                0.97314114
               7.42194405                1.92836040               25.93766484                0.00010000                0.28972259               -0.37215580               -0.39616614               -1.08712389               12.01124462                1.84553140
               8.42530305                1.71414435               25.88526971                0.00010000                0.37795984               -0.25324547               -0.75003177               -0.89452198               11.77911187                2.53037605
               9.42950325                1.50353332               25.82992584                0.06743672                0.43028695               -0.14335466               -1.08084646               -0.54576769                8.51753623                4.25807588
              10.43390879                1.29460287               25.71087380                0.29525595                0.49416411                0.03296995               -1.42671457               -0.30062137                3.93048979                5.47156276
              11.43938653                1.08789839               25.56349933                0.70896497                0.60291401                0.45611525               -1.92270752               -0.12601884                1.52443025                1.99574481
              12.44596707                0.88285643               25.39609538                1.00000000                0.65805422                0.88621464               -2.49871457               -0.14348214                0.52752170               -1.13000499
               2.62783959                3.96340120               26.41683354                1.00000000               -0.34347916               -0.46997427                1.46791674               -0.04703364                0.04000199                1.68778347
               3.62440480                3.76327977               26.23491253                0.62286721               -0.26381396               -0.24046742                0.84489974               -0.00311073                0.20218065               -1.06510604
               4.62256331                3.56258020               26.05621233                0.06019150               -0.12345954                0.00202948                0.24396379               -0.38696525                6.70299131               -4.02567705
               5.62193561                3.35295059               26.00430305                0.00010000                0.01015088               -0.31659621                0.20441903               -0.97856345               14.50057288                0.28553169
               6.62276633                3.13885852               25.98063664                0.00010000                0.12771920               -0.30911593               -0.08735859               -1.22758011               16.22498671                0.77238779
               7.62448999                2.92439938               25.96163100                0.00010000                0.22440470               -0.38895060               -0.33618590               -1.26848905               16.35647802                2.09277289
               8.62725442                2.71070871               25.93893185                0.00010000                0.34048983               -0.41307546               -0.59138239               -1.19386380               15.81918785                3.46921102
               9.63129979                2.49896738               25.90736679                0.07139308                0.44844185               -0.53559133               -0.87083167               -0.91852883               13.61156326                4.82215953
              10.63622326                2.29145998               25.83885359                0.28792085                0.52349338               -0.35863598               -0.89121439               -0.38227998                6.28269198                6.32763205
              11.64176965                2.09113883               25.65887053                0.66167708                0.55160713                0.27323350               -1.52695439               -0.03524487                0.40373044                2.27459533
              12.64725540                1.89217326               25.47197521                0.99019677                0.54857463                0.89028770               -2.19767377               -0.07329337                0.06477054               -0.88949175
               2.82634125                4.95907124               26.36225724                1.00000000               -0.27029930               -0.39592800                1.24250105               -0.04596676                0.02245944                1.57155091
               3.82363826                4.76129002               26.16693258                0.59681202               -0.18006956               -0.15919825                0.57350387                0.00422163                0.11849647               -1.07586068
               4.82273986                4.56304852               25.97349706                0.04888126               -0.03635015                0.08715619               -0.08255834               -0.63570546                9.63732703               -3.77843519
               5.82291125                4.35062154               25.96852161                0.00010000                0.03841722               -0.14663502               -0.01618277               -1.37999411               19.83153022               -0.95817459
               6.82350820                4.13590821               25.97791953                0.00010000                0.09064092               -0.24905243               -0.14610503               -1.55495621               20.70553549                0.79609164
               7.82472407                3.92058139               25.98878065                0.00010000                0.16747878               -0.37502841               -0.28799838               -1.62780547               20.80311371                2.29944720
               8.82685778                3.70588284               25.99820704                0.00010000                0.28286669               -0.51729366               -0.44453667               -1.61234292               20.66578188                3.94251532
               9.83038141                3.49282149               26.00415481                0.07951511                0.36169854               -0.66325326               -0.62524744               -1.26429482               17.54235936                5.92957427
              10.83409175                3.28743015               25.94855460                0.29924549                0.37934734               -0.39491796               -0.45023558               -0.48629314                7.39751291                4.87259763
              11.83796835                3.09336306               25.74938680                0.67499891                0.41702923                0.19361210               -1.16186404               -0.01235203                0.12896923                1.79951503
              12.84243233                2.90066219               25.54780166                0.99779335                0.44639814                0.78129542               -1.89447000               -0.04298169                0.01383702               -1.01042501
               3.02248270                5.95548264               26.30722573                1.00000000               -0.19707454               -0.32244620                1.01804355               -0.04537834                0.01977521                1.53188832
               4.02051196                5.76009581               26.09873171                0.57335773               -0.09825073               -0.07998427                0.30334327                0.00848419                0.12406869               -1.08906721
               5.02051769                5.56432332               25.89228432                0.03927714                0.04820415                0.16902394               -0.39736621               -0.84787844               12.36919251               -3.67922232
               6.02147604                5.35001789               25.92864989                0.00010000                0.05948335                0.02159246               -0.23600380               -1.78785680               24.97557538               -1.25336106
               7.02170735                5.13387747               25.97312832                0.00010000                0.02416056               -0.13463888               -0.22679187               -1.96796706               25.49193269                0.60362296
               8.02195925                4.91689881               26.01810306                0.00010000                0.05300525               -0.33662299               -0.24485375               -2.10955407               25.60072098                2.38413347
               9.02276746                4.70036284               26.06262241                0.00010000                0.12536655               -0.55479236               -0.29298765               -2.16956163               25.61854047                4.24367643
              10.02446658                4.48570232               26.10538316                0.08782106                0.15941868               -0.73211675               -0.38067415               -1.68679900               20.74227260                6.24477846
              11.02595583                4.28356162               26.04935045                0.31161922                0.19119976               -0.38910296               -0.03994381               -0.61370144                8.03955654                4.17945539
              12.02829058                4.09501107               25.83596406                0.69153112                0.29208366                0.13155786               -0.81204071               -0.01532090                0.10041604                1.44679351
              13.03179750                3.90779917               25.62070264                1.00000000                0.35069294                0.64997394               -1.60557622               -0.04186159                0.01168751               -1.24802095
               3.21620735                6.95262232               26.25189561                1.00000000               -0.12400848               -0.25037292                0.79421569               -0.04468292                0.02050107                1.50245830
               4.21496726                6.75969034               26.03035361                0.55144086               -0.01735662               -0.00148573                0.03533663                0.01179156                0.14401064               -1.09971293
               5.21586021                6.56642900               25.81123587                0.03030911                0.13163545                0.25267570               -0.70733278               -1.02243398               15.03200817               -3.65500834
               6.21759997                6.35105338               25.88739841                0.00010000                0.07038592                0.19433561               -0.45216837               -2.15505915               30.05701164               -1.38369429
               7.21726793                6.13321543               25.96739968                0.00010000               -0.07761769                0.01887554               -0.30682871               -2.40448397               30.37401554                0.48002038
               8.21604762                5.91384893               26.04808230                0.00010000               -0.13024444               -0.24745954               -0.19945150               -2.63311477               30.55354443                2.33145742
               9.21466304                5.69478699               26.12937352                0.00010000               -0.13004855               -0.53464908               -0.13082827               -2.75951570               30.70501988                4.31260707
              10.21344665                5.47817916               26.21029225                0.09628013               -0.10770370               -0.75771797               -0.11232040               -2.08818916               23.61574721                6.50610836
              11.21250897                5.27964809               26.14654211                0.32436177               -0.00111297               -0.40240874                0.35815660               -0.68996299                8.32467507                3.84941778
              12.21342439                5.09599421               25.91987007                0.70887573                0.17549639                0.06152469               -0.47228126               -0.01805493                0.10079182                1.21553380
              13.21601890                4.91366167               25.69132575                1.00000000                0.25945114                0.52556755               -1.32569591               -0.04189467                0.01181468               -1.41461457
               3.40745301                7.95047518               26.19630194                1.00000000               -0.05119031               -0.18004337                0.57129466               -0.04393371                0.02055191                1.47349099
               4.40694111                7.76006610               25.96179178                0.53085005                0.06264726                0.07634813               -0.22991767                0.01472604                0.16820847               -1.10858122
               5.40870596                7.56937683               25.73018393                0.02171496                0.23236583                0.33680265               -1.01244168               -1.15237233               17.63972253               -3.63162035
               6.41158843                7.35390460               25.84503769                0.00010000                0.10580875                0.36831074               -0.65624344               -2.41344695               35.08715197               -1.44864926
               7.41082213                7.13425498               25.96071443                0.00010000               -0.19315169                0.18586241               -0.37952910               -2.73919838               35.27861913                0.35404509
               8.40772539                6.91194962               26.07737984                0.00010000               -0.37876090               -0.09968790               -0.14612420               -3.05145633               35.57704005                2.11626289
               9.40324691                6.68966986               26.19658949                0.00010000               -0.49418463               -0.44408716                0.04838958               -3.29013152               35.97766945                4.12905203
              10.39784170                6.47054796               26.31840758                0.10491643               -0.44526993               -0.73504857                0.19621824               -2.46092179               26.34148056                6.62547835
              11.39434152                6.27551345               26.24166194                0.33739025               -0.19628994               -0.43028872                0.74898202               -0.74582291                8.33722715                3.64381958
              12.39391590                6.09624156               26.00208277                0.72691778                0.06415951               -0.01459719               -0.13866516               -0.02155880                0.10707703                1.08003564
              13.39562471                5.91831052               25.76052197                1.00000000                0.17088057                0.40673168               -1.05111203               -0.04250097                0.01236268               -1.50110791
               3.59614685                8.94902145               26.14040757                1.00000000                0.02132830               -0.11226302                0.34929391               -0.04308534                0.02763736                1.45375219
               4.59636013                8.76121730               25.89308122                0.51147828                0.14137086                0.15457427               -0.49202772                0.01642429                0.20672381               -1.13194053
               5.59897427                8.57316505               25.64928317                0.01331565                0.40463784                0.41935629               -1.31183179               -1.24875952               20.23131948               -3.49598058
               6.60445289                8.35841960               25.80237298                0.00010000                0.27323367                0.45349684               -0.84271179               -2.49125015               40.05779080               -1.32001587
               7.60443894                8.13693268               25.95282177                0.00010000               -0.24246395                0.26820650               -0.44194774               -2.69765269               40.08338555                0.23109247
               8.59960361                7.91185517               26.10391967                0.00010000               -0.70884294                0.13039714               -0.08704861               -3.04127677               40.54609058                1.65893496
               9.59026208                7.68590525               26.26092643                0.00010000               -1.06094927               -0.15669063                0.23991602               -3.53920871               41.43072042                3.43956946
              10.57838462                7.46347818               26.42710059                0.11375182               -0.91815861               -0.58121879                0.54359342               -2.86022014               29.13099996                6.22071545
              11.57189891                7.27104231               26.33534605                0.35067935               -0.40942436               -0.46588464                1.13356121               -0.83245270                8.25805522                3.38189401
              12.57019614                7.09570227               26.08341712                0.74568558               -0.04339739               -0.09543073                0.19129734               -0.02822140                0.13668284                1.04451770
              13.57103096                6.92179630               25.82911054                1.00000000                0.08348236                0.29293509               -0.77890411               -0.04341991                0.02192396               -1.52717170
               3.78219961                9.94822992               26.08442307                1.00000000                0.09263823               -0.04794245                0.12950534               -0.04199978               -0.00995901                1.24523121
               4.78312600                9.76315758               25.82390287                0.49290629                0.21644256                0.23408527               -0.75281902                0.01465274                0.35620990               -1.01678912
               5.78652847                9.57776396               25.57065203                0.00470159                0.74349003                0.49508248               -1.59874374               -1.39745480               22.97125755               -2.62344431
               6.79799580                9.36297453               25.76235137                0.00010000                0.84525222                0.12614684               -1.00392628               -1.93859914               44.89644613               -0.78001175
               7.80343351                9.13961911               25.94394225                0.00010000               -0.00342560                0.22449691               -0.49291354               -1.85735988               44.55454642                0.11594905
               8.79792729                8.91455757               26.12475161                0.00010000               -1.12968932                0.35974678               -0.03184576               -2.06325623               45.15516912                0.92334447
               9.78083972                8.68653605               26.31530308                0.00010000               -2.12135281                0.45574808                0.41688477               -2.76876524               46.85610541                2.00422424
              10.75550023                8.45892358               26.52811338                0.12292174               -1.76856729                0.02212276                0.89968440               -2.64958069               32.25105792                4.15997002
              11.74546838                8.26619575               26.42558457                0.36423250               -0.64513709               -0.48698778                1.50187256               -1.01138303                8.56154288                2.38398674
              12.74259749                8.09433295               26.16497590                0.76513987               -0.14500653               -0.17909060                0.52125992               -0.03883022                0.31938135                0.93539257
              13.74256825                7.92416922               25.89754621                0.99998637               -0.00292402                0.18557251               -0.50800089               -0.04599502               -0.01784047               -1.29312364
               3.96545154               10.94806260               26.02435046                1.00000000                0.16676116               -0.01673190               -0.09682428                0.10883228                0.62087555                1.04196309
               4.96711915               10.76589900               25.75736852                0.74118686                0.28783394                0.27414229               -1.00232113                0.14952006                1.45297205               -0.87965952
               5.97120822               10.58306670               25.50697343                0.49989079                1.83533043                0.53027402               -1.83493758               -1.77984828               25.98448119               -1.86753472
               7.00382576               10.36094254               25.73054959                0.44287376                2.22502466               -0.20319978               -1.12369000               -1.49920831               49.13925911               -0.46816889
               8.01570871               10.14142261               25.93434610                0.43335845                0.37978942                0.18035059               -0.53200139               -0.86710168               48.37088365                0.03093888
               9.01142155                9.91905010               26.13706491                0.44992352               -1.25939743                0.44925373                0.00782124               -0.97069425               49.05032256                0.48320365
               9.99052076                9.69502021               26.35117814                0.49098385               -3.28441211                0.84841612                0.54179900               -1.78836948               51.21332041                1.10213545
              10.94573330                9.46392064               26.59576729                0.56459762               -3.71294394                0.49970584                1.14279799               -2.66257505               35.64369515                2.59632580
              11.91626188                9.26130256               26.49946897                0.68675113               -1.71436200               -0.48931954                1.79526435               -1.51065874               10.41386771                1.56807705
              12.91144606                9.09212046               26.24413036                0.88914835               -0.29116866               -0.22124904                0.83855820                0.09511715                1.54671691                0.81657485
              13.91043851                8.92550775               25.97064006                0.99993449               -0.10075548                0.13385265               -0.21759267                0.12575542                0.64207437               -1.05405167
               2.16373328                1.05229846               27.59942292                1.00000000               -0.56394695               -0.62263280                2.13203787               -0.10904954               -1.30052963                1.33341310
               3.15809381                0.83263557               27.43943589                1.00000000               -0.49562879               -0.45114820                1.61097819               -0.06808687               -1.35019753               -0.10882673
               4.15382070                0.61223388               27.27849191                0.68096898               -0.40967536               -0.27974277                1.08198899               -0.13540372               -1.01101350               -1.07350515
               5.14990030                0.38941353               27.12538096                0.51900768               -0.37313165               -0.15642286                0.56907405               -0.19703530                0.86249444               -0.12283300
               6.14635807                0.16125998               27.00274109                0.45604932               -0.23956425               -0.01267994                0.04818880               -0.18410361                3.72599371               -0.11168549
               7.14510902               -0.07272368               26.90847987                0.46075105                0.08367104                0.13572133               -0.50113820               -0.12261454                5.03856088                0.02635834
               8.14803149               -0.30849847               26.81325940                0.52452972                0.43109217                0.28703185               -1.03353446               -0.14252605                3.60167693                0.14094452
               9.15373086               -0.54132328               26.68982077                0.65915660                0.61914802                0.43265165               -1.53423942               -0.15791235                0.96706346                0.20961438
              10.16041445               -0.77010763               26.54064850                0.89396649                0.69979035                0.56499429               -2.03360586               -0.12047815               -0.92977725                0.54506217
              11.16772667               -0.99621714               26.37831716                1.00000000                0.79262652                0.71323997               -2.57440841               -0.07462588               -1.33680154                0.60355957
              12.17626698               -1.22131335               26.22058335                1.00000000                0.85403142                0.89973490               -3.07668156               -0.12440463               -1.09683848               -1.24401607
               2.38230567                2.04607213               27.53952682                1.00000000               -0.48604403               -0.59777551                1.90693383               -0.03575921                0.04182011                1.67530356
               3.37744523                1.82812409               27.37903959                0.87394333               -0.41139918               -0.41298090                1.39086446                0.00183634                0.23641830               -0.34232418
               4.37407769                1.60943645               27.22242755                0.22680571               -0.20141660               -0.22787517                0.91265630               -0.10305868                1.81500953               -1.98141138
               5.37341690                1.38784930               27.09340869                0.00480868                0.07539742               -0.11103906                0.45728701               -0.36872139                4.37280324               -2.04427673
               6.37558564                1.16113318               26.98700292                0.00936734                0.26725980               -0.29817356               -0.00650764               -0.65391694                7.16456518                0.65346185
               7.37876210                0.92863354               26.91201561                0.01302578                0.26601968               -0.14238801               -0.49285753               -0.80016292                8.78767450                0.93150560
               8.38090603                0.69437185               26.83646547                0.01054477                0.20971106                0.05691222               -0.95845773               -0.68567939                7.29988016                1.04454671
               9.38295632                0.46300324               26.73149043                0.19658796                0.28752871                0.28750563               -1.39027120               -0.38298668                4.59429562                2.50855294
              10.38665660                0.23554231               26.60242169                0.54734148                0.48134770                0.46507702               -1.82645624               -0.15200419                2.54125894                2.16815096
              11.39258327                0.01091526               26.45682842                1.00000000                0.67312694                0.65000598               -2.26100765               -0.02659276                0.98252341                1.05098366
              12.40011914               -0.21231600               26.29662200                1.00000000                0.75358722                0.87284608               -2.78997170               -0.05281532                0.25533894               -1.31856028
               2.59891418                3.04034295               27.48651910                1.00000000               -0.41479619               -0.54181733                1.69395739               -0.04857922                0.22242148                1.91603633
               3.59476622                2.82437595               27.31396243                0.65510319               -0.34399293               -0.32593563                1.11484074               -0.01336043                0.55870285               -0.85314087
               4.59203432                2.60767637               27.14810998                0.07970062               -0.19685353               -0.10086080                0.60101698               -0.16275873                2.92908088               -3.64455273
               5.59082915                2.38719274               27.02296695                0.00010000                0.02305869               -0.28158161                0.26968833               -0.89597721                9.41912037               -1.28093966
               6.59249549                2.15529651               26.98651261                0.00010000                0.25189708               -0.48669183               -0.05602632               -1.44051904               13.12422760                0.97944661
               7.59586709                1.92442856               26.93358630                0.00010000                0.37263526               -0.44342069               -0.41940774               -1.46410133               12.24474129                1.90951394
               8.59994820                1.69263977               26.87763300                0.00010000                0.45167869               -0.28760914               -0.77704846               -1.25292053               12.03295209                2.63517064
               9.60490066                1.46442684               26.81898730                0.06495915                0.47570768               -0.17790458               -1.10556538               -0.78241674                8.78527386                4.37177475
              10.60946235                1.23919391               26.69652779                0.28887899                0.50762343               -0.03400939               -1.43991241               -0.38306755                4.11863305                5.73046792
              11.61505313                1.01678298               26.54420652                0.69277219                0.61054196                0.43349327               -1.93237336               -0.15174774                1.59473584                2.09004557
              12.62167319                0.79614357               26.37105588                1.00000000                0.66200617                0.90339287               -2.50493302               -0.16224991                0.55593079               -1.17214120
               2.81326808                4.03523578               27.43151358                1.00000000               -0.34234816               -0.47331451                1.46844309               -0.04708499                0.03876800                1.72068677
               3.80984460                3.82160537               27.24332166                0.61020859               -0.26311790               -0.23499860                0.83674439               -0.00182433                0.21225331               -1.12965181
               4.80800572                3.60741923               27.05857738                0.05792528               -0.09836870                0.01888477                0.22858729               -0.48802856                7.00593335               -4.21130387
               5.80787722                3.38221766               27.00625446                0.00010000                0.07668590               -0.38866402                0.18452311               -1.22204414               14.96605015                0.24256596
               6.80953944                3.15139934               26.97964470                0.00010000                0.21297886               -0.36951986               -0.11145987               -1.55340652               16.59218127                0.77001222
               7.81213680                2.91976512               26.95811793                0.00010000                0.31549534               -0.45487421               -0.36649790               -1.62671603               16.74984665                2.14032796
               8.81584935                2.68861967               26.93284755                0.00010000                0.43085222               -0.47461064               -0.62494393               -1.54432686               16.20613121                3.55300601
               9.82075384                2.45944515               26.89848800                0.06892461                0.53948844               -0.59749019               -0.90313423               -1.22142811               14.12642034                4.91610660
              10.82663911                2.23486213               26.82987198                0.28190540                0.59224069               -0.46761858               -0.90343839               -0.51088449                6.62702547                6.60714080
              11.83259866                2.01958512               26.64354475                0.64661765                0.57569207                0.23238058               -1.53597425               -0.04334665                0.42022651                2.38136459
              12.83815296                1.80575186               26.44995488                0.97836159                0.55542972                0.91812077               -2.20336795               -0.07601821                0.06408483               -0.92515562
               3.02523329                5.03087666               27.37467693                1.00000000               -0.26870147               -0.39851853                1.24162200               -0.04615868                0.02234523                1.60369413
               4.02254628                4.81967598               27.17261636                0.58464829               -0.17859181               -0.15262618                0.56289601                0.00641812                0.12516499               -1.13693582
               5.02166146                4.60805407               26.97257984                0.04675897               -0.00690622                0.10392776               -0.10162750               -0.77200743               10.01154317               -3.93607923
               6.02240816                4.37941946               26.96822140                0.00010000                0.11092243               -0.18039067               -0.04528249               -1.67916844               20.47909031               -1.07225472
               7.02387991                4.14790611               26.97629251                0.00010000                0.18521433               -0.29712392               -0.18015929               -1.90148386               21.25945531                0.77751724
               8.02611244                3.91533108               26.98570183                0.00010000                0.27508640               -0.43449645               -0.32806507               -1.99542555               21.35384175                2.33723074
               9.02938163                3.68314756               26.99353341                0.00010000                0.40585982               -0.58627980               -0.48966962               -1.97772495               21.20736614                4.02109318
              10.03422964                3.45247703               26.99765775                0.07691302                0.48615277               -0.75002214               -0.67243241               -1.58187198               18.26743961                6.03852527
              11.03910469                3.22984154               26.94397953                0.29297389                0.45334154               -0.47918815               -0.46420895               -0.63323203                7.86831732                5.08392147
              12.04329647                3.02143059               26.73770649                0.65968521                0.43573346                0.16302791               -1.17352554               -0.01750946                0.13888459                1.87833203
              13.04781936                2.81450599               26.52880257                0.98591752                0.45228902                0.80554672               -1.90442024               -0.04296363                0.01334476               -1.05657281
               3.23474626                6.02726541               27.31739481                1.00000000               -0.19507121               -0.32438950                1.01581144               -0.04556223                0.01975748                1.56428256
               4.23279555                5.81855285               27.10170329                0.56168764               -0.09620862               -0.07245201                0.29047069                0.01083474                0.13145849               -1.14738039
               5.23282209                5.60949779               26.88820446                0.03733270                0.08231334                0.18620104               -0.41952430               -1.00771311               12.81371704               -3.82599054
               6.23444181                5.37860985               26.92611917                0.00010000                0.13880303                0.00879520               -0.27164519               -2.12481770               25.78704399               -1.36161135
               7.23559815                5.14545686               26.97065002                0.00010000                0.12725107               -0.17012217               -0.27000128               -2.34017482               26.22719632                0.57528283
               8.23698684                4.91107519               27.01539873                0.00010000                0.17753720               -0.39146788               -0.29666470               -2.50242014               26.32005947                2.41939393
               9.23914889                4.67689407               27.05938919                0.00010000                0.27177954               -0.62761941               -0.35352255               -2.56435866               26.31581528                4.32790620
              10.24242243                4.44444471               27.10122780                0.08508801                0.29360137               -0.81971020               -0.44903287               -2.03143146               21.66118319                6.36286602
              11.24502092                4.22527836               27.04888218                0.30509651                0.25807989               -0.44746985               -0.05362700               -0.77376975                8.63054600                4.36719959
              12.24758402                4.02284568               26.82777888                0.67584026                0.30609833                0.11318477               -0.82505317               -0.02030906                0.11089749                1.51175486
              13.25114289                3.82186279               26.60457812                0.99585978                0.35588616                0.67028494               -1.61969283               -0.04183263                0.01143178               -1.30665294
               3.44174717                7.02438887               27.25982126                1.00000000               -0.12165731               -0.25172074                0.79084669               -0.04485081                0.02050036                1.53503730
               4.44053060                6.81822694               27.03063667                0.54026483               -0.01484879                0.00671883                0.02068933                0.01404022                0.15263236               -1.15408298
               5.44145020                6.61177809               26.80404570                0.02853352                0.17110645                0.27014819               -0.73179646               -1.19849299               15.54620249               -3.79358584
               6.44395273                6.37959537               26.88268260                0.00010000                0.15804370                0.19492760               -0.49256548               -2.52159219               31.02879303               -1.48122691
               7.44461107                6.14450366               26.96408026                0.00010000                0.03370521               -0.00497314               -0.35849639               -2.80329812               31.28815006                0.45602524
               8.44462683                5.90750172               27.04577226                0.00010000                0.00569395               -0.29600340               -0.26371274               -3.05217261               31.44509406                2.37036751
               9.44472495                5.67059517               27.12767730                0.00010000                0.02949420               -0.60304662               -0.20904379               -3.18302792               31.56755679                4.40834770
              10.44521672                5.43608283               27.20869846                0.09342401                0.02516867               -0.83531095               -0.20583345               -2.44553652               24.71814987                6.65430599
              11.44522832                5.22089214               27.15006482                0.31759306                0.05445736               -0.44150860                0.34642150               -0.84873193                9.01924062                4.02618062
              12.44630586                5.02369428               26.91508354                0.69276880                0.18600823                0.05125247               -0.48526939               -0.02231492                0.11265455                1.27228154
              13.44894849                4.82791168               26.67798825                1.00000000                0.26426238                0.54263657               -1.34264600               -0.04178929                0.01198453               -1.47958960
               3.64617310                8.02223100               27.20199443                1.00000000               -0.04859689               -0.18081094                0.56712112               -0.04396953                0.02060257                1.50631057
               4.64568713                7.81868723               26.95941738                0.52014689                0.06553500                0.08466926               -0.24563858                0.01673071                0.17813511               -1.15813150
               5.64748380                7.61490075               26.71993701                0.02010929                0.27986327                0.35362256               -1.03811061               -1.33917538               18.22631604               -3.76094267
               6.65128439                7.38250840               26.83826525                0.00010000                0.20710176                0.37707411               -0.69994549               -2.79622538               36.21892087               -1.52946573
               7.65162583                7.14535740               26.95663257                0.00010000               -0.07162599                0.16896374               -0.43866522               -3.15158202               36.36854000                0.33811666
               8.64985187                6.90515512               27.07554614                0.00010000               -0.23593040               -0.14029596               -0.22242224               -3.47874772               36.64522539                2.15986469
               9.64690722                6.66483314               27.19660085                0.00010000               -0.33185743               -0.50108760               -0.04773993               -3.72379921               37.02145984                4.23703641
              10.64321473                6.42773849               27.31977667                0.10195194               -0.32361993               -0.79644263                0.07633246               -2.81572491               27.61553587                6.81140860
              11.64043483                6.21644819               27.24910732                0.33038832               -0.15482706               -0.45492531                0.74008079               -0.89615162                9.11140167                3.81274254
              12.64011818                6.02387073               27.00063729                0.71036755                0.07187346               -0.01959743               -0.15069250               -0.02521567                0.12030333                1.13195628
              13.64187230                5.83271552               26.74992311                1.00000000                0.17541109                0.42062892               -1.06960781               -0.04236184                0.01284450               -1.56861447
               3.84795532                9.02077265               27.14387756                1.00000000                0.02401384               -0.11241520                0.34461075               -0.04297610                0.02782777                1.48717078
               4.84819546                8.81992032               26.88808605                0.50125235                0.14450963                0.16207559               -0.50760694                0.01807692                0.21808840               -1.17690351
               5.85084551                8.61885054               26.63604429                0.01187232                0.46880570                0.43371170               -1.33717214               -1.44278844               20.89510930               -3.61198851
               6.85757157                8.38713685               26.79372636                0.00010000                0.40435981                0.45657324               -0.88849802               -2.87033332               41.35058822               -1.37924763
               7.85893271                8.14788294               26.94808756                0.00010000               -0.09977163                0.24357958               -0.50712559               -3.07971885               41.34337589                0.22303380
               8.85557614                7.90469580               27.10262881                0.00010000               -0.56335529                0.09805403               -0.17359032               -3.42574608               41.79354222                1.69993197
               9.84766560                7.66057342               27.26277975                0.00010000               -0.91444882               -0.18878268                0.12790443               -3.93662340               42.67408269                3.54426588
              10.83728716                7.42015398               27.43183460                0.11068628               -0.82462774               -0.61212053                0.39986572               -3.19987461               30.56836706                6.42895960
              11.83117305                7.21179364               27.34665318                0.34343909               -0.38764710               -0.47914544                1.12802489               -0.97461778                9.08906368                3.53864445
              12.82953422                7.02330233               27.08527898                0.72864596               -0.03806911               -0.09697359                0.18088296               -0.03176390                0.15228996                1.09474047
              13.83041166                6.83632426               26.82123135                1.00000000                0.08774446                0.30361687               -0.79786071               -0.04330411                0.02307544               -1.59522602
               4.04701822               10.01998269               27.08569279                1.00000000                0.09525520               -0.04736675                0.12445688               -0.04172580               -0.01253678                1.27569861
               5.04797077                9.82192874               26.81630516                0.48313300                0.21966403                0.23996995               -0.76629668                0.01595871                0.37167100               -1.05391747
               6.05141150                9.62357499               26.55455285                0.00341052                0.84372770                0.50569167               -1.62217150               -1.60451495               23.72109215               -2.70496536
               7.06484533                9.39163987               26.75208749                0.00010000                1.05305013                0.07060454               -1.05104975               -2.22860278               46.34961217               -0.80952782
               8.07247250                9.15022899               26.93867885                0.00010000                0.19005713                0.18017921               -0.56224871               -2.11528947               45.97362372                0.11233116
               9.06864647                8.90711621               27.12397939                0.00010000               -0.98779617                0.33611038               -0.12551437               -2.30473543               46.57217653                0.94843988
              10.05271658                8.66105748               27.31887523                0.00010000               -2.03247265                0.45743518                0.29375551               -3.03412382               48.31018415                2.07331909
              11.02799702                8.41549608               27.53633010                0.11976876               -1.74612347                0.06946357                0.73817150               -2.89835599               33.85327497                4.31660914
              12.01779411                8.20686528               27.44059151                0.35675833               -0.65223683               -0.49016810                1.49974889               -1.15433706                9.44276244                2.49420084
              13.01495228                8.02193126               27.17014792                0.74757746               -0.14158788               -0.17849503                0.51309117               -0.04282575                0.34409527                0.97939854
              14.01496235                7.83878786               26.89237761                0.99999128                0.00100740                0.19328264               -0.52652417               -0.04605838               -0.01815487               -1.35086338
               4.24322871               11.01982531               27.02335367                1.00000000                0.16936288               -0.01573802               -0.10208119                0.11048983                0.63165658                1.06881124
               5.24492234               10.82471972               26.74727865                0.73643945                0.29076870                0.27909839               -1.01404055                0.15210951                1.49889183               -0.91160248
               6.24904408               10.62896437               26.48851212                0.49930150                2.07115859                0.53893880               -1.85797501               -2.04528099               26.83420163               -1.92231807
               7.28634551               10.38854894               26.71908292                0.44322040                2.60532489               -0.30909271               -1.17193479               -1.72387425               50.74733131               -0.49072210
               8.30115058               10.15148652               26.92868108                0.43354536                0.61537135                0.12575329               -0.60333594               -0.98873902               49.92863979                0.02291275
               9.29865294                9.91141801               27.13667349                0.44972634               -1.12736633                0.43018033               -0.08897270               -1.08757326               50.60806170                0.49164188
              10.27860325                9.66972213               27.35597655                0.49025713               -3.25703472                0.86646414                0.41397006               -1.90507078               52.82937836                1.13660407
              11.23351224                9.42154325               27.60638441                0.56299781               -3.84760648                0.60471712                0.97439388               -2.83506996               37.40461966                2.69958341
              12.20165112                9.20199028               27.51741876                0.68294998               -1.83785562               -0.48750079                1.79513494               -1.70483944               11.39320071                1.64044079
              13.19675513                9.01973243               27.25248711                0.88019636               -0.29369153               -0.21988236                0.83293135                0.09026697                1.62779593                0.85424357
              14.19577729                8.84018992               26.96838335                0.99993118               -0.09778361                0.14020576               -0.23435004                0.12724220                0.67224091               -1.10123259
               2.31312668                1.12682586               28.62077108                1.00000000               -0.56583457               -0.62533904                2.13888258               -0.10904042               -1.33847918                1.36708731
               3.30746834                0.89299276               28.45553703                1.00000000               -0.49867582               -0.45041964                1.60886494               -0.06820276               -1.39235241               -0.11917111
               4.30315317                0.65836378               28.28926886                0.67756673               -0.43296703               -0.27449239                1.07125782               -0.15916551               -1.04774790               -1.08071203
               5.29880900                0.42070127               28.13101439                0.51827391               -0.43480731               -0.15435676                0.55813135               -0.23852074                0.82649916               -0.12620294
               6.29445702                0.17614107               28.00313782                0.45603759               -0.31040315               -0.00950318                0.03162755               -0.22178923                3.66460941               -0.11527326
               7.29260093               -0.07603095               27.90333300                0.46048944                0.06335986                0.13971374               -0.52847704               -0.14139469                4.96506001                0.02650589
               8.29572422               -0.33063942               27.80274340                0.52335152                0.47243204                0.29303786               -1.07112807               -0.16520940                3.54980696                0.14542174
               9.30204957               -0.58156784               27.67428972                0.65603046                0.67472566                0.44068365               -1.57522502               -0.18441539                0.93457679                0.21711785
              10.30921873               -0.82743529               27.52015263                0.88696310                0.73512257                0.57196021               -2.06996904               -0.13609519               -0.97866120                0.54802156
              11.31675203               -1.07002816               27.35243982                1.00000000                0.80907656                0.71750059               -2.60465059               -0.07638158               -1.38479459                0.64986475
              12.32540026               -1.31144639               27.18970533                1.00000000                0.86482363                0.90516223               -3.10158177               -0.12577268               -1.12371546               -1.28717965
               2.54586938                2.12057247               28.55861727                1.00000000               -0.48520270               -0.60105872                1.91209214               -0.03468291                0.05815066                1.71473162
               3.54101735                1.88848857               28.39293618                0.85732209               -0.40810597               -0.41191401                1.38780806                0.00203467                0.27219361               -0.38147988
               4.53770726                1.65561886               28.23152522                0.22177616               -0.17411024               -0.21983690                0.90508066               -0.13784775                1.88290922               -2.06086457
               5.53753515                1.41915770               28.09793751                0.00493503                0.14489898               -0.11061871                0.45007605               -0.48206013                4.45061391               -2.08441739
               6.54060524                1.17604603               27.98688334                0.00946530                0.35210412               -0.35516943               -0.01608014               -0.84373659                7.22427806                0.65047816
               7.54457723                0.92536618               27.90699635                0.01310625                0.31176637               -0.17603464               -0.51037473               -1.03187593                8.84250942                0.96219036
               8.54684057                0.67229096               27.82675466                0.01072216                0.20130629                0.05525527               -0.98364424               -0.88451577                7.38276037                1.10022884
               9.54860335                0.42283900               27.71745689                0.19221720                0.26236872                0.27695386               -1.41683256               -0.48711402                4.69505024                2.58518583
              10.55208794                0.17828431               27.58403885                0.53683942                0.46952027                0.45986115               -1.84987848               -0.19243215                2.64398858                2.26337153
              11.55799376               -0.06285316               27.43414099                1.00000000                0.67364106                0.65055653               -2.27506276               -0.03389787                1.03857621                1.10489085
              12.56556076               -0.30239477               27.26866237                1.00000000                0.75670015                0.87635588               -2.79976643               -0.05482656                0.26235586               -1.36327916
               2.77660084                3.11480469               28.50347269                1.00000000               -0.41381885               -0.54576822                1.69714746               -0.04854959                0.22428332                1.95522649
               3.77246265                2.88475448               28.32507885                0.64112730               -0.34368790               -0.32278815                1.10875515               -0.01344670                0.59434616               -0.92172578
               4.76972708                2.65396704               28.15407096                0.07686866               -0.18610154               -0.08673005                0.59187816               -0.21118373                3.09259843               -3.82771118
               5.76874062                2.41848889               28.02565620                0.00010000                0.08233635               -0.33051270                0.26915577               -1.11376106                9.67696572               -1.31705342
               6.77137380                2.16903768               27.98586751                0.00010000                0.34889363               -0.57835889               -0.07259263               -1.79496488               13.36604845                0.97438447
               7.77571849                1.92044835               27.92927669                0.00010000                0.45936418               -0.51378880               -0.44225800               -1.84325711               12.47593634                1.96116956
               8.78056109                1.67046569               27.86972874                0.00010000                0.52977248               -0.32112687               -0.80394920               -1.61553529               12.28606878                2.72843105
               9.78631394                1.42397124               27.80781454                0.06238722                0.52505766               -0.21099669               -1.12937056               -1.02516750                9.05770452                4.47290816
              10.79106224                1.18176193               27.68207555                0.28233324                0.52196049               -0.10666306               -1.44719271               -0.46845951                4.31253103                5.98659254
              11.79675315                0.94298297               27.52485186                0.67636601                0.61623547                0.40596526               -1.93307452               -0.17918379                1.66504609                2.18034915
              12.80338695                0.70608073               27.34599672                1.00000000                0.66338023                0.91591170               -2.50024290               -0.18242009                0.58323872               -1.21632698
               3.00499880                4.10965711               28.44620240                1.00000000               -0.34127332               -0.47703983                1.46956056               -0.04700831                0.03762584                1.75283180
               4.00158606                3.88203281               28.25164742                0.59744321               -0.26248120               -0.22924059                0.82828331                0.00015711                0.22322193               -1.19670243
               4.99974917                3.65388426               28.06078408                0.05557990               -0.06983869                0.03664048                0.21265822               -0.59233764                7.31143747               -4.40349079
               6.00018929                3.41254745               28.00799351                0.00010000                0.14986538               -0.45885835                0.16243719               -1.46828153               15.43497267                0.18261672
               7.00274648                3.16447886               27.97840744                0.00010000                0.30473933               -0.42922241               -0.13619480               -1.88069798               16.96100882                0.75545146
               8.00628408                2.91509041               27.95430105                0.00010000                0.41302472               -0.52015785               -0.39686168               -1.98844566               17.14334170                2.17537558
               9.01100698                2.66586842               27.92643297                0.00010000                0.52598392               -0.53513139               -0.65756358               -1.89916279               16.59535689                3.62315537
              10.01680376                2.41861906               27.88930411                0.06635810                0.63500225               -0.65595216               -0.93188532               -1.53736141               14.65247285                4.99323205
              11.02370702                2.17615105               27.82078482                0.27572972                0.66437674               -0.58317753               -0.91209789               -0.65028965                6.98000075                6.87932088
              12.03009129                1.94526615               27.62815105                0.63141805                0.60049092                0.18563000               -1.54023452               -0.05288637                0.43551301                2.47817539
              13.03571684                1.71592347               27.42790785                0.96650319                0.56255483                0.94133779               -2.20301941               -0.07826243                0.06203438               -0.97328533
               3.23090928                5.10526389               28.38708968                1.00000000               -0.26706352               -0.40165772                1.24095301               -0.04631691                0.02232142                1.63541257
               4.22823864                4.88016967               28.17819050                0.57237561               -0.17717980               -0.14524526                0.55153965                0.00906854                0.13263527               -1.20044515
               5.22736568                4.65469985               27.97146451                0.04456102                0.02708710                0.12266983               -0.12212318               -0.91154883               10.38613289               -4.09836874
               6.22878039                4.40931173               27.96761596                0.00010000                0.19256005               -0.21114920               -0.07703022               -1.98322774               21.12826246               -1.19571389
               7.23121688                4.16045323               27.97431635                0.00010000                0.28898121               -0.34417385               -0.21573266               -2.25206472               21.81620048                0.74703204
               8.23456001                3.91004520               27.98221935                0.00010000                0.39161466               -0.49370716               -0.36854484               -2.36764885               21.90595500                2.36166557
               9.23904918                3.65976306               27.98841365                0.00010000                0.53620348               -0.65456706               -0.53354671               -2.34726409               21.75076142                4.08341720
              10.24528408                3.41085220               27.99070616                0.07421674                0.61800934               -0.83500689               -0.71563291               -1.91355874               19.00965678                6.12675612
              11.25140936                3.17009838               27.93927042                0.28655260                0.53194637               -0.56653671               -0.47680702               -0.79239855                8.35492939                5.29121407
              12.25592301                2.94669557               27.72591629                0.64428232                0.45488507                0.13014815               -1.18428417               -0.02348069                0.14833320                1.94919860
              13.26050707                2.72490748               27.50971326                0.97405471                0.45840583                0.82784789               -1.91415032               -0.04326812                0.01219715               -1.11655963
               3.45426090                6.10162396               28.32754196                1.00000000               -0.19294247               -0.32702217                1.01350364               -0.04574203                0.01980398                1.59644850
               4.45233148                5.87912790               28.10454113                0.54988668               -0.09423797               -0.06375462                0.27655564                0.01352644                0.13970013               -1.20749919
               5.45237614                5.65633765               27.88389383                0.03531176                0.12199414                0.20624412               -0.44354407               -1.17153938               13.25751349               -3.97619151
               6.45477136                5.40832446               27.92321698                0.00010000                0.22977878               -0.00144776               -0.31014204               -2.46906949               26.59820869               -1.47625372
               7.45697172                5.15759538               27.96772829                0.00010000                0.24249557               -0.20499242               -0.31527783               -2.71919033               26.96401581                0.53678491
               8.45962127                4.90521627               28.01216976                0.00010000                0.31414891               -0.44681620               -0.34948090               -2.90129235               27.03923826                2.44098151
               9.46325470                4.65277708               28.05555196                0.00010000                0.42879921               -0.70103859               -0.41330143               -2.96292724               27.01182781                4.39409592
              10.46819726                4.40191893               28.09640250                0.08226110                0.43804907               -0.90678939               -0.51385676               -2.39093637               22.60677695                6.45707783
              11.47201568                4.16482032               28.04827791                0.29842328                0.33076610               -0.50759133               -0.06681215               -0.94752353                9.25024145                4.55522177
              12.47481258                3.94786911               27.81946299                0.66007376                0.32059838                0.09429303               -0.83848019               -0.02544263                0.12213622                1.57275187
              13.47842764                3.73248042               27.58830878                0.98380489                0.36150674                0.69087013               -1.63581032               -0.04176401                0.01103099               -1.37587845
               3.67498655                7.09872345               28.26771254                1.00000000               -0.11910733               -0.25394271                0.78726523               -0.04497432                0.02060382                1.56756941
               4.67379548                6.87889458               28.03076740                0.52894870               -0.01241086                0.01630894                0.00479566                0.01655199                0.16218818               -1.20947266
               5.67473833                6.65882473               27.79659994                0.02668914                0.21728968                0.29108667               -0.75847753               -1.38017675               16.05891105               -3.93417967
               6.67814127                6.40928277               27.87754710                0.00010000                0.26014718                0.19735266               -0.53599391               -2.89857177               31.99801717               -1.58308999
               7.67994128                6.15635338               27.96022975                0.00010000                0.16055960               -0.02926843               -0.41285831               -3.21167881               32.20098701                0.42329944
               8.68135246                5.90110887               28.04280804                0.00010000                0.15733482               -0.34629498               -0.32991480               -3.47853695               32.33307554                2.39613162
               9.68308797                5.64574229               28.12519264                0.00010000                0.20348266               -0.67344728               -0.28780181               -3.61007919               32.42393070                4.48562257
              10.68542211                5.39271641               28.20617558                0.09048005                0.17103683               -0.91394684               -0.29726132               -2.81735214               25.85904675                6.77670329
              11.68650871                5.15994656               28.15347054                0.31068175                0.11659669               -0.48201884                0.33502608               -1.02208643                9.75835204                4.20530565
              12.68775405                4.94858143               27.91016468                0.67660415                0.19702252                0.04080665               -0.49883861               -0.02640367                0.12602555                1.32714155
              13.69044916                4.73872489               27.66447283                0.99388906                0.26951102                0.56073557               -1.36208729               -0.04153864                0.01228896               -1.55215755
               3.89301916                8.09654510               28.20764436                1.00000000               -0.04579228               -0.18284722                0.56263162               -0.04410908                0.02067015                1.53897453
               4.89256123                7.87945408               27.95687901                0.50931487                0.06826299                0.09484381               -0.26257114                0.01869861                0.18908981               -1.20756085
               5.89438442                7.66215939               27.70942172                0.01841275                0.33550231                0.37423539               -1.06640081               -1.53423774               18.81065173               -3.89047223
               6.89927128                7.41227152               27.83103878                0.00010000                0.32638131                0.38648158               -0.74705982               -3.19346303               37.34551226               -1.61303156
               7.90091204                7.15701001               27.95194113                0.00010000                0.06951738                0.14968474               -0.50131804               -3.57592068               37.45352815                0.31501414
               8.90066163                6.89829037               28.07293140                0.00010000               -0.07332315               -0.18441586               -0.30193086               -3.91360360               37.70556215                2.19185923
               9.89944558                6.63930813               28.19563469                0.00010000               -0.15078422               -0.56130545               -0.14645100               -4.16002055               38.05283409                4.32785375
              10.89764594                6.38363999               28.31993423                0.09889784               -0.18683250               -0.86062295               -0.04472465               -3.18358874               28.94101693                6.97241116
              11.89570893                6.15517994               28.25646356                0.32324206               -0.10698832               -0.48077728                0.73150412               -1.06138246                9.94727579                3.98476715
              12.89550618                5.94868524               27.99906892                0.69376349                0.08005141               -0.02474892               -0.16329815               -0.02875435                0.13549986                1.18303306
              13.89730996                5.74369514               27.73912981                1.00000000                0.18037808                0.43561991               -1.09055062               -0.04208205                0.01353629               -1.64162225
               4.10828641                9.09506651               28.14729979                1.00000000                0.02687513               -0.11386590                0.34018074               -0.04225507                0.02847631                1.51980759
               5.10855516                8.88079146               27.88292908                0.49088199                0.14748635                0.17162796               -0.52494773                0.01905333                0.23065196               -1.21964325
               6.11123614                8.66630944               27.62253973                0.01033812                0.54331103                0.45187204               -1.36539671               -1.64977466               21.55495051               -3.72596158
               7.11942138                8.41701240               27.78460302                0.00010000                0.55839367                0.45779528               -0.93846673               -3.26858041               42.63518626               -1.44005284
               8.12240401                8.15934708               27.94267926                0.00010000                0.06804402                0.21311020               -0.57672625               -3.47449025               42.59495017                0.20975144
               9.12078226                7.89742056               28.10044786                0.00010000               -0.39330376                0.05956582               -0.26470669               -3.81590458               43.02889766                1.73216704
              10.11453794                7.63451618               28.26348452                0.00010000               -0.74518657               -0.22512553                0.01091352               -4.33347442               43.89884464                3.63550281
              11.10587853                7.37550395               28.43509790                0.10753563               -0.71510666               -0.64670134                0.25051051               -3.54908290               32.06911098                6.61662853
              12.10023580                7.15033101               28.35790655                0.33607389               -0.36073831               -0.49328751                1.12293807               -1.13103108                9.99767296                3.69857530
              13.09866377                6.94808645               28.08703478                0.71156394               -0.03240351               -0.09862267                0.17003334               -0.03533023                0.17002623                1.14485218
              14.09958773                6.74743728               27.81315333                1.00000000                0.09239670                0.31524095               -0.81907196               -0.04312544                0.02445839               -1.66727508
               4.32072415               10.09426778               28.08691221                1.00000000                0.09752098               -0.04747138                0.11861665               -0.04069946               -0.01394405                1.30330313
               5.32169936                9.88288664               27.80857693                0.47317779                0.22219108                0.24642592               -0.77856308                0.01562070                0.38720396               -1.08616574
               6.32516797                9.67119683               27.53820860                0.00204291                0.95813377                0.51961764               -1.65054392               -1.83036906               24.46308031               -2.78323382
               7.34086204                9.42142742               27.74133038                0.00010000                1.29230551                0.00624153               -1.10309096               -2.53712861               47.79165583               -0.83993565
               8.35101408                9.16127221               27.93269727                0.00010000                0.41561973                0.12646691               -0.63660965               -2.38294091               47.38195206                0.10592956
               9.34917443                8.89948168               28.12224133                0.00010000               -0.81606936                0.30370925               -0.22467551               -2.54807756               47.97407797                0.96883499
              10.33469270                8.63480562               28.32117819                0.00010000               -1.91624914                0.45167354                0.16374912               -3.29581232               49.74055637                2.13510538
              11.31084945                8.37070596               28.54287681                0.11653440               -1.70934460                0.11498722                0.56648045               -3.14932380               35.52852374                4.46136061
              12.30050581                8.14531419               28.45557955                0.34916429               -0.65780757               -0.49370670                1.49826530               -1.31028910               10.41451162                2.60672058
              13.29769330                7.94671279               28.17523772                0.72997762               -0.13800135               -0.17797493                0.50474152               -0.04703053                0.37125113                1.02382443
              14.29774578                7.74999995               27.88701572                0.99999755                0.00524799                0.20171632               -0.54697740               -0.04612799               -0.01829684               -1.41111790
               4.53023471               11.09411708               28.02230883                0.99703389                0.17038205               -0.01507050               -0.10524880                0.11134582                0.63868212                1.09087284
               5.53193853               10.88571997               27.73708770                0.73159175                0.29266300                0.28333370               -1.02286710                0.15315308                1.53852475               -0.93613386
               6.53608797               10.67670180               27.46981393                0.49867077                2.33324449                0.55049690               -1.88724383               -2.33713701               27.67386893               -1.97459825
               7.57860342               10.41713723               27.70711089                0.44355139                3.03014803               -0.42901874               -1.22484907               -1.96713044               52.34338935               -0.51381123
               8.59669093               10.16187641               27.92227938                0.43372281                0.88419395                0.06041992               -0.67942380               -1.11443967               51.47496918                0.01348522
               9.59628730                9.90349474               28.13528545                0.44952632               -0.96467618                0.40130586               -0.19108783               -1.20505116               52.14941592                0.49761745
              10.57739741                9.64354965               28.35945754                0.48950709               -3.19519066                0.87440240                0.27901160               -2.01408101               54.41992508                1.16729747
              11.53238349                9.37780369               28.61525517                0.56136443               -3.96871085                0.70977305                0.79432595               -3.00123446               39.24326430                2.79552423
              12.49802319                9.14045688               28.53537167                0.67909471               -1.96730487               -0.48573137                1.79602917               -1.91209820               12.46984912                1.71439720
              13.49303739                8.94452695               28.26078898                0.87123486               -0.29661741               -0.21858397                0.82751243                0.08514613                1.71273202                0.89252419
              14.49209085                8.75147161               27.96595306                0.99992835               -0.09465470                0.14716558               -0.25262618                0.12897276                0.70334049               -1.15000076
               2.46743180                1.20394783               29.64220057                1.00000000               -0.56828132               -0.62826742                2.14764986               -0.10948970               -1.37880279                1.39947241
               3.46174898                0.95545385               29.47161319                1.00000000               -0.50217023               -0.45011791                1.61050358               -0.06882834               -1.43729607               -0.12991590
               4.45738839                0.70610692               29.29991707                0.67407595               -0.45938256               -0.26898582                1.06068737               -0.18591628               -1.08391409               -1.08394821
               5.45256133                0.45304323               29.13654359                0.51750546               -0.50283741               -0.15240865                0.54974643               -0.28120037                0.78889596               -0.13045587
               6.44733164                0.19146346               29.00337364                0.45600196               -0.38783476               -0.00504119                0.01655493               -0.26010243                3.59456963               -0.11926342
               7.44480464               -0.07952025               28.89791033                0.46018538                0.03696330                0.14539076               -0.55483138               -0.16016871                4.87853769                0.02613424
               8.44807091               -0.35361257               28.79183684                0.52212145                0.51042607                0.30036517               -1.10962948               -0.18677144                3.48544345                0.14900084
               9.45501316               -0.62331525               28.65831627                0.65285426                0.73101090                0.44973958               -1.62088305               -0.20935620                0.89552820                0.22347068
              10.46269113               -0.88691963               28.49924912                0.87992907                0.77324591                0.58064636               -2.11469092               -0.14923190               -1.02749437                0.54832124
              11.47047808               -1.14662218               28.32622415                1.00000000                0.82852611                0.72232145               -2.64544256               -0.07724963               -1.43062238                0.69931307
              12.47926165               -1.40497102               28.15855172                1.00000000                0.87835732                0.90980506               -3.13572800               -0.12869952               -1.14619672               -1.32459532
               2.71483087                2.19766515               29.57776866                1.00000000               -0.48497162               -0.60427399                1.91898894               -0.03346057                0.07310943                1.75283515
               3.70998116                1.95095268               29.40679575                0.84053977               -0.40481634               -0.41118301                1.38546084                0.00288982                0.30778256               -0.42320665
               4.70673454                1.70341706               29.24052916                0.21664723               -0.14550486               -0.21218117                0.89746902               -0.17564956                1.95549271               -2.14035265
               5.70707106                1.45151914               29.10241021                0.00508085                0.21389069               -0.11237783                0.44731495               -0.59967156                4.53289590               -2.12450533
               6.71101236                1.19141305               28.98668132                0.00955033                0.43349529               -0.41016828               -0.02334181               -1.03605772                7.28091647                0.63915651
               7.71574096                0.92193366               28.90180811                0.01315233                0.35441690               -0.20662467               -0.52682592               -1.26510070                8.89013895                0.98458374
               8.71810070                0.64939109               28.81679259                0.01087052                0.19160835                0.05713285               -1.00905699               -1.08453479                7.45936383                1.14752484
               9.71957313                0.38118214               28.70315378                0.18773744                0.23757894                0.26765176               -1.44530925               -0.59047380                4.79249412                2.65354067
              10.72285228                0.11888683               28.56542412                0.52618702                0.45790722                0.45497133               -1.87514724               -0.22982984                2.74887008                2.35684574
              11.72873128               -0.13939897               28.41132716                1.00000000                0.67356094                0.65010414               -2.28529421               -0.04024986                1.09867906                1.16168911
              12.73632349               -0.39587297               28.24062667                1.00000000                0.75922187                0.87712900               -2.80276188               -0.05807008                0.26857742               -1.40222511
               2.96018754                3.19186235               29.52046205                1.00000000               -0.41326645               -0.54948599                1.70086621               -0.04823070                0.22583635                1.99320587
               3.95605487                2.94723019               29.33613753                0.62710243               -0.34392997               -0.31965023                1.10356593               -0.01264230                0.63282675               -0.99349027
               4.95330894                2.70186329               29.15994754                0.07397616               -0.17414802               -0.07305943                0.58504992               -0.26403477                3.26764562               -4.01815544
               5.95257191                2.45079567               29.02835006                0.00010000                0.14435171               -0.38044534                0.27121908               -1.33604735                9.93854818               -1.36791510
               6.95619597                2.18326009               28.98506076                0.00010000                0.44763367               -0.66767589               -0.08835053               -2.15043437               13.60165959                0.95523608
               7.96152459                1.91634726               28.92474114                0.00010000                0.54678773               -0.58018421               -0.46482143               -2.22464291               12.70463746                1.99859296
               8.96713173                1.64753009               28.86155401                0.00010000                0.60916761               -0.34966128               -0.83116143               -1.98283728               12.53765497                2.80874949
               9.97370794                1.38203778               28.79639989                0.05973145                0.57719587               -0.23819898               -1.15699409               -1.27359918                9.33513577                4.55896720
              10.97867564                1.12217979               28.66758393                0.27563916                0.53624716               -0.18165777               -1.45234071               -0.55589873                4.51724437                6.23355483
              11.98443288                0.86637990               28.50554503                0.65966037                0.61863048                0.37415842               -1.91912095               -0.20768074                1.73818196                2.25956451
              12.99104825                0.61257156               28.32105103                0.99579733                0.66153724                0.92212929               -2.47815421               -0.20300639                0.60686688               -1.27204499
               3.20313056                4.18667543               29.46090479                1.00000000               -0.34031986               -0.48084995                1.47085565               -0.04704906                0.03671699                1.78427660
               4.19972736                3.94455967               29.25988732                0.58455660               -0.26210924               -0.22284127                0.81953907                0.00248615                0.23560260               -1.26666597
               5.19788838                3.70195587               29.06283054                0.05315954               -0.03870254                0.05568233                0.19634017               -0.69998622                7.61939103               -4.60414501
               6.19895331                3.44391023               29.00950320                0.00010000                0.22818546               -0.52569765                0.13872748               -1.71733450               15.90781167                0.10263889
               7.20245208                3.17805953               28.97692080                0.00010000                0.40123992               -0.48670981               -0.16131341               -2.20878502               17.33294981                0.72687275
               8.20697811                2.91032997               28.95018070                0.00010000                0.51506694               -0.58257925               -0.42725836               -2.35260086               17.53839409                2.19669657
               9.21275342                2.64239786               28.91969627                0.00010000                0.62366680               -0.59165895               -0.68976669               -2.25667420               16.98943954                3.67939126
              10.21945145                2.37641816               28.87985030                0.06370197                0.73193809               -0.70620139               -0.95767705               -1.86430602               15.19233573                5.05366134
              11.22739218                2.11525367               28.81163003                0.26939271                0.73672252               -0.70035297               -0.91730511               -0.80082324                7.34204454                7.13980482
              12.23418590                1.86808420               28.61274006                0.61606127                0.62439321                0.13613578               -1.54065445               -0.06483216                0.44862483                2.55574742
              13.23988005                1.62256961               28.40589449                0.95463258                0.56941536                0.96011509               -2.20216963               -0.08040221                0.05872672               -1.04660376
               3.44347808                5.18224535               29.39949599                1.00000000               -0.26539202               -0.40519581                1.24008368               -0.04652520                0.02239810                1.66690246
               4.44082416                4.94277337               29.18364716                0.55997065               -0.17597125               -0.13668495                0.53935798                0.01209575                0.14105196               -1.26634008
               5.43995865                4.70297694               28.97013738                0.04228009                0.06487027                0.14413255               -0.14392850               -1.05417654               10.76109463               -4.26611029
               6.44212156                4.44028172               28.96668080                0.00010000                0.28209396               -0.23782966               -0.11111076               -2.29164148               21.77974159               -1.32929448
               7.44560053                4.17352590               28.97197786                0.00010000                0.40063381               -0.38901857               -0.25261600               -2.60562227               22.37783959                0.70335686
               8.45013424                3.90469567               28.97833093                0.00010000                0.51547595               -0.55119222               -0.40925395               -2.74295817               22.46211626                2.37164929
               9.45591005                3.63569691               28.98286248                0.00010000                0.67158820               -0.72004306               -0.57596877               -2.71913155               22.30002963                4.12865585
              10.46356600                3.36791376               28.98334510                0.07142367                0.75415468               -0.91506599               -0.75425894               -2.25718046               19.77105326                6.19327397
              11.47099314                3.10817273               28.93444339                0.27997862                0.61271477               -0.65354990               -0.48774149               -0.96190335                8.85731332                5.49301969
              12.47582030                2.86910261               28.71402080                0.62880347                0.47381178                0.09840669               -1.19607717               -0.02944444                0.15781826                2.00971747
              13.48046938                2.63177386               28.49051956                0.96222875                0.46490815                0.85080152               -1.92879186               -0.04328136                0.01041328               -1.19583160
               3.68114401                6.17857152               29.33766489                1.00000000               -0.19063284               -0.33037447                1.01078547               -0.04598102                0.01992457                1.62877893
               4.67923768                5.94182597               29.10723440                0.53796594               -0.09237567               -0.05368850                0.26148311                0.01649061                0.14884207               -1.26915788
               5.67929650                5.70483852               28.87933358                0.03320309                0.16669203                0.22948317               -0.46949507               -1.33911380               13.70066379               -4.13002715
               6.68257152                5.43915364               28.91991633                0.00010000                0.33145933               -0.00849719               -0.35122099               -2.81988313               27.41003284               -1.59771633
               7.68592568                5.17027916               28.96434446                0.00010000                0.36882043               -0.23845406               -0.36234711               -3.10390876               27.70464999                0.48699039
               8.68994793                4.89930613               29.00840912                0.00010000                0.46135112               -0.50164760               -0.40285251               -3.30454744               27.76142384                2.44744149
               9.69515271                4.62799700               29.05112316                0.00010000                0.59420410               -0.77360073               -0.47155440               -3.36316537               27.71111712                4.44059621
              10.70183201                4.35811684               29.09095067                0.07933852                0.59062758               -0.99142951               -0.57368879               -2.76302895               23.58128600                6.52540844
              11.70696526                4.10218268               29.04754593                0.29161816                0.40819331               -0.56800618               -0.07891768               -1.13256965                9.89859473                4.74284216
              12.70999588                3.87005233               28.81100927                0.64424743                0.33533369                0.07642865               -0.85269165               -0.02966225                0.13483273                1.62916056
              13.71367193                3.63958564               28.57186192                0.97180762                0.36760520                0.71368219               -1.65657536               -0.04123996                0.01092299               -1.45682620
               3.91604954                7.17563786               29.27556657                1.00000000               -0.11625804               -0.25741362                0.78318265               -0.04516668                0.02068656                1.60057170
               4.91488696                6.94169960               29.03073258                0.51750723               -0.01004172                0.02741787               -0.01237966                0.01913131                0.17262101               -1.26537685
               5.91584871                6.70756660               28.78887615                0.02475857                0.26981496                0.31565010               -0.78746127               -1.56736310               16.57027126               -4.07714208
               6.92028326                6.44011177               28.87196272                0.00010000                0.37605791                0.20191086               -0.58227365               -3.28530404               32.96581701               -1.69003001
               7.92336987                6.16875682               28.95582309                0.00010000                0.30210938               -0.05354933               -0.46961243               -3.62854799               33.11477848                0.38039844
               8.92632545                5.89466272               29.03917396                0.00010000                0.32330794               -0.39768173               -0.39739951               -3.91051473               33.22070754                2.40682174
               9.92983603                5.62022490               29.12192126                0.00010000                0.38971478               -0.74493342               -0.36586194               -4.03845946               33.27856313                4.54175152
              10.93411975                5.34808517               29.20275324                0.08744008                0.32851181               -0.99262282               -0.38478203               -3.20190535               27.04135557                6.86997026
              11.93640626                5.09681261               29.15676535                0.30363867                0.18521696               -0.52375714                0.32450995               -1.20867901               10.54271247                4.38607584
              12.93782409                4.87063119               28.90510677                0.66039147                0.20858475                0.03044795               -0.51320321               -0.02995283                0.14164380                1.37969225
              13.94057796                4.64604750               28.65074651                0.98165284                0.27538725                0.58084678               -1.38558468               -0.04090312                0.01285032               -1.63240227
               4.14811719                8.17342324               29.21324706                1.00000000               -0.04256312               -0.18684532                0.55798073               -0.04405519                0.02110705                1.57257618
               5.14769156                7.94237433               28.95416596                0.49835519                0.07099345                0.10649688               -0.28106380                0.02049377                0.20084099               -1.25681204
               6.14953706                7.71115152               28.69860899                0.01664649                0.39918334                0.39889105               -1.09746496               -1.73803018               19.39264940               -4.02112439
               7.15567523                7.44319186               28.82332405                0.00010000                0.46333576                0.39662126               -0.79768455               -3.60454262               38.46829551               -1.70094862
               8.15880378                7.16920817               28.94660621                0.00010000                0.22971638                0.12825040               -0.56726347               -4.01111807               38.53589062                0.28287835
               9.16026956                6.89135249               29.06950752                0.00010000                0.10786462               -0.23167527               -0.38389602               -4.35432325               38.76096241                2.20993215
              10.16096107                6.61309833               29.19367183                0.00010000                0.04683185               -0.62424618               -0.24625017               -4.59658393               39.07545526                4.39817007
              11.16120619                6.33826439               29.31888218                0.09575168               -0.03577076               -0.92705980               -0.16473389               -3.56315919               30.32105570                7.10328531
              12.16024566                6.09170753               29.26373740                0.31596432               -0.05221321               -0.50817291                0.72370409               -1.24098642               10.84674497                4.15917754
              13.16016193                5.87066129               28.99737133                0.67710984                0.08877916               -0.03003075               -0.17662237               -0.03205386                0.15324006                1.23279156
              14.16202124                5.65120258               28.72811210                0.99171036                0.18593087                0.45226731               -1.11498846               -0.04158269                0.01452181               -1.72014366
               4.37726627                9.17190095               29.15068117                1.00000000                0.03022911               -0.11917665                0.33490850               -0.04250680                0.02755723                1.55195227
               5.37756856                8.94382954               28.87758710                0.48040101                0.15021559                0.18362334               -0.54252931                0.01851832                0.24345332               -1.25861793
               6.38027058                8.71554442               28.60873636                0.00872974                0.62836015                0.47422903               -1.39821096               -1.87013686               22.21151422               -3.84187436
               7.39013576                8.44804420               28.77495703                0.00010000                0.73581449                0.45707138               -0.99318976               -3.68540274               43.91367142               -1.50478435
               8.39498687                8.17132182               28.93655304                0.00010000                0.26065330                0.17696440               -0.65065588               -3.88090832               43.84083037                0.18927814
               9.39534883                7.89002921               29.09733467                0.00010000               -0.19972081                0.01514088               -0.35964334               -4.21021500               44.25462520                1.75338457
              10.39099245                7.60773997               29.26299802                0.00010000               -0.55507346               -0.26558782               -0.10954761               -4.72770450               45.10712216                3.71004635
              11.38424736                7.32954397               29.43684482                0.10429209               -0.59014114               -0.68491838                0.09776298               -3.90654406               33.63761025                6.77768104
              12.37918963                7.08664915               29.36911194                0.32856887               -0.32796984               -0.50864816                1.11851018               -1.30178105               10.98805890                3.86118441
              13.37768796                6.87003057               29.08867965                0.69444612               -0.02629510               -0.10038770                0.15858379               -0.03885500                0.19047272                1.19447416
              14.37866373                6.65509285               28.80484991                1.00000000                0.09757664                0.32815949               -0.84332324               -0.04281321                0.02612050               -1.74334519
               4.60340989               10.17103971               29.08806513                0.99315210                0.10085693               -0.05257170                0.11326820               -0.04037435               -0.00807682                1.33373186
               5.60441846                9.94604680               28.80073389                0.46312441                0.22548896                0.25729842               -0.79504136                0.01077853                0.40289067               -1.11389381
               6.60791967                9.72063610               28.52154197                0.00126949                1.08856597                0.53586659               -1.68670356               -2.07429081               25.19969896               -2.86512086
               7.62618978                9.45233328               28.73002567                0.00010000                1.56404654               -0.06662530               -1.16102591               -2.86382802               49.22776097               -0.87296253
               8.63920060                9.17274746               28.92594666                0.00010000                0.67286670                0.06350943               -0.71598454               -2.65947212               48.78266592                0.09540219
               9.63964711                8.89165531               29.11948588                0.00010000               -0.61541859                0.26264450               -0.32860635               -2.79233095               49.36289158                0.98311042
              10.62689222                8.60778657               29.32215022                0.00010000               -1.77404869                0.43847046                0.02829627               -3.55248513               51.14740115                2.18730371
              11.60416614                8.32456602               29.54765971                0.11321479               -1.65843968                0.15765239                0.38659917               -3.40179816               37.28252900                4.59001208
              12.59372343                8.08153457               29.47055682                0.34145111               -0.66125014               -0.49775843                1.49766158               -1.47939104               11.48337794                2.72134231
              13.59094113                7.86865354               29.18024275                0.71234320               -0.13415050               -0.17750865                0.49601918               -0.05141905                0.40137561                1.06844500
              14.59104042                7.65776577               28.88143806                1.00000000                0.00992889                0.21111900               -0.57003992               -0.04616560               -0.01817655               -1.47389582
               4.82644461               11.17084952               29.02124869                0.99228651                0.17431270               -0.01901932               -0.10731926                0.11607109                0.65425209                1.12117227
               5.82818774               10.94897551               28.72682130                0.72670326                0.30268338                0.29287090               -1.04448267                0.14754001                1.57850786               -0.95684437
               6.83249828               10.72626176               28.45076724                0.49801228                2.62800551                0.56256525               -1.92470026               -2.65532961               28.50877159               -2.03070758
               7.88074785               10.44671169               28.69458594                0.44385195                3.49885619               -0.56215924               -1.28349209               -2.22768006               53.93472575               -0.53789597
               8.90247540               10.17259201               28.91509260                0.43389790                1.18576249               -0.01554467               -0.76018192               -1.24399902               53.01292898                0.00193781
               9.90446310                9.89528210               29.13285173                0.44931834               -0.77216795                0.36267924               -0.29773925               -1.32253285               53.67624056                0.50041682
              10.88703204                9.61650938               29.36155679                0.48873416               -3.09998484                0.87228090                0.13841001               -2.11527263               55.98422459                1.19286368
              11.84246340                9.33269702               29.62227093                0.55968493               -4.07588746                0.81309967                0.60446606               -3.16104359               41.16487306                2.88135214
              12.80551429                9.07669398               29.55333934                0.67517653               -2.10175085               -0.48405876                1.79809233               -2.13174476               13.65130324                1.78985055
              13.80042838                8.86648040               29.26903736                0.86225875               -0.29991694               -0.21731384                0.82211428                0.07978732                1.80200044                0.93132035
              14.79951595                8.65931523               28.96333083                0.99992601               -0.09124286                0.15494599               -0.27307841                0.13103623                0.73540039               -1.20036343
               2.62672538                1.28367913               30.66372408                1.00000000               -0.57194644               -0.63114352                2.15725784               -0.10978045               -1.42111984                1.43446896
               3.62100592                1.02002933               30.48774711                1.00000000               -0.50904463               -0.45292341                1.62496608               -0.07026699               -1.49140757               -0.14767999
               4.61654449                0.75546063               30.31048261                0.67057308               -0.49377865               -0.26792953                1.06349593               -0.21770440               -1.12942530               -1.09154986
               5.61113034                0.48635891               30.14200932                0.51671037               -0.57814090               -0.14977858                0.54435320               -0.32495282                0.74831198               -0.13542387
               6.60498167                0.20714044               30.00346891                0.45594040               -0.47109279                0.00016063                0.00439931               -0.29873802                3.51644189               -0.12334860
               7.60170849               -0.08330384               29.89223637                0.45985716                0.00227389                0.15308921               -0.57755895               -0.17954215                4.78046065                0.02546030
               8.60502715               -0.37757090               29.78055081                0.52084445                0.54196851                0.30951820               -1.14439083               -0.20797699                3.40747631                0.15239270
               9.61254786               -0.66677344               29.64187206                0.64960060                0.78669041                0.45996301               -1.66557934               -0.23501424                0.84431213                0.22896985
              10.62076096               -0.94881887               29.47785882                0.87285502                0.81445590                0.59052890               -2.16299060               -0.16062427               -1.08565810                0.54396897
              11.62883698               -1.22624792               29.29953097                1.00000000                0.85301192                0.73076771               -2.69943766               -0.07068409               -1.47962219                0.75439821
              12.63782119               -1.50208820               29.12699077                1.00000000                0.89842187                0.91496180               -3.19194655               -0.13281645               -1.16841520               -1.35892816
               2.88927738                2.27736770               30.59699705                1.00000000               -0.48648828               -0.60732289                1.92669069               -0.03469986                0.08546826                1.79204563
               3.88441250                2.01550009               30.42064540                0.82370968               -0.40373637               -0.41181096                1.38909490                0.00207052                0.34265528               -0.47046967
               4.88120265                1.75278133               30.24947460                0.21150308               -0.11857952               -0.20790379                0.89919901               -0.21579987                2.03327377               -2.22583593
               5.88204091                1.48486112               30.10688381                0.00524227                0.28115041               -0.11606537                0.44779425               -0.71856329                4.61651976               -2.16720840
               6.88682566                1.20714205               29.98641651                0.00961745                0.51139143               -0.46187636               -0.02936505               -1.22999077                7.33215162                0.61920485
               7.89226874                0.91822705               29.89645983                0.01316468                0.39282589               -0.23242652               -0.54266889               -1.50041367                8.93039818                0.99910829
               8.89468218                0.62552428               29.80657352                0.01098773                0.17764821                0.06539460               -1.03534615               -1.28862919                7.52975187                1.18804855
               9.89582170                0.33782619               29.68855070                0.18315534                0.21048864                0.26137540               -1.47678394               -0.69994931                4.88725282                2.71228489
              10.89889195                0.05708641               29.54653591                0.51545445                0.44715469                0.45230013               -1.90913501               -0.26326966                2.85806250                2.44639994
              11.90476480               -0.21894025               29.38843511                1.00000000                0.67206738                0.65046442               -2.29665403               -0.04061376                1.16635935                1.21926628
              12.91233330               -0.49293858               29.21260714                1.00000000                0.75685057                0.87301011               -2.79482413               -0.06527846                0.28359373               -1.43434473
               3.14976659                3.27153267               30.53749002                1.00000000               -0.41329005               -0.55294961                1.70499130               -0.04942196                0.22748732                2.03098064
               4.14563369                3.01179311               30.34715017                0.61303541               -0.34495647               -0.31551147                1.09902305               -0.01351287                0.67536179               -1.06900830
               5.14286746                2.75130255               30.16577196                0.07106134               -0.16176645               -0.05849062                0.57932729               -0.32185247                3.45509783               -4.21875328
               6.14239836                2.48403760               30.03108058                0.00010000                0.20742297               -0.42958162                0.27631491               -1.55926406               10.20253736               -1.43806921
               7.14701592                2.19790291               29.98410050                0.00010000                0.54598090               -0.75214196               -0.10372298               -2.50438238               13.83011554                0.92111686
               8.15331798                1.91204763               29.91998026                0.00010000                0.63197544               -0.63962545               -0.48746639               -2.60790858               12.93175702                2.02206131
               9.15965543                1.62373699               29.85310551                0.00010000                0.68343780               -0.36882477               -0.85907803               -2.35747888               12.78632028                2.87757915
              10.16698674                1.33845406               29.78467465                0.05699468                0.63032823               -0.25395490               -1.18814008               -1.53074222                9.61550077                4.63285621
              11.17226200                1.06022713               29.65302874                0.26881824                0.55314778               -0.24993617               -1.46934480               -0.64632523                4.73354633                6.47219657
              12.17804969                0.78676136               29.48646945                0.64260031                0.61251449                0.34227837               -1.88283383               -0.24102965                1.81256967                2.31356402
              13.18451229                0.51537201               29.29643364                0.98253510                0.64625931                0.92307174               -2.44008677               -0.22647524                0.63317438               -1.34161417
               3.40776808                4.26630870               30.47561952                1.00000000               -0.33957120               -0.48454128                1.47176544               -0.04746880                0.03595904                1.81599715
               4.40437236                4.00918986               30.26803820                0.57159728               -0.26234813               -0.21486571                0.81052462                0.00437082                0.24933698               -1.33956187
               5.40252111                3.75161152               30.06471088                0.05065716               -0.00585493                0.07860297                0.17938200               -0.81169521                7.92939600               -4.81479950
               6.40425527                3.47626949               30.01076806                0.00010000                0.31034349               -0.58624443                0.11309666               -1.96879711               16.38515332                0.00017115
               7.40872798                3.19209921               29.97518117                0.00010000                0.50106114               -0.54031037               -0.18695127               -2.53636619               17.70970285                0.68332712
               8.41427649                2.90543454               29.94575588                0.00010000                0.61990929               -0.63989329               -0.45800957               -2.71758423               17.93683556                2.20433561
               9.42112617                2.61814778               29.91263763                0.00010000                0.72201149               -0.64138500               -0.72200407               -2.61536401               17.39181522                3.72296943
              10.42871672                2.33274709               29.87015056                0.06096036                0.82659895               -0.74183805               -0.98297897               -2.19612987               15.75012237                5.10332938
              11.43765815                2.05208769               29.80243872                0.26291884                0.80413025               -0.80921292               -0.91999251               -0.96119196                7.71807319                7.39034795
              12.44479932                1.78790532               29.59733796                0.60060900                0.64621809                0.09296691               -1.54691075               -0.08056625                0.46193858                2.61067421
              13.45058251                1.52552286               29.38386445                0.94285261                0.57831868                0.98257080               -2.21859155               -0.07796989                0.05294789               -1.15499508
               3.66305490                5.26184185               30.41189135                1.00000000               -0.26366060               -0.40898759                1.23855202               -0.04699117                0.02256560                1.69899623
               4.66041829                5.00749579               30.18897766                0.54745509               -0.17504828               -0.12652710                0.52623934                0.01500112                0.15045723               -1.33417856
               5.65955393                4.75287461               29.96858594                0.03991566                0.10582197                0.16934101               -0.16716212               -1.19983549               11.13627625               -4.43926747
               6.66253473                4.47231271               29.96539375                0.00010000                0.37848044               -0.25906358               -0.14746710               -2.60360189               22.43446898               -1.47323807
               7.66712354                4.18709670               29.96926403                0.00010000                0.51914931               -0.43046261               -0.29089561               -2.96094981               22.94664986                0.64575018
               8.67291772                3.89924976               29.97403427                0.00010000                0.64560320               -0.60562384               -0.45034773               -3.11964258               23.02551928                2.36681532
               9.68003561                3.61090929               29.97689427                0.00010000                0.81032567               -0.78087810               -0.61726738               -3.09115714               22.86022097                4.15737696
              10.68912423                3.32361730               29.97562098                0.06853635                0.89221586               -0.98640678               -0.78849103               -2.60914687               20.55580633                6.23880885
              11.69787992                3.04404287               29.92951559                0.27326608                0.69394841               -0.73662432               -0.49763365               -1.13628913                9.37702916                5.68847282
              12.70300320                2.78862070               29.70199475                0.61325921                0.49189445                0.07305188               -1.20969248               -0.03127612                0.16874619                2.05969726
              13.70771781                2.53502342               29.47113742                0.95047613                0.47146122                0.87970480               -1.95331319               -0.04181271                0.00982626               -1.29265119
               3.91552036                6.25812895               30.34775767                1.00000000               -0.18807396               -0.33445697                1.00728069               -0.04629522                0.02009913                1.66219059
               4.91363962                6.00665932               30.10977079                0.52592622               -0.09064385               -0.04201546                0.24508455                0.01947056                0.15885520               -1.33175155
               5.91370749                5.75499834               29.87450393                0.03102310                0.21607544                0.25659357               -0.49738832               -1.51057111               14.14317111               -4.28745573
               6.91796113                5.47108822               29.91619257                0.00010000                0.44322229               -0.01191276               -0.39477794               -3.17662270               28.22370269               -1.72628765
               7.92257193                5.18348995               29.96048135                0.00010000                0.50549596               -0.26985518               -0.41116343               -3.49320439               28.45163781                0.42509051
               8.92807105                4.89332207               30.00411271                0.00010000                0.61817775               -0.55514299               -0.45668781               -3.71045032               28.49047519                2.43784850
               9.93493549                4.60253022               30.04612087                0.00010000                0.76645742               -0.84403196               -0.52794754               -3.76293823               28.41956798                4.46644576
              10.94340020                4.31301895               30.08492873                0.07632384                0.74967391               -1.07165002               -0.62768331               -3.14470554               24.58827378                6.56656770
              11.94992897                4.03735520               30.04669956                0.28466031                0.48965233               -0.62831322               -0.08959548               -1.32615444               10.57702384                4.92884054
              12.95319325                3.78936636               29.80240916                0.62838205                0.35059241                0.05962577               -0.86814797               -0.03178446                0.15057548                1.68117607
              13.95694081                3.54311695               29.55517727                0.95984968                0.37475668                0.74016184               -1.68443722               -0.03949695                0.01132315               -1.54691641
               4.16506826                7.25515271               30.28337620                1.00000000               -0.11299408               -0.26234654                0.77829198               -0.04556583                0.02090184                1.63522750
               5.16393832                7.00665548               30.03051980                0.50594264               -0.00773212                0.04019995               -0.03098476                0.02151352                0.18375014               -1.32114141
               6.16491362                6.75800648               29.78085072                0.02274039                0.32861727                0.34391735               -0.81890191               -1.76046013               17.08035250               -4.22247856
               7.17051066                6.47207445               29.86590163                0.00010000                0.50559940                0.20850092               -0.63133319               -3.68140222               33.93351318               -1.80295383
               8.17502560                6.18169960               29.95083750                0.00010000                0.45788909               -0.07761600               -0.52865156               -4.05265501               34.03227674                0.32594204
               9.17966845                5.88814690               30.03486005                0.00010000                0.50271763               -0.44968857               -0.46578247               -4.34633716               34.11211486                2.40076149
              10.18507996                5.59402865               30.11787540                0.00010000                0.58683471               -0.81677228               -0.44230398               -4.46590319               34.13736927                4.57463753
              11.19140514                5.30218430               30.19847994                0.08430587                0.49647362               -1.07024166               -0.46671333               -3.59753838               28.26836145                6.93061298
              12.19500943                5.03147661               30.15996074                0.29645203                0.26003117               -0.56691540                0.31507356               -1.40726872               11.37323846                4.56700460
              13.19660576                4.78981322               29.89990061                0.64412496                0.22086266                0.02009178               -0.52863586               -0.03234566                0.16050670                1.42910230
              14.19942668                4.54982666               29.63676114                0.96947059                0.28209197                0.60359537               -1.41438626               -0.03975394                0.01379849               -1.71923407
               4.41160350                8.25288202               30.21880397                1.00000000               -0.03873762               -0.19326105                0.55259523               -0.04399790                0.02068812                1.60792212
               5.41121612                8.00746332               29.95125774                0.48727577                0.07379076                0.11978408               -0.30099515                0.02126950                0.21286767               -1.30363009
               6.41307931                7.76187669               29.68747242                0.01479746                0.47119236                0.42662489               -1.13146205               -1.95111051               19.97228413               -4.15478695
               7.42063997                7.47525823               29.81508509                0.00010000                0.61835346                0.40703214               -0.85210198               -4.02857896               39.58898421               -1.79512404
               8.42544638                7.18193763               29.94059586                0.00010000                0.40876455                0.10462960               -0.63635037               -4.45562842               39.61873532                0.23977029
               9.42881526                6.88432829               30.06525348                0.00010000                0.30668216               -0.28185076               -0.46771419               -4.79907596               39.81553175                2.21183416
              10.43158003                6.58619478               30.19070969                0.00010000                0.25931091               -0.68949678               -0.34571231               -5.03119466               40.09443357                4.44479837
              11.43400148                6.29161412               30.31663956                0.09250348                0.12873251               -0.99521315               -0.28145354               -3.95331018               31.75986919                7.19904092
              12.43415468                6.02601690               30.27093764                0.30855604                0.00974007               -0.53706601                0.71661647               -1.43466030               11.81155930                4.33455816
              13.43419628                5.78976819               29.99553647                0.66042643                0.09820874               -0.03543531               -0.19095662               -0.03492725                0.17428976                1.28052499
              14.43611885                5.55518886               29.71683004                0.97926238                0.19225713                0.47088812               -1.14379134               -0.04078630                0.01582445               -1.80371658
               4.65502571                9.25128749               30.15399796                0.99730591                0.03433387               -0.12535608                0.32779746               -0.04255323                0.03065382                1.58848268
               5.65536904                9.00905117               29.87207849                0.46978648                0.15353933                0.19556182               -0.56032535                0.01578513                0.25586116               -1.29740515
               6.65809649                8.76653898               29.59457551                0.00705766                0.72545460                0.49934195               -1.43726254               -2.10226025               22.86431413               -3.96336109
               7.66987814                8.48021510               29.76473922                0.00010000                0.93732418                0.45405142               -1.05304558               -4.11870933               45.18984970               -1.57614540
               8.67684298                8.18379219               29.92966614                0.00010000                0.47758243                0.13515285               -0.72875370               -4.29721986               45.08467910                0.15960395
               9.67942978                7.88250989               30.09325499                0.00010000                0.01636324               -0.03507317               -0.45764277               -4.60700168               45.47441044                1.76127856
              10.67717024                7.58023871               30.26129357                0.00010000               -0.34564843               -0.31009221               -0.23188807               -5.11714923               46.30247436                3.76432127
              11.67251682                7.28228004               30.43705316                0.10096226               -0.45040457               -0.72670127               -0.05575156               -4.27057407               35.27854930                6.90617269
              12.66816215                7.02073528               30.38027675                0.32093613               -0.28907811               -0.52516302                1.11467032               -1.48699414               12.06366601                4.02554665
              13.66673525                6.78910451               30.09020645                0.67729341               -0.01962637               -0.10221056                0.14622084               -0.04237864                0.21428908                1.24306958
              14.66776962                6.55924442               29.79628686                0.98924490                0.10343679                0.34261312               -0.87132425               -0.04236986                0.02811395               -1.82329428
               4.89522508               10.25037490               30.08917757                0.98336453                0.10552537               -0.05570482                0.11153535               -0.04259298               -0.00036444                1.37331785
               5.89628033               10.01137456               29.79267611                0.45297711                0.23225486                0.26785522               -0.82134703                0.00548616                0.41966822               -1.15121727
               6.89987018                9.77186353               29.50447453                0.00123724                1.23661179                0.55490586               -1.73163362               -2.33165071               25.93775562               -2.95279327
               7.92101257                9.48433926               29.71810986                0.00010000                1.86685086               -0.14781584               -1.22528505               -3.20641946               50.66336724               -0.91087885
               8.93720719                9.18464069               29.91837758                0.00010000                0.96080681               -0.00844567               -0.80022662               -2.94358437               50.18015597                0.07943132
               9.94022871                8.88362683               30.11566920                0.00010000               -0.38701513                0.21307402               -0.43648453               -3.03648067               50.74174430                0.98974016
              10.92946689                8.57999293               30.32174412                0.00010000               -1.60676391                0.41775331               -0.11108310               -3.80271340               52.53208947                2.22747683
              11.90809343                8.27708009               30.55060879                0.10981373               -1.59382850                0.19641306                0.20112955               -3.65488591               39.12047502                4.69785555
              12.89759032                8.01551364               30.48553278                0.33361788               -0.66269285               -0.50232240                1.49775060               -1.66177165               12.65508832                2.83760822
              13.89483957                7.78772398               30.18515811                0.69467998               -0.12993445               -0.17701834                0.48659930               -0.05609235                0.43502417                1.11298070
              14.89499163                7.56204112               29.87561492                0.99920782                0.01520623                0.22171924               -0.59643132               -0.04617110               -0.01773490               -1.53918383
               5.13217453               11.25017339               30.02016245                0.98749199                0.18156083               -0.02015084               -0.11173760                0.11843319                0.66884326                1.16334138
               6.13399014               11.01440827               29.71619805                0.72178548                0.31621186                0.30337136               -1.08068943                0.14416610                1.63005550               -0.99458510
               7.13849877               10.77763710               29.43131992                0.49732927                2.94912191                0.57735717               -1.97136873               -2.99461507               29.35475148               -2.08944403
               8.19297258               10.47725878               29.68144105                0.44413953                4.00924742               -0.70804825               -1.34845119               -2.50468974               55.52613064               -0.56479347
               9.21868372               10.18362328               29.90707574                0.43406482                1.51876752               -0.10174117               -0.84549991               -1.37671805               54.54730906               -0.01228117
              10.22334793                9.88677137               30.12933067                0.44911238               -0.55105043                0.31445376               -0.40813182               -1.43955244               55.19144688                0.49922698
              11.20766271                9.58859378               30.36222574                0.48794585               -2.97247684                0.86008489               -0.00634419               -2.20857154               57.52261048                1.21194995
              12.16389839                9.28620830               30.62734449                0.55796732               -4.16899418                0.91282072                0.40726764               -3.31475056               43.17463002                2.95389277
              13.12428283                9.01068884               30.57133352                0.67121028               -2.24062371               -0.48247990                1.80122285               -2.36295723               14.94430490                1.86655330
              14.11908592                8.78556414               30.27723127                0.85327264               -0.30354548               -0.21598375                0.81640458                0.07413343                1.89616902                0.97050409
              15.11821192                8.56367881               29.96049149                0.99992420               -0.08740022                0.16376838               -0.29640562                0.13349473                0.76844192               -1.25231413
               2.79096335                1.36609127               31.68534572                1.00000000               -0.58010482               -0.63511368                2.17085311               -0.11073975               -1.45374091                1.47448212
               3.78516230                1.08670367               31.50411251                0.99931359               -0.52128382               -0.45634511                1.64550871               -0.07052589               -1.54620129               -0.17939485
               4.78053768                0.80629194               31.32118699                0.66702985               -0.53105182               -0.26809443                1.07650271               -0.24350204               -1.18791114               -1.10802811
               5.77454127                0.52058577               31.14743065                0.51587962               -0.65521263               -0.14820585                0.54309846               -0.36770335                0.70010013               -0.13935522
               6.76743342                0.22310131               31.00346162                0.45586319               -0.56046548                0.00642562               -0.00410483               -0.33759157                3.43490811               -0.12804213
               7.76333196               -0.08745795               30.88635915                0.45950971               -0.04243372                0.16298918               -0.59509999               -0.19957722                4.67649924                0.02486172
               8.76658475               -0.40261014               30.76894902                0.51950763                0.56297169                0.32074983               -1.17212147               -0.22974824                3.32210432                0.15578446
               9.77459139               -0.71209314               30.62500468                0.64625849                0.83671538                0.47183888               -1.70275728               -0.26277387                0.78538767                0.23618668
              10.78331906               -1.01339444               30.45598931                0.86574081                0.85811417                0.60393472               -2.21035977               -0.18146077               -1.15514346                0.53338479
              11.79175368               -1.30934249               30.27223540                1.00000000                0.88273420                0.73903704               -2.75453927               -0.07603757               -1.54492166                0.82828102
              12.80097374               -1.60338231               30.09471279                1.00000000                0.92200652                0.93795799               -3.26052298               -0.13622523               -1.21013434               -1.35189413
               3.06924355                2.35974013               31.61630247                1.00000000               -0.48868366               -0.61158851                1.93598981               -0.03730884                0.10096899                1.83478100
               4.06435671                2.08214022               31.43457765                0.80683731               -0.40409687               -0.41232249                1.39748868               -0.00056366                0.38165507               -0.52857003
               5.06116161                1.80361099               31.25851314                0.20632998               -0.09485803               -0.20199928                0.90863557               -0.25468547                2.11243317               -2.32284312
               6.06245955                1.51910371               31.11136609                0.00540835                0.34588795               -0.12178695                0.44916352               -0.83462884                4.69835097               -2.20908567
               7.06807937                1.22316556               30.98609402                0.00967674                0.58661804               -0.50917713               -0.03525700               -1.42332956                7.38029455                0.59185122
               8.07419191                0.91417194               30.89095474                0.01315535                0.42627454               -0.25248063               -0.55839180               -1.73727243                8.96489786                1.00782856
               9.07660486                0.60059736               30.79608566                0.01108565                0.15819453                0.08138529               -1.06232539               -1.49838493                7.59645726                1.22542381
              10.07735580                0.29262525               30.67361810                0.17845315                0.17621321                0.25940933               -1.51275801               -0.82245563                4.98015605                2.76944499
              11.08012912               -0.00735509               30.52724142                0.50476995                0.43157169                0.45576748               -1.95065898               -0.31723223                2.97817559                2.53236222
              12.08598724               -0.30195212               30.36539408                1.00000000                0.67610926                0.65454065               -2.34592536               -0.05609692                1.26318306                1.30956045
              13.09365131               -0.59400273               30.18473019                1.00000000                0.76640738                0.89321323               -2.83125468               -0.06458011                0.34038024               -1.45063253
               3.34541699                3.35385950               31.55456187                1.00000000               -0.41368198               -0.55730443                1.70967514               -0.05178605                0.22738664                2.07061442
               4.34128017                3.07845722               31.35811799                0.59894462               -0.34682532               -0.30996419                1.09511481               -0.01707592                0.71992790               -1.15038859
               5.33848048                2.80225195               31.17153409                0.06812443               -0.14930235               -0.03825444                0.57356559               -0.38611867                3.65552413               -4.43226856
               6.33829412                2.51815003               31.03387636                0.00010000                0.27090608               -0.47516113                0.28293807               -1.78038272               10.47006559               -1.52587023
               7.34389860                2.21291776               30.98298630                0.00010000                0.64302977               -0.83015096               -0.11933311               -2.85393178               14.05153013                0.87345248
               8.35115472                1.90749243               30.91499181                0.00010000                0.71325676               -0.69046315               -0.51066623               -2.99168749               13.15963961                2.03383648
               9.35816374                1.59901756               30.84437245                0.00010000                0.74700047               -0.37644368               -0.88761183               -2.74036017               13.03774305                2.93886170
              10.36609473                1.29309505               30.77263709                0.05415866                0.66940206               -0.25434130               -1.22236770               -1.79998240                9.90149483                4.70550398
              11.37155178                0.99572091               30.63819704                0.26193836                0.55923245               -0.30355652               -1.49210259               -0.74547967                4.98498321                6.71572405
              12.37727937                0.70374832               30.46788835                0.62601756                0.61157902                0.33622479               -1.89118335               -0.26136277                1.93241586                2.35943685
              13.38378336                0.41448196               30.27224929                0.96986866                0.65039853                0.93843297               -2.47516065               -0.21490132                0.68522523               -1.45639618
               3.61901237                4.34859404               31.49034010                1.00000000               -0.33896321               -0.48861900                1.47214406               -0.04832086                0.03529137                1.84917940
               4.61562274                4.07594094               31.27609782                0.55849895               -0.26329682               -0.20500062                0.80117643                0.00552068                0.26405784               -1.41453330
               5.61374643                3.80284590               31.06641818                0.04809513                0.02816731                0.10732964                0.16151053               -0.92764225                8.24057038               -5.03411781
               6.61618608                3.50960049               31.01176514                0.00010000                0.39559476               -0.63787869                0.08530554               -2.22223151               16.86758342               -0.12563758
               7.62165833                3.20656254               30.97318178                0.00010000                0.60361391               -0.58885191               -0.21361511               -2.86217027               18.09360977                0.62521075
               8.62825836                2.90036267               30.94102051                0.00010000                0.72683569               -0.69086457               -0.48962915               -3.08171997               18.34156951                2.19921608
               9.63619504                2.59306848               30.90525619                0.00010000                0.81972217               -0.68281760               -0.75500486               -2.97301154               17.80622617                3.75623381
              10.64465280                2.28753842               30.86019072                0.05813146                0.91856056               -0.75916397               -1.00942462               -2.52643074               16.33355150                5.14713369
              11.65456625                1.98657378               30.79323018                0.25628987                0.86730650               -0.90197795               -0.92980637               -1.10789329                8.11417710                7.64337056
              12.66199893                1.70477238               30.58180184                0.58516863                0.66598836                0.07385174               -1.56292575               -0.07569136                0.47962608                2.63057267
              13.66788602                1.42476593               30.36152266                0.93126754                0.58870853                1.00630302               -2.25599527               -0.07078418                0.04843204               -1.30253973
               3.88975677                5.34408712               31.42426703                1.00000000               -0.26180544               -0.41317786                1.23612088               -0.04762076                0.02280264                1.73300335
               4.88713872                5.07435721               31.19417194                0.53483491               -0.17443417               -0.11460696                0.51201060                0.01786113                0.16070581               -1.40346060
               5.88626809                4.80439854               30.96679413                0.03747871                0.14970663                0.19893618               -0.19196715               -1.34865232               11.51122893               -4.61740102
               6.89013285                4.50539245               30.96373146                0.00010000                0.48124596               -0.27402396               -0.18621567               -2.91878736               23.09318535               -1.62694676
               7.89589301                4.20114072               30.96615995                0.00010000                0.64407633               -0.46775231               -0.33086047               -3.31686738               23.52503383                0.57403141
               8.90301438                3.89367514               30.96932398                0.00010000                0.78173747               -0.65626799               -0.49232589               -3.49599810               23.59966471                2.34740412
               9.91152776                3.58536121               30.97051713                0.00010000                0.95232180               -0.83618471               -0.65822152               -3.46151816               23.43714291                4.17071242
              10.92206081                3.27791177               30.96757527                0.06556541                1.03161005               -1.04745906               -0.81997024               -2.96569291               21.36933971                6.26650162
              11.93215996                2.97768135               30.92449072                0.26641685                0.77562907               -0.81297216               -0.50813249               -1.31136787                9.92073654                5.87498688
              12.93757340                2.70522536               30.68982695                0.59768682                0.51103059                0.04988067               -1.22649650               -0.02712973                0.18556689                2.10251272
              13.94238057                2.43460802               30.45145330                0.93879965                0.48071756                0.91288328               -1.99072471               -0.03792677                0.01090173               -1.39475071
               4.15751976                6.34033048               31.35781050                1.00000000               -0.18512298               -0.33955044                1.00242650               -0.04698843                0.02023249                1.69762854
               5.15566853                6.07364880               31.11213609                0.51376748               -0.08908088               -0.02836938                0.22731378                0.02214364                0.16954996               -1.39438875
               6.15573814                5.80682463               30.86938581                0.02875673                0.26998114                0.28749980               -0.52740408               -1.68614747               14.58503865               -4.44827749
               7.16106815                5.50412001               30.91202077                0.00010000                0.56500743               -0.01161414               -0.44079583               -3.53916192               29.04023691               -1.86210334
               8.16703829                5.19720750               30.95612120                0.00010000                0.65248795               -0.29897883               -0.46195336               -3.88593609               29.20765045                0.35049583
               9.17411791                4.88723731               30.99927536                0.00010000                0.78448797               -0.60689786               -0.51127891               -4.11736197               29.23061676                2.41171129
              10.18272805                4.57634479               31.04056421                0.00010000                0.94504457               -0.91161878               -0.58281847               -4.16061512               29.14383135                4.47154393
              11.19301880                4.26658924               31.07839700                0.07320616                0.91486259               -1.14625850               -0.67585048               -3.53448159               25.63261319                6.57985574
              12.20102530                3.97031434               31.04575402                0.27757548                0.57554355               -0.68833664               -0.09973332               -1.52644267               11.28800920                5.11075185
              13.20452968                3.70576999               30.79364631                0.61247362                0.36684336                0.04302813               -0.88566497               -0.03151549                0.17121158                1.72669942
              14.20836217                3.44302360               30.53817317                0.94796318                0.38324951                0.77010184               -1.72037020               -0.03702409                0.01213396               -1.64311673
               4.42218037                7.33729611               31.29113241                1.00000000               -0.10929229               -0.26852786                0.77254623               -0.04544474                0.02112390                1.67286299
               5.42108745                7.07378982               31.03011288                0.49425547               -0.00532184                0.05471204               -0.05165304                0.02321848                0.19556011               -1.37575755
               6.42207393                6.81014854               30.77249811                0.02064998                0.39396476                0.37531845               -0.85262305               -1.96062022               17.58889901               -4.37072462
               7.42896674                6.50516017               30.85933606                0.00010000                0.64915225                0.21658877               -0.68343038               -4.08620351               34.90270706               -1.92305007
               8.43505698                6.19516115               30.94525006                0.00010000                0.62815522               -0.10162795               -0.59009430               -4.48255909               34.95656551                0.25869563
               9.44152985                5.88153718               31.02985831                0.00010000                0.69532744               -0.50215386               -0.53504380               -4.78419298               35.01203216                2.37669225
              10.44896353                5.56712883               31.11307518                0.00010000                0.79358933               -0.88843295               -0.51678382               -4.89074868               35.00722811                4.58266122
              11.45740163                5.25498660               31.19341897                0.08106942                0.67434145               -1.14586289               -0.54176511               -4.00286985               29.54418401                6.95594160
              12.46245036                4.96391462               31.16306682                0.28912953                0.34160952               -0.61158223                0.30590877               -1.61730270               12.25068618                4.74567287
              13.46423382                4.70608592               30.89453405                0.62782909                0.23412615                0.00979813               -0.54575679               -0.03394582                0.18382269                1.47414999
              14.46713288                4.45001005               30.62245878                0.95732970                0.28990550                0.62894635               -1.44922802               -0.03816595                0.01512333               -1.81108476
               4.68362343                8.33495993               31.22429897                1.00000000               -0.03429633               -0.19995493                0.54368871               -0.04479302                0.02058619                1.64630236
               5.68328047                8.07474304               30.94814606                0.47606562                0.07659803                0.13366199               -0.32013567                0.01959284                0.22454448               -1.34757925
               6.68515539                7.81433100               30.67597975                0.01288556                0.55255033                0.45632764               -1.17018425               -2.17345314               20.54961946               -4.29432017
               7.69433148                7.50845178               30.80628201                0.00010000                0.79273525                0.41681749               -0.91059493               -4.46403403               40.71008358               -1.89767146
               8.70101010                7.19517494               30.93387920                0.00010000                0.60674459                0.07855169               -0.70856559               -4.90749207               40.70587405                0.18397453
               9.70646637                6.87719424               31.06015324                0.00010000                0.52267835               -0.33490608               -0.55298363               -5.24595240               40.87413059                2.19569277
              10.71146366                6.55857613               31.18675758                0.00010000                0.48546282               -0.75684347               -0.44399286               -5.46210034               41.11615513                4.46494215
              11.71617562                6.24367198               31.31325311                0.08915942                0.30581304               -1.06442066               -0.39196237               -4.35299526               33.26116758                7.25491663
              12.71757993                5.95808269               31.27806973                0.30100740                0.07898510               -0.56748384                0.70956053               -1.64233638               12.84230775                4.50935481
              13.71775533                5.70596595               30.99355220                0.64369009                0.10853322               -0.04077968               -0.20685337               -0.03751812                0.19957764                1.32529611
              14.71975059                5.45560252               30.70523627                0.96685446                0.19952643                0.49160138               -1.17759374               -0.03972782                0.01746370               -1.89182038
               4.94171828                9.33329701               31.15723712                0.98708153                0.03899541               -0.13091737                0.32344010               -0.04428970                0.04022246                1.63475230
               5.94210823                9.07646306               30.86638059                0.45906588                0.15889248                0.20799251               -0.58348563                0.01062368                0.26825229               -1.34022091
               6.94489613                8.81927509               30.57999111                0.00533505                0.83669432                0.52524124               -1.48334567               -2.34404546               23.51583876               -4.09471058
               7.95884212                8.51349652               30.75389612                0.00010000                1.16342761                0.44810502               -1.11830008               -4.56601575               46.46821728               -1.65626561
               8.96816468                8.19673218               30.92197796                0.00010000                0.71837438                0.08757741               -0.81084201               -4.72115901               46.33102705                0.11888746
               9.97320961                7.87483906               31.08818182                0.00010000                0.25395457               -0.09098995               -0.55799618               -5.00455626               46.69285232                1.75388816
              10.97324377                7.55199197               31.25836026                0.00010000               -0.11872209               -0.35860943               -0.35463001               -5.50050613               47.48977261                3.79499727
              11.97083517                7.23369818               31.43572978                0.09753677               -0.29670570               -0.77200913               -0.20691805               -4.64078371               36.99600806                6.99607747
              12.96730966                6.95256494               31.39140535                0.31318592               -0.24357684               -0.54263618                1.11074180               -1.68659487               13.22656776                4.19055454
              13.96596363                6.70527033               31.09160407                0.66009695               -0.01222373               -0.10388097                0.13243286               -0.04593561                0.24226005                1.29006101
              14.96706518                6.45984208               30.78742343                0.97653814                0.11015551                0.35874713               -0.90375288               -0.04174973                0.03052267               -1.90703350
               5.19640553               10.33234158               31.09029583                0.97346355                0.11093319               -0.05752081                0.11247643               -0.04226936                0.00261087                1.42193991
               6.19751486               10.07890289               30.78430695                0.44275732                0.24177501                0.27884260               -0.85598294                0.00086884                0.43771349               -1.19661488
               7.20124103                9.82483582               30.48690930                0.00122454                1.40196061                0.57535005               -1.78569337               -2.60174147               26.68262108               -3.04999195
               8.22555407                9.51741388               30.70551997                0.00010000                2.20016745               -0.23715382               -1.29603346               -3.56184072               52.10505974               -0.95527023
               9.24524438                9.19692649               30.90994212                0.00010000                1.27806939               -0.08910556               -0.88908246               -3.23360827               51.57947110                0.05679192
              10.25111546                8.87537444               31.11075619                0.00010000               -0.13249778                0.15523211               -0.54744601               -3.27950593               52.11478411                0.98742518
              11.24259442                8.55140394               31.31992855                0.00010000               -1.41642430                0.38965872               -0.25255787               -4.04579897               53.89720867                2.25315823
              12.22278697                8.22823180               31.55168230                0.10633170               -1.51592679                0.23026486                0.01280502               -3.90804578               41.04627119                4.78005674
              13.21227588                7.94722997               31.50051183                0.32567722               -0.66137488               -0.50706800                1.49780753               -1.85697579               13.93394605                2.95486740
              14.20955947                7.70388833               31.18997474                0.67699153               -0.12518968               -0.17630845                0.47597046               -0.06111710                0.47294310                1.15712832
              15.20977209                7.46277747               30.86950943                0.98618700                0.02126157                0.23368673               -0.62686408               -0.04612865               -0.01692101               -1.60702462
               5.44775027               11.33214659               31.01901394                0.98265074                0.18811010               -0.01949866               -0.11677006                0.12380660                0.68693056                1.20515468
               6.44963137               11.08203992               30.70520751                0.71683079                0.33000207                0.31370249               -1.11771040                0.14342616                1.69034931               -1.03684180
               7.45435031               10.83078209               30.41133987                0.49663411                3.29416361                0.59462724               -2.02937850               -3.35339526               30.21575556               -2.15657833
               8.51551464               10.50875344               30.66761691                0.44440268                4.55908258               -0.86604379               -1.41983771               -2.79554401               57.12628702               -0.59504414
               9.54553196               10.19495007               30.89818260                0.43423074                1.88136971               -0.19764150               -0.93534650               -1.51172840               56.08322260               -0.02984329
              10.55314204                9.87794370               31.12468910                0.44889693               -0.30307653                0.25692666               -0.52150138               -1.55558879               56.69906412                0.49337463
              11.53947043                9.55978514               31.36142990                0.48714191               -2.81469058                0.83812001               -0.15351847               -2.29441008               59.03661799                1.22324260
              12.49684822                9.23830348               31.63041628                0.55620668               -4.24784096                1.00716799                0.20519081               -3.46195271               45.27601222                3.00976035
              13.45451361                8.94242358               31.58936380                0.66718115               -2.38272174               -0.48063847                1.80466408               -2.60419339               16.35404501                1.94430731
              14.44919379                8.70174416               31.28536545                0.84426646               -0.30746307               -0.21441752                0.80982935                0.06804310                1.99585240                1.00994887
              15.44836435                8.46451582               30.95740271                0.99625690               -0.08294394                0.17383497               -0.32337064                0.13639153                0.80252680               -1.30586589
               2.96011699                1.45125528               32.70714114                1.00000000               -0.58763574               -0.64081119                2.18941697               -0.11147014               -1.48461663                1.51435058
               3.95424063                1.15551116               32.52065728                0.98981972               -0.53244300               -0.45879470                1.66254288               -0.07094627               -1.60018294               -0.21637509
               4.94946813                0.85864775               32.33201266                0.66340514               -0.56914616               -0.26703819                1.08734050               -0.27103759               -1.24798617               -1.12318251
               5.94285771                0.55570091               32.15287129                0.51502448               -0.73583971               -0.14672161                0.54608496               -0.40971215                0.64819888               -0.14353937
               6.93475133                0.23931481               32.00338682                0.45578753               -0.65533152                0.01395842               -0.00946542               -0.37577678                3.35237809               -0.13289227
               7.92975108               -0.09199778               31.88033437                0.45914384               -0.09638143                0.17487445               -0.60808769               -0.21976874                4.57388736                0.02443815
               8.93282370               -0.42872850               31.75710838                0.51815438                0.57321254                0.33378239               -1.19366841               -0.25151230                3.24010338                0.16012682
               9.94121533               -0.75927655               31.60781692                0.64286787                0.88018313                0.48592205               -1.73325827               -0.29097191                0.72865215                0.24301750
              10.95042737               -1.08065541               31.43365162                0.85859072                0.89998664                0.61813423               -2.25615411               -0.21094516               -1.22042980                0.53508635
              11.95921506               -1.39599967               31.24444019                1.00000000                0.91181819                0.75976851               -2.81080870               -0.09280968               -1.61064122                0.87574149
              12.96866373               -1.70916087               31.06178031                1.00000000                0.94486711                0.96731426               -3.33402939               -0.13562309               -1.25859381               -1.36844080
               3.25474641                2.44484717               32.63571685                1.00000000               -0.49114778               -0.61739726                1.94805725               -0.03814094                0.11774084                1.87782129
               4.24983493                2.15092321               32.44859517                0.78982468               -0.40417680               -0.41229937                1.40570100               -0.00251939                0.42395933               -0.59284116
               5.24666287                1.85597737               32.26764731                0.20105879               -0.07039385               -0.19478072                0.91768011               -0.29690287                2.19373176               -2.42387644
               6.24842705                1.55423370               32.11586708                0.00557468                0.40900195               -0.12898814                0.45104871               -0.95166075                4.78055404               -2.24814504
               7.25484291                1.23945440               31.98571137                0.00973643                0.65739961               -0.55153066               -0.04112995               -1.61514943                7.42697609                0.55888099
               8.26157505                0.90975097               31.88529199                0.01314157                0.45525267               -0.26718158               -0.57402860               -1.97357672                8.99692066                1.01276523
               9.26394797                0.57460932               31.78532701                0.01118441                0.13470092                0.10360982               -1.08972832               -1.71134931                7.66212492                1.26424074
              10.26426906                0.24558267               31.65829554                0.17370268                0.13657568                0.26340353               -1.55251751               -0.95533351                5.07883908                2.83022247
              11.26667948               -0.07447407               31.50752273                0.49412561                0.41353143                0.46041349               -1.99999188               -0.38508134                3.09622358                2.63999991
              12.27253969               -0.38840199               31.34151660                1.00000000                0.68946114                0.67710069               -2.43260484               -0.07914829                1.36032917                1.40020534
              13.28046870               -0.69948773               31.15598204                1.00000000                0.79290083                0.93062422               -2.92839194               -0.06701570                0.40958395               -1.50012034
               3.54720208                3.43890733               32.57168352                1.00000000               -0.41420449               -0.56300132                1.71520194               -0.05361315                0.22579253                2.11137067
               4.54306004                3.14726517               32.36905246                0.58483760               -0.34912515               -0.30389805                1.09188749               -0.02073448                0.76632634               -1.23654536
               5.54021958                2.85475214               32.17724327                0.06512129               -0.13562882               -0.01541274                0.56839332               -0.45708451                3.86832535               -4.65630378
               6.54034746                2.55312115               32.03673934                0.00010000                0.33557477               -0.51660295                0.28949975               -2.00258242               10.74130335               -1.62930801
               7.54693108                2.22828420               31.98171384                0.00010000                0.73885769               -0.90123139               -0.13560863               -3.19803318               14.26707445                0.81410266
               8.55512462                1.90265859               31.90976694                0.00010000                0.79169663               -0.73321351               -0.53492864               -3.37410435               13.39158642                2.03640031
               9.56276501                1.57334370               31.83535327                0.00010000                0.80337174               -0.37407694               -0.91764004               -3.12672731               13.29628499                2.99651756
              10.57119205                1.24599152               31.76022730                0.05127501                0.69726963               -0.24155485               -1.26067039               -2.08230694               10.21498419                4.78846707
              11.57671040                0.92855286               31.62318668                0.25501202                0.57268511               -0.34322537               -1.52498434               -0.83990495                5.26107265                6.97560416
              12.58264575                0.61754234               31.44864578                0.61012355                0.63922514                0.34900786               -1.97172445               -0.27707884                2.05319408                2.44215564
              13.58949490                0.30945161               31.24693042                0.95791929                0.68491509                0.98778941               -2.59303780               -0.22703216                0.72620534               -1.57472547
               3.83695848                4.43358714               32.50506240                1.00000000               -0.33830377               -0.49379088                1.47233690               -0.04923756                0.03452879                1.88445023
               4.83357544                4.14484525               32.28406173                0.54532980               -0.26466377               -0.19384324                0.79124545                0.00636190                0.27935345               -1.49151672
               5.83166520                3.85566911               32.06794109                0.04545047                0.06339519                0.14034117                0.14251486               -1.04720955                8.55218894               -5.26143194
               6.83484334                3.54390164               32.01247418                0.00010000                0.48398048               -0.68015066                0.05545244               -2.47770909               17.35598406               -0.27455091
               7.84134481                3.22142977               31.97090887                0.00010000                0.70950614               -0.63231426               -0.24190356               -3.18571605               18.48683378                0.55310713
               8.84903346                2.89508669               31.93596330                0.00010000                0.83678371               -0.73577987               -0.52287957               -3.44363851               18.75544319                2.18243719
               9.85808048                2.56712778               31.89753754                0.00010000                0.91901506               -0.71640869               -0.79001261               -3.32864796               18.23766470                3.78087942
              10.86741377                2.24075158               31.84996207                0.05522721                1.01250395               -0.76252375               -1.03921289               -2.85604874               16.94362466                5.19119438
              11.87833056                1.91866142               31.78384259                0.24954417                0.93427983               -0.97670488               -0.95507767               -1.24204161                8.54079220                7.89476465
              12.88609936                1.61857817               31.56607945                0.56987696                0.68894786                0.06420723               -1.59432959               -0.06435801                0.51794513                2.65822666
              13.89210952                1.32026806               31.33874455                0.91990415                0.60101581                1.05131416               -2.31444853               -0.07159864                0.05299327               -1.42958386
               4.12370112                5.42903152               32.43661377                1.00000000               -0.25958147               -0.41854989                1.23244083               -0.04855343                0.02290568                1.76933407
               5.12110530                5.14338830               32.19921787                0.52208423               -0.17410591               -0.10073210                0.49658387                0.02036585                0.17147800               -1.47338056
               6.12021900                4.85755896               31.96474659                0.03496192                0.19636610                0.23298503               -0.21847063               -1.50058934               11.88566365               -4.80028505
               7.12503263                4.53951814               31.96166944                0.00010000                0.59063496               -0.28300441               -0.22732661               -3.23669477               23.75653643               -1.79001741
               8.13203170                4.21563792               31.96264682                0.00010000                0.77606037               -0.50100060               -0.37302321               -3.67248003               24.11525011                0.48819258
               9.14055383                3.88794299               31.96418775                0.00010000                0.92477345               -0.70323683               -0.53599559               -3.87077415               24.18789769                2.31377365
              10.15052717                3.55901552               31.96372984                0.00010000                1.09918036               -0.88623672               -0.70006087               -3.82959757               24.03560536                4.17014854
              11.16253744                3.23074105               31.95922158                0.06251164                1.17579046               -1.09896039               -0.85140969               -3.32739397               22.21633790                6.27927384
              12.17404298                2.90901876               31.91935294                0.25943361                0.86072590               -0.88336404               -0.52376850               -1.49026443               10.49427418                6.05649903
              13.17975196                2.61882649               31.67746482                0.58210396                0.53200902                0.03075395               -1.25020971               -0.02209485                0.21188178                2.13391180
              14.18468316                2.33047789               31.43132292                0.92721143                0.49311998                0.94905381               -2.04005222               -0.03384657                0.01180338               -1.50216990
               4.40727383                6.42521614               32.36780620                1.00000000               -0.18185205               -0.34550065                0.99648161               -0.04712030                0.02088891                1.73670934
               5.40545531                6.14283061               32.11431706                0.50149432               -0.08751258               -0.01289685                0.20747309                0.02455950                0.18115687               -1.45668499
               6.40552358                5.86032881               31.86395585                0.02640358                0.32875903                0.32195462               -0.55943506               -1.86698154               15.02575117               -4.61242546
               7.41203049                5.53824155               31.90737665                0.00010000                0.69733878               -0.00829611               -0.48950852               -3.90694154               29.86088776               -2.00575567
               8.41947035                5.21140976               31.95124228                0.00010000                0.81049420               -0.32612052               -0.51519237               -4.28083156               29.97527709                0.26269144
               9.42824037                4.88102196               31.99388714                0.00010000                0.96100600               -0.65700595               -0.56725196               -4.52382855               29.98586969                2.36890215
              10.43869047                4.54940305               32.03446450                0.00010000                1.13111372               -0.97635089               -0.63711443               -4.55564491               29.89017789                4.45632914
              11.45086265                4.21877237               32.07141172                0.07001541                1.08746813               -1.21470106               -0.71950239               -3.93245835               26.71766174                6.56636020
              12.46043984                3.90099414               32.04470489                0.27036047                0.66678402               -0.74722019               -0.11248442               -1.73570113               12.03332420                5.28593861
              13.46419833                3.61919325               31.78469586                0.59653305                0.38449678                0.02819242               -0.90706412               -0.03033568                0.19872550                1.76456857
              14.46812977                3.33924913               31.52076987                0.93612018                0.39314435                0.80319860               -1.76438137               -0.03458532                0.01341658               -1.74230450
               4.68752978                7.42212150               32.29882712                1.00000000               -0.10459646               -0.27563931                0.76217015               -0.04675314                0.01947490                1.71227323
               5.68648382                7.14313037               32.02948674                0.48246423               -0.00306802                0.07067111               -0.07203561                0.02237338                0.20680190               -1.42615402
               6.68746842                6.86399805               31.76379826                0.01847894                0.46645154                0.40842341               -0.88975698               -2.16829901               18.09618029               -4.52468953
               7.69581285                6.53935222               31.85223302                0.00010000                0.80831174                0.22515965               -0.73898848               -4.49854252               35.87524216               -2.05188416
               8.70363466                6.20911550               31.93903561                0.00010000                0.81355594               -0.12602664               -0.65428644               -4.91635298               35.89113463                0.17765696
               9.71208397                5.87480287               32.02415918                0.00010000                0.90145998               -0.55516581               -0.60544065               -5.22239394               35.92521140                2.33391854
              10.72166386                5.53948850               32.10753972                0.00010000                1.01066062               -0.95972542               -0.58956293               -5.31215302               35.89506145                4.56503427
              11.73229718                5.20644703               32.18764464                0.07775256                0.86221082               -1.21853652               -0.60966039               -4.41820604               30.87081672                6.94476707
              12.73890808                4.89407435               32.16607892                0.28167352                0.42965345               -0.65643393                0.29485135               -1.83973946               13.17437320                4.92000478
              13.74089025                4.61939033               31.88898548                0.61149107                0.24858036                0.00054253               -0.56579945               -0.03547631                0.21291880                1.51362141
              14.74387968                4.34654187               31.60777658                0.94522985                0.29894311                0.65693388               -1.49040916               -0.03633689                0.01673959               -1.90713653
               4.96432104                8.41970336               32.22967775                0.99034625               -0.02948120               -0.20679171                0.53702274               -0.04526131                0.03043128                1.69359150
               5.96402623                8.14424403               31.94485502                0.46474119                0.08073553                0.14777427               -0.34170348                0.01451050                0.23653605               -1.39264965
               6.96593575                7.86849728               31.66406874                0.01090115                0.64579801                0.48585854               -1.21490977               -2.40349850               21.12529053               -4.44398828
               7.97694219                7.54274474               31.79687319                0.00010000                0.98784438                0.42498054               -0.97350905               -4.90826407               41.83605382               -2.01051671
               8.98569264                7.20888923               31.92642455                0.00010000                0.82386546                0.04957591               -0.78401341               -5.36414724               41.80162427                0.11416011
               9.99341950                6.86991864               32.05419381                0.00010000                0.75553105               -0.39090862               -0.63947097               -5.69300602               41.94193286                2.16035037
              11.00080326                6.53020854               32.18182983                0.00010000                0.72465902               -0.82604086               -0.54040656               -5.88815672               42.14771202                4.45691624
              12.00791268                6.19440164               32.30880031                0.08573588                0.49492414               -1.13373159               -0.49478633               -4.76241877               34.82606326                7.26717372
              13.01070174                5.88786546               32.28512885                0.29332819                0.15543074               -0.59850381                0.70099000               -1.86431963               13.93746709                4.68238970
              14.01102129                5.61920410               31.99139940                0.62693775                0.11991155               -0.04535716               -0.22521274               -0.04027621                0.23009776                1.36639903
              15.01309997                5.35238781               31.69327817                0.95448992                0.20786805                0.51443638               -1.21682799               -0.03854520                0.01942394               -1.98411575
               5.23754321                9.41798567               32.16046676                0.97675972                0.04368882               -0.13332386                0.32638149               -0.04328082                0.04881242                1.69589709
               6.23798010                9.14608585               31.86040878                0.44825006                0.16772622                0.21856531               -0.61526877                0.00622338                0.28137200               -1.39360876
               7.24089774                8.87371522               31.56490859                0.00354768                0.96377623                0.55088213               -1.53657467               -2.59300969               24.17190801               -4.23838598
               8.25725563                8.54785183               31.74237322                0.00010000                1.41400380                0.43841593               -1.18910254               -5.02347264               47.75439545               -1.74718666
               9.26917782                8.21010702               31.91344930                0.00010000                0.98244531                0.03413311               -0.89672874               -5.14996834               47.58502207                0.06585545
              10.27690453                7.86698470               32.08209507                0.00010000                0.51199563               -0.15252926               -0.66001215               -5.40104376               47.91526740                1.72991537
              11.27941773                7.52296769               32.25420097                0.00010000                0.12436764               -0.41110443               -0.47635478               -5.87653042               48.67496748                3.80012862
              12.27939189                7.18377240               32.43291480                0.09401565               -0.12992528               -0.82034529               -0.35277684               -5.01702556               38.79212284                7.04135088
              13.27681922                6.88210428               32.40249158                0.30528889               -0.19147543               -0.56064648                1.10553504               -1.90070711               14.47686240                4.35577132
              14.27556238                6.61848319               32.09285511                0.64287344               -0.00389332               -0.10494673                0.11646076               -0.04970736                0.27532301                1.33504277
              15.27674136                6.35683059               31.77821181                0.96388983                0.11789778                0.37667659               -0.94116853               -0.04106734                0.03330638               -1.99454005
               5.50725506               10.41703688               32.09142710                0.96347097                0.11660844               -0.05726986                0.11305850               -0.04301541               -0.00025370                1.47605934
               6.50842114               10.14861533               31.77555645                0.43244314                0.25272632                0.28922298               -0.89311671               -0.00154277                0.45906214               -1.24709324
               7.51230958                9.87951493               31.46876067                0.00122809                1.58298977                0.59645818               -1.84861812               -2.87977649               27.44052520               -3.15846577
               8.54008094                9.55151306               31.69218919                0.00010000                2.56254074               -0.33439091               -1.37306510               -3.92715405               53.55943419               -1.00759342
               9.56356040                9.20957189               31.90059593                0.00010000                1.62285115               -0.17807836               -0.98222760               -3.52734156               52.98646994                0.02670091
              10.57253796                8.86686806               32.10472028                0.00010000                0.14622788                0.08941724               -0.66058856               -3.52040272               53.48717382                0.97528532
              11.56648495                8.52198645               32.31669296                0.00010000               -1.20511920                0.35441244               -0.39421457               -4.28115815               55.24670679                2.26274875
              12.54843557                8.17799473               32.55086489                0.10275393               -1.42540750                0.25815760               -0.17500968               -4.16205339               43.06398360                4.83181834
              13.53797680                7.87665253               32.51548893                0.31760772               -0.65673721               -0.51166183                1.49691728               -2.06471171               15.32284019                3.07302961
              14.53530083                7.61710516               32.19467752                0.65929500               -0.11964912               -0.17507472                0.46339962               -0.06647562                0.51607780                1.20070727
              15.53558382                7.35992134               31.86307764                0.97321986                0.02829920                0.24721664               -0.66201482               -0.04605373               -0.01571112               -1.67746900
               5.77352600               11.41684027               32.01782705                0.97775690                0.19452049               -0.01966076               -0.11894195                0.13009803                0.70925257                1.24768504
               6.77547120               11.15187031               31.69384384                0.71181755                0.34392432                0.32549774               -1.15723362                0.14521183                1.75933479               -1.07811688
               7.78040448               10.88564439               31.39073235                0.49590933                3.65921920                0.61294612               -2.09530599               -3.72582520               31.09616232               -2.23354021
               8.84865558               10.54116401               31.65304429                0.44463844                5.14357533               -1.03490537               -1.49798628               -3.09748166               58.74256312               -0.62924359
               9.88327599               10.20654546               31.88836881                0.43439065                2.27131648               -0.30264319               -1.02961938               -1.64798899               57.62684684               -0.05111528
              10.89408191                9.86877305               32.11890064                0.44869088               -0.03040499                0.19049880               -0.63717853               -1.67008045               58.20429963                0.48242545
              11.88266789                9.53005594               32.35915537                0.48631619               -2.62985873                0.80694826               -0.30124917               -2.37358144               60.52922900                1.22554572
              12.84148474                9.18893555               32.63144831                0.55440533               -4.31266661                1.09408152                0.00118084               -3.60432818               47.47310376                3.04585363
              13.79641456                8.87187104               32.60742680                0.66309609               -2.52603424               -0.47814903                1.80722147               -2.85391739               17.88477685                2.02315418
              14.79096405                8.61498170               32.29342786                0.83527146               -0.31133156               -0.21234679                0.80156442                0.06151666                2.10207496                1.04959800
              15.79018793                8.36177493               31.95402408                0.98967154               -0.07761295                0.18535833               -0.35481817                0.13973321                0.83773258               -1.36105679
               3.13423875                1.53922687               33.72913406                1.00000000               -0.59516227               -0.64726913                2.20992095               -0.11235063               -1.51368541                1.55366174
               4.12828713                1.22650039               33.53736337                0.98020287               -0.54374004               -0.46121743                1.67880222               -0.07156351               -1.65427280               -0.25687002
               5.12336395                0.91255899               33.34293380                0.65969877               -0.60780167               -0.26561307                1.09635627               -0.29881083               -1.31016397               -1.13652950
               6.11613109                0.59172339               33.15835235                0.51414486               -0.81730257               -0.14506433                0.54974319               -0.45068249                0.59497758               -0.14808276
               7.10701790                0.25579436               33.00327232                0.45570720               -0.75214731                0.02217994               -0.01342537               -0.41278332                3.27079967               -0.13747585
               8.10108815               -0.09688443               32.87419740                0.45881252               -0.15568103                0.18791099               -0.61945416               -0.23930938                4.47668679                0.02451770
               9.10390428               -0.45584488               32.74507565                0.51679729                0.57665229                0.34821570               -1.21359141               -0.27132764                3.16684206                0.16523775
              10.11262119               -0.80819004               32.59033951                0.63943426                0.91914578                0.50093596               -1.76450172               -0.31793460                0.68016094                0.25187993
              11.12228719               -1.15043493               32.41086622                0.85140717                0.93954830                0.63447705               -2.30430793               -0.23498704               -1.28077887                0.54062397
              12.13141216               -1.48598048               32.21601923                1.00000000                0.94172082                0.78268801               -2.87842956               -0.10374791               -1.67262790                0.91328164
              13.14112161               -1.81915458               32.02803220                1.00000000                0.97094497                0.99993353               -3.42177241               -0.13836026               -1.30276652               -1.39009762
               3.44584172                2.53275418               33.65526362                1.00000000               -0.49362881               -0.62427548                1.96191363               -0.03878565                0.13560116                1.92048084
               4.44090543                2.22188822               33.46269167                0.77268111               -0.40386909               -0.41203177                1.41354343               -0.00457509                0.47038301               -0.66250775
               5.43776434                1.90990286               33.27686674                0.19571799               -0.04494264               -0.18634448                0.92580295               -0.34096517                2.27837214               -2.52990364
               6.44000658                1.59027275               33.12038707                0.00573966                0.47148186               -0.13833128                0.45267692               -1.06840807                4.86202653               -2.28408409
               7.44719397                1.25601616               32.98527142                0.00979924                0.72540481               -0.58960275               -0.04691900               -1.80417342                7.47273641                0.52099455
               8.45451467                0.90499468               32.87947416                0.01313478                0.48249163               -0.27832173               -0.58964309               -2.20600124                9.02808935                1.01478932
               9.45684381                0.54763728               32.77429110                0.01130099                0.11110969                0.12911365               -1.11752263               -1.92252841                7.72989899                1.30550198
              10.45673687                0.19681932               32.64256775                0.16888319                0.09943666                0.26939524               -1.59415899               -1.08938137                5.18350219                2.89871942
              11.45883254               -0.14409016               32.48724158                0.48344775                0.39988182                0.46740279               -2.05888212               -0.44526779                3.21616888                2.76178392
              12.46473451               -0.47815360               32.31674199                1.00000000                0.70397802                0.70045373               -2.51964313               -0.09388643                1.45848195                1.48587398
              13.47291210               -0.80915524               32.12616235                1.00000000                0.81775957                0.96897600               -3.03288576               -0.06933559                0.47901789               -1.55322183
               3.75519496                3.52674136               33.58886591                1.00000000               -0.41480110               -0.57006914                1.72179522               -0.05503240                0.22313490                2.15226751
               4.75104695                3.21825976               33.37995574                0.57066328               -0.35174231               -0.29715122                1.08856029               -0.02417906                0.81540853               -1.32735865
               5.74816011                2.90883210               33.18290195                0.06208238               -0.11986608                0.01055423                0.56292327               -0.53447791                4.09418648               -4.89181786
               6.74864962                2.58895677               33.03966635                0.00010000                0.40261941               -0.55466899                0.29558151               -2.22491920               11.01519322               -1.74781970
               7.75621250                2.24400231               32.98027412                0.00010000                0.83486928               -0.96622309               -0.15315708               -3.53478620               14.47725725                0.74324006
               8.76534701                1.89754914               32.90429323                0.00010000                0.87082878               -0.77020403               -0.56098760               -3.75205157               13.62907207                2.03039882
               9.77362907                1.54673739               32.82601965                0.00010000                0.86069938               -0.36638897               -0.95067510               -3.51227624               13.56583612                3.05208592
              10.78256100                1.19719786               32.74742368                0.04830128                0.73628403               -0.22256408               -1.30639006               -2.36704460               10.55099390                4.88498413
              11.78835475                0.85891313               32.60769735                0.24800118                0.60192603               -0.38035146               -1.58062297               -0.93685434                5.55341433                7.26147973
              12.79459952                0.52802859               32.42845386                0.59415351                0.66917115                0.36357363               -2.06325708               -0.29834053                2.16722852                2.54499538
              13.80173818                0.20022494               32.22038854                0.94587259                0.71386598                1.04684987               -2.70809908               -0.24518613                0.75377351               -1.67463109
               4.06170428                4.52135279               33.51978684                1.00000000               -0.33731658               -0.50056843                1.47219666               -0.05017394                0.03358555                1.92082008
               5.05833111                4.21594519               33.29192272                0.53207556               -0.26632558               -0.18127451                0.78047553                0.00748285                0.29510226               -1.57026464
               6.05637777                3.91011394               33.06926848                0.04272350                0.10034354                0.17729943                0.12223657               -1.16980653                8.86410524               -5.49727940
               7.06033798                3.57917937               33.01287419                0.00010000                0.57640584               -0.71335686                0.02349052               -2.73542536               17.85085631               -0.44697934
               8.06790588                3.23669170               32.96834371                0.00010000                0.82002890               -0.67155726               -0.27241535               -3.50607869               18.89081953                0.46671732
               9.07673856                2.88959060               32.93056292                0.00010000                0.95218379               -0.77611814               -0.55879376               -3.80199544               19.18032313                2.15426620
              10.08694956                2.54030950               32.88945594                0.00010000                1.02408395               -0.74500896               -0.82845535               -3.68228004               18.68742683                3.79849632
              11.09722024                2.19236803               32.83940646                0.05224006                1.11575822               -0.75751314               -1.07481482               -3.19016016               17.57769021                5.23856975
              12.10926472                1.84830281               32.77412862                0.24268324                1.01178215               -1.04820472               -0.99464550               -1.39013597                8.99085232                8.15648623
              13.11745588                1.52911787               32.54991525                0.55465076                0.71754779                0.06292944               -1.64701776               -0.06397653                0.56665463                2.70767207
              14.12361568                1.21178175               32.31523369                0.90863705                0.61597962                1.11571787               -2.39299654               -0.07549884                0.05818216               -1.53692688
               4.36500668                5.51672999               33.44891584                1.00000000               -0.25712253               -0.42507387                1.22783144               -0.04899560                0.02348639                1.80896088
               5.36243546                5.21463427               33.20410362                0.50922438               -0.17384404               -0.08494811                0.47921641                0.02295042                0.18326264               -1.54386674
               6.36152980                4.91237809               32.96242472                0.03235620                0.24639498                0.27052568               -0.24669459               -1.65644087               12.25918102               -4.98763996
               7.36736336                4.57468963               32.95918492                0.00010000                0.70749475               -0.28690325               -0.27095010               -3.55727164               24.42536579               -1.96300387
               8.37567970                4.23057116               32.95869948                0.00010000                0.91629752               -0.53095866               -0.41806187               -4.02676969               24.71904977                0.38782067
               9.38568931                3.88202677               32.95860407                0.00010000                1.07631725               -0.74733345               -0.58237971               -4.24297127               24.79270278                2.26620440
              10.39720604                3.53183721               32.95651591                0.00010000                1.25375850               -0.93240035               -0.74427033               -4.19608547               24.65845595                4.15728514
              11.41076448                3.18204760               32.95054708                0.05937780                1.32980796               -1.14373230               -0.88523743               -3.69883835               23.09618422                6.28212291
              12.42380220                2.83794903               32.91401535                0.25233461                0.95382863               -0.94978420               -0.55008900               -1.68087480               11.09624717                6.23798303
              13.42984105                2.52928718               32.66482276                0.56651357                0.55491164                0.02114184               -1.28449070               -0.02132053                0.24972667                2.16378928
              14.43490043                2.22253930               32.41065225                0.91569590                0.50593840                0.99710498               -2.09924262               -0.03144780                0.01386483               -1.60660086
               4.66491582                6.51285132               33.37774013                1.00000000               -0.17737905               -0.35299828                0.98590673               -0.04831127                0.01942864                1.77689368
               5.66314203                6.21424623               33.11628555                0.48911224               -0.08611163                0.00472594                0.18697758                0.02450168                0.19218697               -1.51536015
               6.66319358                5.91552445               32.85819711                0.02398024                0.39287235                0.35818859               -0.59386555               -2.05417319               15.46547497               -4.78233782
               7.67099947                5.57344131               32.90223060                0.00010000                0.84198822               -0.00318435               -0.54144424               -4.27905267               30.68692574               -2.15855369
               8.68003335                5.22607253               32.94581735                0.00010000                0.98068073               -0.35195710               -0.57153572               -4.67617771               30.75712821                0.16113896
               9.69061309                4.87464393               32.98793032                0.00010000                1.14868393               -0.70589445               -0.62547658               -4.92851897               30.75972876                2.30966846
              10.70300703                4.52166149               33.02782192                0.00010000                1.32592823               -1.03865087               -0.69199826               -4.94886431               30.66341508                4.42216466
              11.71713165                4.16949339               33.06400695                0.06673633                1.27003097               -1.27771238               -0.76123276               -4.34200297               27.84342395                6.52973353
              12.72840765                3.82930713               33.04350434                0.26302250                0.76537789               -0.80291395               -0.13228553               -1.95789511               12.81154802                5.45652490
              13.73243921                3.52954071               32.77550503                0.58056643                0.40374208                0.01838137               -0.93491362               -0.03148924                0.23450524                1.79638382
              14.73648249                3.23172385               32.50288555                0.92433338                0.40432778                0.84098637               -1.81607662               -0.03243332                0.01502397               -1.84387604
               4.96125063                7.50967003               33.30637581                0.99367413               -0.09982769               -0.28295999                0.75426234               -0.04603945                0.02897630                1.76106074
               5.96025235                7.21472878               33.02867217                0.47053737                0.00003156                0.08608906               -0.09262125                0.01750042                0.21934153               -1.47667708
               6.96125126                6.91954186               32.75470297                0.01625094                0.54909377                0.44082193               -0.93178626               -2.38266940               18.60228505               -4.68843603
               7.97123423                6.57462595               32.84455629                0.00010000                0.98511278                0.23299704               -0.79848513               -4.91562842               36.85472673               -2.19113523
               8.98095352                6.22353202               32.93216433                0.00010000                1.01478688               -0.15140381               -0.72172005               -5.35142192               36.83966663                0.08213701
               9.99152997                5.86790889               33.01774950                0.00010000                1.12128912               -0.60892896               -0.67745236               -5.65905848               36.85629736                2.27249748
              11.00337930                5.51106420               33.10128392                0.00010000                1.23744051               -1.03041407               -0.66110447               -5.73055798               36.80731944                4.52259080
              12.01627878                5.15649335               33.18122576                0.07433993                1.06088403               -1.28740459               -0.67171722               -4.84536128               32.24813371                6.89857258
              13.02459698                4.82189076               33.16896384                0.27409972                0.52578829               -0.69946562                0.27878269               -2.07580090               14.14170697                5.09041025
              14.02679454                4.52965481               32.88321806                0.59513270                0.26442467               -0.00582010               -0.59040715               -0.03814868                0.24907608                1.54802132
              15.02988547                4.23935903               32.59265060                0.93319370                0.30909310                0.68805640               -1.53796431               -0.03462529                0.01865484               -2.00662278
               5.25387751                8.50719212               33.23503942                0.97958298               -0.02573068               -0.21022137                0.54246470               -0.04441734                0.04122946                1.76065793
               6.25362020                8.21596801               32.94131199                0.45334274                0.08827636                0.15803392               -0.37006229                0.00951327                0.24948161               -1.44782730
               7.25564303                7.92434089               32.65168156                0.00887785                0.75382694                0.51367927               -1.26550546               -2.63740891               21.70509674               -4.60644158
               8.26869674                7.57810125               32.78681183                0.00010000                1.20394671                0.43054220               -1.04119900               -5.35706735               42.97178874               -2.13532456
               9.27972197                7.22304445               32.91819894                0.00010000                1.06015022                0.01729419               -0.86283446               -5.82230674               42.91082821                0.02965450
              10.28989974                6.86246535               33.04736382                0.00010000                1.00447164               -0.44989948               -0.72712522               -6.13789610               43.02452154                2.10559856
              11.29981140                6.50105321               33.17594945                0.00010000                0.97490610               -0.89663955               -0.63417660               -6.30879810               43.19628709                4.42050385
              12.30939787                6.14374530               33.30335738                0.08220914                0.69593845               -1.20163670               -0.59010082               -5.18135784               36.45494595                7.23521692
              13.31373017                5.81531782               33.29208953                0.28553805                0.24050499               -0.62852342                0.68842295               -2.10056865               15.09424138                4.85362071
              14.31420797                5.52942430               32.98904794                0.61015400                0.13256871               -0.04808676               -0.24724333               -0.04387545                0.26698893                1.40395653
              15.31638154                5.24548498               32.68089971                0.94217739                0.21735790                0.53963894               -1.26179461               -0.03730996                0.02173472               -2.08036876
               5.54281049                9.50546560               33.16376475                0.96635416                0.04833483               -0.13448196                0.33152094               -0.04440108                0.04859976                1.76514952
               6.54329384                9.21788946               32.85407522                0.43734218                0.17796764                0.22789743               -0.64958451                0.00460897                0.29680162               -1.45281569
               7.54636985                8.92981544               32.54925961                0.00192892                1.10477396                0.57509249               -1.59730484               -2.84384601               24.83968696               -4.39686727
               8.56538932                8.58323679               32.73011407                0.00010000                1.68867148                0.42448470               -1.26522948               -5.48633955               49.05423631               -1.84985607
               9.58014328                8.22387791               32.90404339                0.00010000                1.26869833               -0.02517301               -0.98619221               -5.58025891               48.85233848               -0.00003951
              10.59076329                7.85891090               33.07498158                0.00010000                0.78900586               -0.21953901               -0.76309314               -5.79421699               49.14752671                1.68894994
              11.59592339                7.49313140               33.24883316                0.00010000                0.38118605               -0.46743473               -0.59539547               -6.24388705               49.86504717                3.77862831
              12.59838701                7.13246062               33.42867425                0.09040025                0.04916023               -0.87053169               -0.49096297               -5.39691554               40.66736676                7.03871276
              13.59690660                6.80932029               33.41351605                0.29728067               -0.13185695               -0.57812361                1.09734124               -2.12888248               15.81245656                4.52140563
              14.59574987                6.52869307               33.09393328                0.62564418                0.00556608               -0.10472854                0.09732212               -0.05420636                0.31448311                1.37809056
              15.59701792                6.25015180               32.76860005                0.95130059                0.12680498                0.39654167               -0.98402395               -0.04032320                0.03652226               -2.08582309
               5.82814176               10.50450248               33.09255700                0.95338505                0.12207794               -0.05825997                0.11457755               -0.04309015               -0.00093170                1.53135506
               6.82936253               10.22052596               32.76644462                0.42202825                0.26385167                0.30066625               -0.93075414               -0.00204104                0.48475807               -1.29923338
               7.83341879                9.93584274               32.44993693                0.00124014                1.77724757                0.61762335               -1.91862500               -3.16158803               28.21388172               -3.27800937
               8.86490749                9.58659094               32.67805867                0.00010000                2.95119477               -0.43892124               -1.45583278               -4.29808130               55.03356186               -1.06820025
               9.89244268                9.22254099               32.89029757                0.00010000                1.99272097               -0.27479496               -1.07923296               -3.82235475               54.40706813               -0.01114295
              10.90476191                8.85807457               33.09754442                0.00010000                0.44706280                0.01602974               -0.77501560               -3.75791487               54.86475989                0.95297304
              11.90138394                8.49170451               33.31204426                0.00010000               -0.97456164                0.31199162               -0.53407294               -4.50779791               56.58586212                2.25530571
              12.88527067                8.12633466               33.54818211                0.09908425               -1.32319375                0.27965581               -0.35798595               -4.41486522               45.17477060                4.84904198
              13.87492007                7.80375535               33.53045018                0.30941895               -0.64891756               -0.51546746                1.49354215               -2.28409644               16.82197624                3.19245375
              14.87229232                7.52732973               33.19924273                0.64157534               -0.11312244               -0.17288148                0.44796383               -0.07256964                0.56533177                1.24382520
              15.87265762                7.25341581               32.85626914                0.96030362                0.03652947                0.26250035               -0.70255314               -0.04595997               -0.01403366               -1.75067431
               6.10990173               11.50430040               33.01663510                0.97281701                0.20110301               -0.02020799               -0.11918046                0.13623608                0.73231466                1.29464743
               7.11191276               11.22390279               32.68206284                0.70676692                0.35856893                0.33768276               -1.19983380                0.14839778                1.83614241               -1.12401617
               8.11707310               10.94216791               32.36943375                0.49514949                4.04083446                0.63251675               -2.16762984               -4.10678957               31.99933048               -2.31706078
               9.19272945               10.57445836               32.63765719                0.44485750                5.75697226               -1.21325774               -1.58235686               -3.40709923               60.38078526               -0.66767932
              10.23221255               10.21838201               32.87759022                0.43454713                2.68560119               -0.41589857               -1.12821415               -1.78435708               59.18449140               -0.07610320
              11.24644147                9.85923149               33.11194553                0.44845994                0.26473977                0.11569180               -0.75451967               -1.78258210               59.71313230                0.46621025
              12.23750735                9.49937124               33.35540492                0.48546518               -2.42012987                0.76667233               -0.44778150               -2.44654737               62.00473663                1.21833575
              13.19803887                9.13805373               33.63043990                0.55254937               -4.36388737                1.17190703               -0.20042085               -3.74119504               49.76756477                3.05887666
              14.15022960                8.79901094               33.62550823                0.65895929               -2.67004315               -0.47444083                1.80735561               -3.10996122               19.53838749                2.10338748
              15.14463801                8.52523544               33.30139674                0.82625747               -0.31515199               -0.20942908                0.79059021                0.05411240                2.21603822                1.08962200
              16.14392656                8.25540181               32.95030635                0.98311978               -0.07114508                0.19859970               -0.39169390                0.14353106                0.87429761               -1.41807640
               3.31338467                1.63006941               34.75133956                1.00000000               -0.60292249               -0.65444724                2.23193881               -0.11345881               -1.54189969                1.59306880
               4.30735544                1.29971716               34.55423332                0.97044466               -0.55543996               -0.46364782                1.69561335               -0.07250497               -1.70924049               -0.30111019
               5.30227587                0.96805126               34.35393979                0.65590667               -0.64683526               -0.26401232                1.10472304               -0.32646208               -1.37356290               -1.14796825
               6.29441874                0.62866982               34.16386615                0.51320609               -0.89767940               -0.14318098                0.55223502               -0.48979105                0.54181045               -0.15303518
               7.28432228                0.27256709               34.00311831                0.45562953               -0.84686310                0.03053859               -0.01874318               -0.44771280                3.19122323               -0.14177016
               8.27748148               -0.10206096               33.86794529                0.45847062               -0.21519266                0.20118749               -0.63312793               -0.25751889                4.38546343                0.02511111
               9.28001843               -0.48385464               33.73283655                0.51548125                0.57732501                0.36299995               -1.23731037               -0.28832905                3.10148347                0.17125331
              10.28902798               -0.85869541               33.57252688                0.63597902                0.95568256                0.51683076               -1.80187900               -0.34088648                0.63727545                0.26162234
              11.29913208               -1.22259366               33.38756546                0.84418449                0.97842744                0.65241395               -2.35957814               -0.25455367               -1.33859907                0.54529936
              12.30859652               -1.57917956               33.18687159                1.00000000                0.97251863                0.80604209               -2.95355040               -0.11226857               -1.73256619                0.94561181
              13.31858245               -1.93322312               32.99334487                1.00000000                0.99859266                1.03146175               -3.51707146               -0.14176698               -1.34635080               -1.41138106
               3.64260233                2.62352493               34.67495512                1.00000000               -0.49628645               -0.63199724                1.97706930               -0.03940294                0.15446984                1.96304026
               4.63763946                2.29508068               34.47686604                0.75542627               -0.40337066               -0.41151087                1.42140990               -0.00685323                0.52106299               -0.73728735
               5.63453492                1.96541114               34.28616337                0.19028104               -0.01882766               -0.17686110                0.93336437               -0.38629175                2.36725414               -2.64063348
               6.63726291                1.62723801               34.12492062                0.00590622                0.53378141               -0.14960906                0.45356003               -1.18391214                4.94404207               -2.31737520
               7.64521054                1.27287248               33.98477299                0.00986884                0.79271205               -0.62451912               -0.05327843               -1.98800187                7.51865985                0.47749622
               8.65311715                0.89995091               33.87349913                0.01314121                0.51209092               -0.28806112               -0.60597958               -2.43090316                9.06017761                1.01270263
               9.65545236                0.51977536               33.76297656                0.01144032                0.09357347                0.15376042               -1.14608276               -2.12725808                7.80085833                1.34720190
              10.65498862                0.14647289               33.62641236                0.16402776                0.06881271                0.27739548               -1.63747738               -1.21693120                5.29315111                2.96782183
              11.65682862               -0.21606952               33.46634509                0.47264439                0.38999741                0.47445357               -2.12070030               -0.49878015                3.33779919                2.88615162
              12.66278857               -0.57111914               33.29112374                0.98262962                0.71898612                0.72242737               -2.60274955               -0.10681856                1.55740827                1.56921634
              13.67120834               -0.92290850               33.09532433                1.00000000                0.84197690                1.00553839               -3.13246792               -0.07300747                0.55240581               -1.60715307
               3.96948512                3.61742946               34.60611943                1.00000000               -0.41529475               -0.57856613                1.72895844               -0.05644786                0.21949266                2.19249934
               4.96533217                3.29148694               34.39082367                0.55648602               -0.35462090               -0.28943003                1.08488881               -0.02795220                0.86754964               -1.42264810
               5.96239270                2.96451404               34.18850174                0.05898903               -0.10265087                0.03948083                0.55644771               -0.61741863                4.33428097               -5.13916847
               6.96327915                2.62567764               34.04265097                0.00010000                0.47283200               -0.58972648                0.30116209               -2.44574987               11.29271776               -1.88289552
               7.97184934                2.26007671               33.97865069                0.00010000                0.93406879               -1.02668620               -0.17279747               -3.86189486               14.68230012                0.65958161
               8.98196053                1.89217782               33.89854718                0.00010000                0.95509714               -0.80448621               -0.58980111               -4.12227998               13.87252059                2.01411495
               9.99095128                1.51922057               33.81633977                0.00010000                0.92868516               -0.35869559               -0.98782610               -3.88961018               13.84173125                3.10312388
              11.00053423                1.14685250               33.73409950                0.04524573                0.78986138               -0.20366601               -1.36124361               -2.65094463               10.89792675                4.99182805
              12.00674851                0.78689541               33.59157422                0.24085952                0.63824521               -0.42286667               -1.64392462               -1.03866563                5.84943545                7.56073427
              13.01329914                0.43526898               33.40738064                0.57793570                0.69762560                0.37409274               -2.14769757               -0.32344736                2.27587266                2.66384115
              14.02070102                0.08688765               33.19276844                0.93358884                0.74018860                1.10871523               -2.81170424               -0.26673616                0.78028726               -1.75937854
               4.29335842                4.61195361               34.53450633                1.00000000               -0.33625754               -0.50860112                1.47186097               -0.05064481                0.03312220                1.95848965
               5.28999584                4.28929208               34.29967124                0.51874127               -0.26812860               -0.16694004                0.76807020                0.00883261                0.31233854               -1.65109890
               6.28799584                3.96620076               34.07038582                0.03992605                0.13947014                0.21817439                0.10072923               -1.29599908                9.17636954               -5.74191638
               7.29278524                3.61544348               34.01294399                0.00010000                0.67383136               -0.73879983               -0.01074306               -2.99379886               18.35232020               -0.64459969
               8.30147247                3.25233876               33.96546057                0.00010000                0.93712250               -0.70780127               -0.30596994               -3.82190403               19.30626686                0.36492753
               9.31152769                2.88386119               33.92478742                0.00010000                1.07565034               -0.81390709               -0.59847902               -4.15531875               19.61656630                2.11404227
              10.32298548                2.51260145               33.88096843                0.00010000                1.13835973               -0.77126636               -0.87158585               -4.03298132               19.15483682                3.80922329
              11.33429489                2.14239957               33.82846578                0.04918329                1.23266689               -0.75347420               -1.11597664               -3.53504233               18.23003636                5.29399800
              12.34763882                1.77547315               33.76394968                0.23571462                1.10162503               -1.12463540               -1.04627506               -1.55465646                9.45335817                8.43238228
              13.35632739                1.43636271               33.53313909                0.53942781                0.74987371                0.06217536               -1.71050408               -0.06984496                0.61921870                2.78016740
              14.36263629                1.09926580               33.29088462                0.89739719                0.63089013                1.19031854               -2.47714802               -0.07966907                0.06168389               -1.62461268
               4.61379529                5.60725744               34.46117040                1.00000000               -0.25336113               -0.43297816                1.21861882               -0.05027276                0.02235854                1.84846755
               5.61126168                5.28814814               34.20880220                0.49626844               -0.17369865               -0.06686130                0.46049555                0.02331597                0.19500558               -1.61257741
               6.61032132                4.96887753               33.95981270                0.02968801                0.30017494                0.31015271               -0.27670019               -1.81771550               12.63198423               -5.18138517
               7.61726518                4.61090164               33.95625043                0.00010000                0.83361183               -0.28721833               -0.31761728               -3.87966574               25.10034397               -2.14745939
               8.62699355                4.24592069               33.95428558                0.00010000                1.06631416               -0.55855338               -0.46679857               -4.37806198               25.33778378                0.27198897
               9.63859146                3.87589967               33.95254016                0.00010000                1.23798592               -0.78956466               -0.63261510               -4.61113786               25.41557685                2.20474928
              10.65175327                3.50379524               33.94884444                0.00010000                1.41851146               -0.97615589               -0.79223251               -4.56099969               25.30660995                4.13376773
              11.66696169                3.13178301               33.94151683                0.05615601                1.49694858               -1.18556084               -0.92299942               -4.08193574               24.00395774                6.27898519
              12.68169224                2.76440271               33.90835116                0.24512253                1.05739474               -1.01485040               -0.58929511               -1.88683081               11.71932885                6.42570410
              13.68810958                2.43651249               33.65177501                0.55093720                0.58046105                0.01814549               -1.32988020               -0.02644257                0.29627519                2.20187185
              14.69330146                2.11069402               33.38933807                0.90422401                0.51918799                1.05537320               -2.16656517               -0.03020073                0.01653584               -1.70420435
               4.93057156                6.60329405               34.38752434                0.99714643               -0.17294917               -0.36070053                0.97811669               -0.04785464                0.02802838                1.82607340
               5.92884207                6.28795485               34.11805662                0.47660288               -0.08417657                0.02111258                0.16756218                0.01957889                0.20525898               -1.57335179
               6.92888803                5.97240381               33.85207854                0.02149451                0.46533507                0.39336800               -0.63181074               -2.24735219               15.90468133               -4.96215126
               7.93814877                5.60969911               33.89654776                0.00010000                1.00125854                0.00233206               -0.59714391               -4.65276390               31.52075196               -2.32222357
               8.94891320                5.24116769               33.93981157                0.00010000                1.16408037               -0.37720150               -0.63176071               -5.06939964               31.55572689                0.04528805
               9.96143038                4.86806989               33.98137760                0.00010000                1.34844721               -0.75401735               -0.68696042               -5.32952441               31.55507083                2.23457218
              10.97588214                4.49307833               34.02062454                0.00010000                1.53091671               -1.09912266               -0.74880863               -5.34004138               31.46652297                4.37125692
              11.99204871                4.11868836               34.05618706                0.06337406                1.46452875               -1.33574797               -0.80338060               -4.76419748               29.00681554                6.47514442
              13.00517272                3.75517614               34.04205918                0.25555528                0.87292558               -0.85526710               -0.16276794               -2.19525298               13.61817095                5.62799292
              14.00950722                3.43672562               33.76599759                0.56459656                0.42482511                0.01476793               -0.97078814               -0.03637205                0.27929913                1.82753166
              15.01366922                3.12037327               33.48444834                0.91261658                0.41619981                0.88506128               -1.87450245               -0.03092390                0.01711443               -1.94564263
               5.24351659                7.60004343               34.31391237                0.98249568               -0.09730958               -0.28832367                0.76231123               -0.04585710                0.04071324                1.83242697
               6.24254349                7.28857039               34.02763432                0.45854335                0.00567107                0.09647932               -0.11624317                0.01165587                0.23284754               -1.53508982
               7.24363001                6.97674489               33.74516253                0.01395455                0.64512640                0.47039974               -0.97878877               -2.59861464               19.11206402               -4.86539259
               8.25544602                6.61094828               33.83626332                0.00010000                1.18023846                0.23906783               -0.86235100               -5.33282105               37.84543382               -2.34220043
               9.26723478                6.23837666               33.92460121                0.00010000                1.23221533               -0.17822137               -0.79291975               -5.78424718               37.80600522               -0.02805925
              10.28009033                5.86081933               34.01061013                0.00010000                1.35496011               -0.66356797               -0.75172796               -6.09174138               37.80964960                2.19323988
              11.29433398                5.48181279               34.09431764                0.00010000                1.47448027               -1.10044780               -0.73224473               -6.14489900               37.74922573                4.45771237
              12.30957993                5.10506805               34.17421029                0.07083322                1.27079680               -1.35154314               -0.72941735               -5.28463139               33.67433134                6.82159100
              13.31974992                4.74729736               34.17165457                0.26638624                0.63025422               -0.73952344                0.25449553               -2.32684570               15.14843655                5.26051693
              14.32218502                4.43680785               33.87717733                0.57876794                0.28188913               -0.00788066               -0.62110661               -0.04292266                0.29339954                1.57972980
              15.32538770                4.12839524               33.57701729                0.92119951                0.32026828                0.72288576               -1.59171476               -0.03316551                0.02092583               -2.10889290
               5.55260050                8.59752757               34.24052704                0.96876465               -0.02267691               -0.21361754                0.55334601               -0.04542906                0.04180949                1.83727307
               6.55237373                8.28988444               33.93745378                0.44184403                0.09686743                0.16632586               -0.39970728                0.00810048                0.26366462               -1.50848629
               7.55453784                7.98181181               33.63875863                0.00678432                0.87434282                0.53888054               -1.32218159               -2.86906761               22.29569526               -4.78399572
               8.56986058                7.61448047               33.77604921                0.00010000                1.44096854                0.43297916               -1.11361959               -5.80489921               44.12271800               -2.27266610
               9.58335721                7.23760326               33.90916786                0.00010000                1.31494168               -0.01845299               -0.94516822               -6.27798197               44.03841311               -0.06941050
              10.59615942                6.85479854               34.03965130                0.00010000                1.26891119               -0.51181134               -0.81602869               -6.57794604               44.12759522                2.03223676
              11.60873544                6.47106938               34.16914630                0.00010000                1.23560484               -0.96836761               -0.72543132               -6.72245116               44.26875596                4.35736357
              12.62087151                6.09165749               34.29699829                0.07856971                0.90802849               -1.26730632               -0.67652648               -5.61036524               38.14759397                7.16146522
              13.62689601                5.74038567               34.29889731                0.27759701                0.33396887               -0.65628076                0.66921074               -2.35150416               16.30835945                5.02574656
              14.62755089                5.43656801               33.98645454                0.59337451                0.14675585               -0.04788175               -0.27421472               -0.04858367                0.31160818                1.43925472
              15.62983113                5.13483098               33.66804227                0.92991848                0.22802348                0.56747327               -1.31265960               -0.03617523                0.02443105               -2.18030690
               5.85789428                9.59577108               34.16709718                0.95587755                0.05269911               -0.13669728                0.33671672               -0.04438229                0.05078298                1.83467434
               6.85842127                9.29189691               33.84741709                0.42634577                0.18791727                0.23793003               -0.68297338                0.00570338                0.31627753               -1.51394459
               7.86165263                8.98752250               33.53296250                0.00194103                1.25676547                0.59843991               -1.66416961               -3.09268582               25.52158230               -4.56900064
               8.88355658                8.61960787               33.71706863                0.00010000                1.98522249                0.40627319               -1.34624394               -5.94919757               50.37432591               -1.96422241
               9.90135708                8.23800760               33.89372546                0.00010000                1.57543551               -0.09005314               -1.07895505               -6.00829861               50.13843228               -0.07839847
              10.91506529                7.85058310               34.06683321                0.00010000                1.08344622               -0.29174840               -0.86673933               -6.18175535               50.39598251                1.63162591
              11.92302600                7.46244544               34.24229306                0.00010000                0.64955217               -0.52742832               -0.71067614               -6.60160510               51.06767719                3.73069320
              12.92805633                7.07972193               34.42309554                0.08667793                0.23916596               -0.92237850               -0.61794150               -5.78100654               42.62247691                6.98836368
              13.92780932                6.73417175               34.42443841                0.28916108               -0.06441500               -0.59381224                1.08391959               -2.37060066               17.22910170                4.68912514
              14.92676804                6.43585022               34.09480155                0.60841332                0.01644670               -0.10248988                0.07392387               -0.05947117                0.36091932                1.42001797
              15.92813825                6.13974471               33.75853133                0.93874200                0.13702186                0.41852901               -1.03274939               -0.03959004                0.04021019               -2.18087126
               6.15946119               10.59479363               34.09371865                0.94321605                0.12751820               -0.05970270                0.11826384               -0.04393274               -0.00246597                1.59039579
               7.16073637               10.29464304               33.75694137                0.41150369                0.27559895                0.31283172               -0.97057975               -0.00194475                0.51419954               -1.35529073
               8.16497317                9.99378060               33.43038817                0.00125432                1.98275816                0.63935213               -1.99358492               -3.44464927               29.00580823               -3.40635026
               9.20039153                9.62260593               33.66307253                0.00010000                3.36214210               -0.54972437               -1.54367265               -4.67100824               56.53226821               -1.13662262
              10.23221601                9.23580220               33.87901127                0.00010000                2.38474663               -0.37847461               -1.17958850               -4.11609823               55.84711020               -0.05637319
              11.24808647                8.84896357               34.08921997                0.00010000                0.76742496               -0.06440335               -0.88987317               -3.99084111               56.25384791                0.92087284
              12.24756451                8.46052081               34.30601150                0.00010000               -0.72806968                0.26279489               -0.67007604               -4.72556956               57.92148966                2.23036342
              13.23352507                8.07320992               34.54370518                0.09530936               -1.21044016                0.29377877               -0.53134119               -4.66674980               47.37833285                4.83002129
              14.22335571                7.72850943               34.54535978                0.30110129               -0.63682838               -0.51745331                1.48575895               -2.51377836               18.42845353                3.31399160
              15.22078851                7.43451821               34.20363679                0.62387768               -0.10526846               -0.16920476                0.42863613               -0.07946004                0.62202701                1.28701579
              16.22125034                7.14320156               33.84902658                0.94745726                0.04618311                0.27971299               -0.74915782               -0.04584513               -0.01184773               -1.82678959
               6.45731681               11.59457702               34.01544344                0.96783831                0.20785957               -0.02166056               -0.11856634                0.14321359                0.75741238                1.34400473
               7.45939540               11.29815354               33.66984717                0.70167892                0.37399694                0.35105031               -1.24458835                0.15252906                1.92071677               -1.17256106
               8.46479675               11.00030954               33.34737976                0.49437563                4.43597100                0.65289387               -2.24597246               -4.49465044               32.92666020               -2.40738498
               9.54811482               10.60861338               33.62139716                0.44504851                6.39403670               -1.39925554               -1.67233763               -3.72124315               62.04587185               -0.70952231
              10.59267748               10.23043810               33.86580453                0.43469265                3.12075178               -0.53640942               -1.23086851               -1.91977047               60.76200343               -0.10453762
              11.61052986                9.84929503               34.10381025                0.44825380                0.57953867                0.03314648               -0.87292741               -1.89249932               61.23197919                0.44501271
              12.60426825                9.46770134               34.35019974                0.48460842               -2.18985669                0.71805261               -0.59106782               -2.51450220               63.46921580                1.20134602
              13.56673272                9.08559750               34.62743989                0.55064387               -4.40213941                1.23875776               -0.39489951               -3.87316772               52.15858180                3.04676159
              14.51622546                8.72382268               34.64357391                0.65473742               -2.81230121               -0.46867446                1.80307483               -3.36959324               21.31360884                2.18589806
              15.51048670                8.43246612               34.30923966                0.81725260               -0.31854057               -0.20520920                0.77567095                0.04563375                2.33925488                1.13045218
              16.50985465                8.14533897               33.94619020                0.97659141               -0.06320465                0.21374078               -0.43493506                0.14771650                0.91231404               -1.47713879
               3.49761323                1.72385713               35.77377284                1.00000000               -0.61111425               -0.66220091                2.25583530               -0.11483226               -1.56973231                1.63357969
               4.49150209                1.37521276               35.57127564                0.96060610               -0.56766834               -0.46606324                1.71332597               -0.07359871               -1.76563999               -0.34918015
               5.48625986                1.02515246               35.36502826                0.65206366               -0.68566543               -0.26242158                1.11264871               -0.35345221               -1.43883784               -1.15733774
               6.47778878                0.66655376               35.16939705                0.51224884               -0.97483232               -0.14133324                0.55266290               -0.52623963                0.48805409               -0.15833424
               7.46676322                0.28964961               35.00289745                0.45555440               -0.93548024                0.03840940               -0.02781078               -0.47963848                3.11241109               -0.14579371
               8.45907918               -0.10748989               34.86153484                0.45817070               -0.27054319                0.21367287               -0.65225591               -0.27392503                4.29793718                0.02609033
               9.46135235               -0.51269984               34.72032945                0.51413396                0.57793061                0.37779342               -1.26829606               -0.30239514                3.04096017                0.17754372
              10.47063779               -0.91072856               34.55430193                0.63252566                0.99090711                0.53316968               -1.84678175               -0.36005951                0.59765238                0.27127315
              11.48117050               -1.29708819               34.36367466                0.83691490                1.01718210                0.67123013               -2.42087874               -0.27153285               -1.39468566                0.54819182
              12.49098143               -1.67557253               34.15694822                1.00000000                1.00387758                0.82942108               -3.03185955               -0.12044673               -1.79136996                0.97419495
              13.50124805               -2.05134112               33.95769077                1.00000000                1.02666187                1.06192409               -3.61326264               -0.14576058               -1.39003639               -1.43256077
               3.84510928                2.71723512               35.69480500                1.00000000               -0.49908409               -0.64084966                1.99335916               -0.04014483                0.17404852                2.00574694
               4.84011844                2.37055213               35.49111987                0.73812260               -0.40272183               -0.41055836                1.42951539               -0.00966715                0.57598131               -0.81714717
               5.83705484                2.02252824               35.29553403                0.18477168                0.00796840               -0.16630887                0.94068483               -0.43265699                2.46074641               -2.75614816
               6.84027781                1.66514043               35.12945827                0.00607510                0.59669063               -0.16391346                0.45337803               -1.29641477                5.02748082               -2.34804263
               7.84898866                1.29003370               34.98420585                0.00994670                0.86184219               -0.65716242               -0.06123342               -2.16472567                7.56559244                0.42681182
               8.85751465                0.89464684               34.86735457                0.01316182                0.54795427               -0.29834833               -0.62413504               -2.64632204                9.09385144                1.00394529
               9.85994774                0.49107809               34.75136944                0.01160010                0.08583579                0.17539214               -1.17697643               -2.32423397                7.87523764                1.38461434
              10.85923137                0.09460314               34.60981820                0.15909446                0.04647055                0.28547859               -1.68227750               -1.34033461                5.40588691                3.03094466
              11.86087715               -0.29037589               34.44482758                0.46166440                0.38360316                0.48057021               -2.18299388               -0.54948129                3.46009803                3.00915919
              12.86690343               -0.66727832               34.26468700                0.96113150                0.73409414                0.74312946               -2.68347558               -0.12023355                1.65780308                1.65106921
              13.87555904               -1.04072188               34.06351299                1.00000000                0.86556052                1.04091005               -3.22770278               -0.07834301                0.62932349               -1.66176884
               4.19017632                3.71104014               35.62344508                1.00000000               -0.41606967               -0.58817536                1.73754730               -0.05747348                0.21569793                2.23273363
               5.18601563                3.36700159               35.40165352                0.54227334               -0.35789487               -0.28037227                1.08067401               -0.03169530                0.92338139               -1.52261781
               6.18301843                3.02182628               35.19403091                0.05583535               -0.08303030                0.07182037                0.54912845               -0.70742669                4.58966022               -5.39847151
               7.18435502                2.66327549               35.04568960                0.00010000                0.54719311               -0.62262553                0.30611041               -2.66440399               11.57472121               -2.03619944
               8.19396229                2.27650636               34.97681817                0.00010000                1.03766624               -1.08391697               -0.19534568               -4.17666057               14.88202959                0.56048563
               9.20510835                1.88654315               34.89249721                0.00010000                1.04745474               -0.83841855               -0.62247702               -4.48254938               14.12103032                1.98397753
              10.21491138                1.49080800               34.80626313                0.00010000                1.00883653               -0.35444002               -1.02988659               -4.25709696               14.12071515                3.14539184
              11.22528508                1.09498101               34.72019881                0.04213142                0.85754709               -0.18862356               -1.42077881               -2.93382203               11.24983334                5.09974404
              12.23206232                0.71252322               34.57481886                0.23359209                0.68188387               -0.47252949               -1.70656046               -1.14547653                6.15101814                7.86332290
              13.23892275                0.33929006               34.38549991                0.56151815                0.72529941                0.38025830               -2.22592289               -0.35221221                2.38375713                2.79133286
              14.24656831               -0.03052292               34.16415445                0.92115355                0.76455594                1.17208753               -2.90758707               -0.29133471                0.80609286               -1.83614925
               4.53203690                4.70547161               35.54922406                1.00000000               -0.33385092               -0.51794010                1.46735408               -0.05199703                0.03169110                1.99313281
               5.52869839                4.36494468               35.30728413                0.50527611               -0.27022438               -0.15021245                0.75448830                0.00853361                0.33036531               -1.73239657
               6.52663241                4.02396465               35.07128307                0.03705679                0.18056264                0.26156953                0.07837434               -1.42769701                9.48922639               -5.99736894
               7.53230964                3.65268792               35.01265932                0.00010000                0.77776868               -0.75694114               -0.04776712               -3.25334739               18.86097133               -0.87011218
               8.54218779                3.26835537               34.96222431                0.00010000                1.06261895               -0.74232117               -0.34347302               -4.13130423               19.73355599                0.24589318
               9.55356202                2.87787847               34.91859333                0.00010000                1.20900768               -0.85057857               -0.64306443               -4.50162158               20.06383890                2.06012188
              10.56636794                2.48398929               34.87202422                0.00010000                1.26388446               -0.79757726               -0.92020275               -4.37988114               19.63860322                3.81237474
              11.57883971                2.09083066               34.81708693                0.04603837                1.36453162               -0.75374983               -1.16244742               -3.88819693               18.89569185                5.35599371
              12.59365857                1.70017352               34.75320312                0.22864263                1.20328056               -1.20847990               -1.10679890               -1.73177715                9.92346318                8.71696214
              13.60290532                1.34032685               34.51570517                0.52419573                0.78498650                0.05880292               -1.77674785               -0.07983831                0.67585947                2.86828471
              14.60935830                0.98271987               34.26569073                0.88614764                0.64529788                1.27072063               -2.56077702               -0.08386243                0.06421265               -1.69837357
               4.87019025                5.70068133               35.47328822                1.00000000               -0.24969826               -0.44203991                1.21260366               -0.04965293                0.03089234                1.89497623
               5.86769326                5.36399734               35.21331353                0.48323120               -0.17344976               -0.04988011                0.44367442                0.01854751                0.20989975               -1.68100625
               6.86672125                5.02705767               34.95689072                0.02694528                0.36020453                0.34834763               -0.30907122               -1.98485137               13.00515561               -5.38609739
               7.87489736                4.64813667               34.95283258                0.00010000                0.97121974               -0.28519823               -0.36784781               -4.20129486               25.78287315               -2.34545541
               8.88614565                4.26165994               34.94936351                0.00010000                1.22723151               -0.58463542               -0.52012972               -4.72374156               25.97266574                0.13959789
               9.89944199                3.86953158               34.94595176                0.00010000                1.41079606               -0.83065342               -0.68784717               -4.97319852               26.05728407                2.12922171
              10.91436157                3.47485646               34.94067126                0.00010000                1.59474609               -1.01879316               -0.84519185               -4.92327384               25.97997253                4.10047681
              11.93133691                3.07990601               34.93208709                0.05286978                1.67845150               -1.22639254               -0.96579043               -4.47546158               24.93353179                6.27229522
              12.94793060                2.68835362               34.90222944                0.23780719                1.17213671               -1.08049729               -0.64129557               -2.10689641               12.35716436                6.62191790
              13.95477964                2.34046612               34.63822515                0.53534863                0.60872108                0.01810818               -1.38321403               -0.03657066                0.35075915                2.25006047
              14.96010502                1.99489149               34.36732095                0.89279189                0.53253781                1.12059553               -2.23838239               -0.02921374                0.01921371               -1.79458697
               5.20441183                6.69663082               35.39730247                0.98554053               -0.17188189               -0.36827376                0.98949450               -0.04683614                0.04069140                1.89891318
               6.20269301                6.36394708               35.11963680                0.46402238               -0.08078818                0.03162422                0.14929302                0.01333307                0.22002474               -1.63678858
               7.20279606                6.03093160               34.84556090                0.01895090                0.54942354                0.42481222               -0.67366835               -2.44104210               16.34686981               -5.15562552
               8.21368148                5.64698395               34.89028773                0.00010000                1.17609917                0.00719114               -0.65698115               -5.02310388               32.36571415               -2.49827348
               9.22631805                5.25666266               34.93318213                0.00010000                1.36100284               -0.40226960               -0.69659452               -5.45686925               32.37346179               -0.08513982
              10.24090153                4.86126540               34.97419111                0.00010000                1.56049902               -0.80157951               -0.75273137               -5.72423384               32.37397817                2.14444202
              11.25752803                4.46361343               35.01284575                0.00010000                1.74658928               -1.15798864               -0.80897780               -5.72802537               32.30105048                4.30595363
              12.27583332                4.06630281               35.04793934                0.05991938                1.67162569               -1.38960356               -0.84737465               -5.19791469               30.20234179                6.40770826
              13.29096054                3.67856358               35.04024898                0.24797940                0.99013588               -0.90453267               -0.20575209               -2.44728669               14.44733319                5.80529106
              14.29563604                3.34068901               34.75608927                0.54861353                0.44813704                0.01631678               -1.01485685               -0.04558135                0.33344958                1.86221762
              15.29992328                3.00513178               34.46539550                0.90092260                0.42872430                0.93478689               -1.93873245               -0.02977026                0.01963189               -2.04650227
               5.53462100                7.69331586               35.32162204                0.97126298               -0.09618562               -0.29390231                0.77928055               -0.04618312                0.04313671                1.91555639
               6.53365914                7.36462983               35.02634731                0.44645281                0.01212707                0.10342186               -0.13955795                0.01034778                0.24684931               -1.59842425
               7.53486354                7.03555391               34.73512719                0.01162331                0.75225399                0.49647066               -1.03031443               -2.80919472               19.63113677               -5.05733379
               8.54870422                6.64828049               34.82730927                0.00010000                1.39316352                0.24293313               -0.93062132               -5.74394883               38.85198252               -2.50556369
               9.56272681                6.25361455               34.91630594                0.00010000                1.46511572               -0.20653288               -0.86831745               -6.21052035               38.79373388               -0.15245732
              10.57800654                5.85349999               35.00271494                0.00010000                1.60184210               -0.71891957               -0.82897435               -6.51730928               38.78880320                2.09770684
              11.59476365                5.45169668               35.08663903                0.00010000                1.72109653               -1.16941879               -0.80391728               -6.55372698               38.72470506                4.37316494
              12.61242847                5.05211394               35.16663742                0.06725094                1.49175076               -1.41067304               -0.78384821               -5.73341538               35.14424224                6.72024699
              13.62459867                4.67026297               35.17405376                0.25858351                0.74356733               -0.77573332                0.21918421               -2.59204573               16.18840044                5.43490498
              14.62729981                4.34079245               34.87079593                0.56239409                0.30127047               -0.00519143               -0.65890039               -0.05083036                0.34701074                1.61190404
              15.63062408                4.01358723               34.56081630                0.90925865                0.33242634                0.76165139               -1.65143024               -0.03195176                0.02364966               -2.21334464
               5.86086023                8.69075277               35.24610634                0.95787334               -0.01983197               -0.21741917                0.56384952               -0.04545836                0.04347522                1.91441992
               6.86066191                8.36601552               34.93331784                0.43023791                0.10506392                0.17465779               -0.42781562                0.01015893                0.28149915               -1.57149338
               7.86296151                8.04086101               34.62523792                0.00465699                1.00399798                0.56259893               -1.38369339               -3.09432470               22.89980062               -4.97525151
               8.88074187                7.65184261               34.76453944                0.00010000                1.69633178                0.43242646               -1.19041975               -6.24601786               45.29425593               -2.42214143
               9.89688814                7.25253200               34.89929557                0.00010000                1.58656717               -0.05740127               -1.03106774               -6.72675316               45.18890041               -0.18198959
              10.91247321                6.84688701               35.03104324                0.00010000                1.54756941               -0.57626192               -0.90633029               -7.00990728               45.25593422                1.94210195
              11.92783953                6.44022505               35.16144082                0.00010000                1.50627604               -1.04083114               -0.81436444               -7.12733537               45.37161800                4.27027032
              12.94259873                6.03808935               35.28982685                0.07486928                1.13007917               -1.32964680               -0.75320566               -6.04567055               39.89734937                7.05067194
              13.95044111                5.66304891               35.30547375                0.26954113                0.43482170               -0.68113207                0.64111967               -2.61601080               17.57211985                5.20236266
              14.95129517                5.34058518               34.98356365                0.57656965                0.16267900               -0.04406389               -0.30723849               -0.05542883                0.36536000                1.47442391
              15.95369469                5.02036481               34.65464652                0.91771575                0.23995276                0.59814220               -1.36966272               -0.03511258                0.02767004               -2.28370626
               6.18318634                9.68896748               35.17049908                0.94528203                0.05677390               -0.13943166                0.34442554               -0.04511034                0.05259768                1.90797956
               7.18375408                9.36812298               34.84041575                0.41525948                0.19818058                0.24872752               -0.71782226                0.00767594                0.33881097               -1.57916282
               8.18714995                9.04680589               34.51597622                0.00195072                1.41794013                0.62187311               -1.73493618               -3.33758433               26.22034445               -4.75264994
               9.21211288                8.65692902               34.70318919                0.00010000                2.29986996                0.38436758               -1.43159928               -6.40757483               51.71897523               -2.08916745
              10.23314735                8.25246652               34.88246429                0.00010000                1.90012282               -0.15987715               -1.17470899               -6.43024789               51.44849815               -0.16801738
              11.25011533                7.84197475               35.05764679                0.00010000                1.39336282               -0.36860120               -0.97049669               -6.56105181               51.66641386                1.55962893
              12.26101460                7.43088006               35.23461964                0.00010000                0.92879318               -0.59099765               -0.82129715               -6.94823729               52.29102961                3.65890544
              13.26869120                7.02552101               35.41631542                0.08287640                0.43840084               -0.97493067               -0.73092711               -6.16747066               44.65128703                6.89131057
              14.26978262                6.65664032               35.43519444                0.28090501                0.00920707               -0.60746172                1.06281978               -2.62467128               18.71876607                4.86210958
              15.26887534                6.33991118               35.09541176                0.59117071                0.02899762               -0.09766212                0.04520971               -0.06596787                0.41616423                1.46233686
              16.27036257                6.02555007               34.74794507                0.92624633                0.14872334                0.44281705               -1.08785366               -0.03879044                0.04450496               -2.27978636
               6.50164701               10.68796414               35.09492228                0.93297370                0.13300038               -0.06182780                0.12317107               -0.04459805               -0.00388292                1.65263722
               7.50297701               10.37099007               34.74703302                0.40090579                0.28783889                0.32584904               -1.01196432               -0.00144823                0.54768279               -1.41477343
               8.50740378               10.05329848               34.41006524                0.00126649                2.19763655                0.66155670               -2.07298935               -3.72768653               29.81764220               -3.54303866
               9.54692974                9.65952996               34.64718521                0.00010000                3.79168351               -0.66551724               -1.63585510               -5.04273934               58.05976460               -1.21183722
              10.58323745                9.24933446               34.86670580                0.00010000                2.79544465               -0.48808887               -1.28282327               -4.40613981               57.31183383               -0.10809917
              11.60283863                8.83951499               35.07974695                0.00010000                1.10455353               -0.15117814               -1.00431363               -4.21794238               57.66091228                0.88003421
              12.60532853                8.42840510               35.29864274                0.00010000               -0.46747889                0.20708104               -0.80030811               -4.93384161               59.26169288                2.18966953
              13.59348906                8.01859074               35.53755528                0.09142728               -1.08855037                0.29992660               -0.69044725               -4.91801419               49.67114268                4.77339068
              14.58355752                7.65089968               35.56016535                0.29267158               -0.62114990               -0.51698459                1.47178257               -2.75197081               20.13596772                3.43965732
              15.58106606                7.33863194               35.20781545                0.60616631               -0.09582143               -0.16362114                0.40441171               -0.08735251                0.68764460                1.33121272
              16.58164109                7.02922115               34.84128598                0.93466784                0.05750305                0.29908615               -0.80255466               -0.04561972               -0.00906337               -1.90607406
               6.81624251               11.68773092               35.01426377                0.96282663                0.21482565               -0.02332159               -0.11706713                0.15045517                0.78395988                1.39665390
               7.81839077               11.37463996               34.65717108                0.69652440                0.39069024                0.36498974               -1.29168574                0.15668138                2.01284984               -1.22441608
               8.82405632               11.06003703               34.32451430                0.49357262                4.84156700                0.67385506               -2.32918771               -4.88581103               33.87979593               -2.50389576
               9.91522211               10.64361867               34.60421044                0.44522374                7.04916041               -1.59112913               -1.76751500               -4.03737715               63.74166215               -0.75426021
              10.96503953               10.24270474               34.85297285                0.43483883                3.57318653               -0.66297120               -1.33724487               -2.05316714               62.36457996               -0.13575397
              11.98668584                9.83895118               35.09448698                0.44802650                0.91112464               -0.05638035               -0.99167940               -1.99943237               62.76760266                0.41950557
              12.98326202                9.43502168               35.34358356                0.48374261               -1.94247515                0.66165810               -0.72927842               -2.57823279               64.93020028                1.17551445
              13.94783634                9.03151954               35.62254191                0.54868164               -4.42800086                1.29287992               -0.57686113               -4.00132434               54.64487519                3.00818744
              14.89470200                8.64630063               35.66156973                0.65047117               -2.95147605               -0.45990454                1.79186872               -3.62959071               23.20615843                2.27199048
              15.88880682                8.33663875               35.31691016                0.80825373               -0.32151215               -0.19931870                0.75562190                0.03563412                2.47374810                1.17266796
              16.88827176                8.03153180               34.94160765                0.97009366               -0.05350574                0.23106472               -0.48551972                0.15237145                0.95233040               -1.53851262
               3.68698443                1.82067667               36.79645627                1.00000000               -0.61972007               -0.67090429                2.28204356               -0.11624353               -1.59830206                1.67532180
               4.68078723                1.45304509               36.58849984                0.95072008               -0.58033648               -0.46852427                1.73179417               -0.07490228               -1.82446131               -0.40130767
               5.67537770                1.08389296               36.37619276                0.64815878               -0.72383024               -0.26074303                1.11939610               -0.37984551               -1.50722147               -1.16448292
               6.66631062                0.70538070               36.17491941                0.51124797               -1.04724917               -0.13960853                0.54991955               -0.55991767                0.43201464               -0.16406373
               7.65443271                0.30703443               36.00256209                0.45546478               -1.01511981                0.04535661               -0.04229332               -0.50862881                3.03216985               -0.14986947
               8.64600823               -0.11317863               35.85490017                0.45788137               -0.31810906                0.22460698               -0.67886460               -0.28867326                4.21115461                0.02708765
               9.64807053               -0.54238376               35.70747063                0.51277707                0.58137910                0.39177219               -1.30754201               -0.31389724                2.98304541                0.18340895
              10.65763581               -0.96430248               35.53559125                0.62905101                1.02607739                0.54973922               -1.89856688               -0.37635357                0.56128641                0.28037648
              11.66859208               -1.37393566               35.33914789                0.82958210                1.05586030                0.69051283               -2.48570220               -0.28656711               -1.44799001                0.54908792
              12.67875301               -1.77517322               35.12623440                1.00000000                1.03522673                0.85237723               -3.11035191               -0.12853490               -1.84856784                0.99994358
              13.68929662               -2.17351877               34.92107961                1.00000000                1.05436019                1.09112122               -3.70713679               -0.14993440               -1.43349522               -1.45285117
               4.05345357                2.81396763               36.71482230                1.00000000               -0.50235099               -0.65057975                2.01189292               -0.04088934                0.19496501                2.04946059
               5.04843006                2.44835985               36.50545635                0.72076842               -0.40210654               -0.40873862                1.43841846               -0.01276773                0.63549748               -0.90247938
               6.04541144                2.08128553               36.30497707                0.17918848                0.03553239               -0.15486908                0.94796841               -0.48015537                2.55911052               -2.87665373
               7.04914071                1.70398461               36.13398818                0.00624481                0.66073237               -0.18140512                0.45198127               -1.40609231                5.11255044               -2.37666082
               8.05862609                1.30748799               35.98354832                0.01003112                0.93449381               -0.68832313               -0.07169632               -2.33337839                7.61397893                0.36693242
               9.06783059                0.88906744               35.86101643                0.01319373                0.59336997               -0.31013845               -0.64598752               -2.85130376                9.12846720                0.98532281
              10.07049349                0.46153396               35.73943703                0.01177621                0.09088185                0.19286928               -1.21167829               -2.51395382                7.95176836                1.41372284
              11.06964822                0.04119491               35.59276681                0.15409903                0.03341460                0.29405661               -1.72990497               -1.46125648                5.52052472                3.08405246
              12.07116178               -0.36703053               35.42268521                0.45055122                0.38054989                0.48609941               -2.24581606               -0.59843323                3.58240874                3.12949921
              13.07725922               -0.76664945               35.23745422                0.93941048                0.74905213                0.76253442               -2.76197891               -0.13456786                1.75970215                1.73197030
              14.08614282               -1.16260756               35.03077027                1.00000000                0.88836015                1.07528474               -3.31870170               -0.08495211                0.70944346               -1.71671757
               4.41738220                3.80766508               36.64087037                1.00000000               -0.41682242               -0.59972505                1.74541737               -0.05854949                0.20923071                2.26875329
               5.41321398                3.44487032               36.41243715                0.52806657               -0.36161851               -0.26878581                1.07562124               -0.03777135                0.98266834               -1.62764340
               6.41014983                3.08079558               36.19948431                0.05264322               -0.06138336                0.10540196                0.54250476               -0.80619964                4.86124581               -5.67073946
               7.41198631                2.70175259               36.04877318                0.00010000                0.62662431               -0.65431788                0.30969201               -2.88024459               11.86089183               -2.20977619
               8.42268232                2.29326797               35.97474378                0.00010000                1.14749360               -1.13883562               -0.22184566               -4.47752496               15.07563882                0.44270173
               9.43493618                1.88061860               35.88609764                0.00010000                1.14908363               -0.87291839               -0.66030606               -4.83101845               14.37373436                1.93586545
              10.44566399                1.46147363               35.79574204                0.00010000                1.10194966               -0.35465750               -1.07750750               -4.61347449               14.40102676                3.17415723
              11.45697517                1.04157865               35.70568392                0.03895366                0.94018938               -0.17818726               -1.48447510               -3.21528481               11.60683875                5.20329681
              12.46446778                0.63578633               35.55744302                0.22620617                0.73317556               -0.52838332               -1.76834822               -1.25865648                6.46055609                8.16193056
              13.47163869                0.24007747               35.36286218                0.54493608                0.75230096                0.38263048               -2.30038466               -0.38508281                2.49220545                2.92304988
              14.47951380               -0.15201308               35.13461670                0.90859487                0.78751103                1.23696953               -2.99740999               -0.31872425                0.83151445               -1.90928697
               4.77787210                4.80197313               36.56385341                1.00000000               -0.33279591               -0.52932619                1.46692389               -0.04988394                0.04014785                2.03314956
               5.77454414                4.44298414               36.31476101                0.49182168               -0.27334611               -0.13474886                0.74533478                0.00318184                0.35391856               -1.81651625
               6.77240518                4.08339357               36.07195331                0.03411282                0.22596451                0.30410867                0.05418144               -1.56651645                9.80453116               -6.26691895
               7.77906343                3.69089825               36.01198864                0.00010000                0.89022027               -0.76942305               -0.08775558               -3.51093745               19.37750532               -1.12640073
               8.79020958                3.28471128               35.95859110                0.00010000                1.19705633               -0.77565739               -0.38585635               -4.43219060               20.17300109                0.10735324
               9.80300456                2.87160907               35.91192613                0.00010000                1.35271853               -0.88661377               -0.69370656               -4.83886277               20.52148452                1.99061670
              10.81726395                2.45444081               35.86256437                0.00010000                1.40126358               -0.82451858               -0.97532719               -4.72122523               20.13746571                3.80602979
              11.83102983                2.03763117               35.80521683                0.04283692                1.51129414               -0.76010754               -1.21488495               -4.24700215               19.57111842                5.42211875
              12.84748983                1.62240180               35.74181371                0.22146416                1.31635719               -1.29955610               -1.17524016               -1.91991562               10.39997215                9.00288526
              13.85735697                1.24100316               35.49760413                0.50889722                0.82297962                0.05260674               -1.84418239               -0.09376974                0.73869720                2.96479623
              14.86394943                0.86213183               35.23966908                0.87491131                0.65924558                1.35552929               -2.64279682               -0.08811539                0.06625731               -1.76417605
               5.13436251                5.79707856               36.48542247                0.98900874               -0.25053350               -0.45173169                1.22884335               -0.04808961                0.04500727                1.96599398
               6.13185718                5.44217534               36.21767569                0.47014081               -0.17285646               -0.03994153                0.43162514                0.01195942                0.22758085               -1.75358150
               7.13090538                5.08687775               35.95363128                0.02415770                0.42963340                0.38306291               -0.34380428               -2.15209434               13.38110668               -5.60550460
               8.14044984                4.68636413               35.94889348                0.00010000                1.12111509               -0.28206484               -0.42189210               -4.51722708               26.47548404               -2.55862554
               9.15332768                4.27775482               35.94388299                0.00010000                1.39897745               -0.60944071               -0.57877797               -5.06041689               26.62470870               -0.01034192
              10.16842939                3.86288633               35.93878321                0.00010000                1.59448549               -0.87067576               -0.74918565               -5.32648943               26.71807275                2.03940268
              11.18521739                3.44498326               35.93194060                0.00010000                1.78223749               -1.06055869               -0.90447958               -5.28094266               26.67770381                4.05794194
              12.20407414                3.02637650               35.92220102                0.04949497                1.87400377               -1.26694840               -1.01508209               -4.87627791               25.87945102                6.26365477
              13.22269747                2.60979521               35.89552525                0.23038946                1.29795596               -1.14720763               -0.70595960               -2.33836379               13.00593611                6.82578256
              14.23003326                2.24112960               35.62411073                0.51975302                0.63983394                0.01980199               -1.44248443               -0.05124866                0.41434615                2.30608625
              15.23549415                1.87509751               35.34457042                0.88139184                0.54608856                1.19080171               -2.31296710               -0.02821058                0.02179780               -1.88022976
               5.48671673                6.79293850               36.40731423                0.97393588               -0.17325946               -0.37639371                1.01367033               -0.04700586                0.04425259                1.98650544
               6.48498413                6.44218530               36.12104248                0.45136155               -0.07711141                0.03727580                0.13387563                0.01172372                0.23455396               -1.70460135
               7.48517450                6.09105482               35.83860517                0.01635463                0.64288429                0.45217193               -0.71866943               -2.62714705               16.79654573               -5.36402479
               8.49784182                5.68525696               35.88340814                0.00010000                1.36522747                0.01105813               -0.72084232               -5.38376371               33.22534345               -2.68719383
               9.51247905                5.27252247               35.92587968                0.00010000                1.57022549               -0.42703728               -0.76656473               -5.83426482               33.21228033               -0.22990226
              10.52924633                4.85419556               35.96632298                0.00010000                1.78379390               -0.84824983               -0.82377813               -6.10944590               33.21778198                2.04047289
              11.54815493                4.43322964               36.00444498                0.00010000                1.97229951               -1.21511205               -0.87381706               -6.11075750               33.16778310                4.22903238
              12.56869232                4.01229220               36.03923957                0.05640651                1.89072649               -1.43955088               -0.89496885               -5.63980418               31.42355064                6.33269862
              13.58596946                3.59945765               36.03794414                0.24032547                1.11686884               -0.95122571               -0.26248092               -2.71155253               15.29332186                5.99107528
              14.59102970                3.24139920               35.74570045                0.53263947                0.47399728                0.02209748               -1.06659476               -0.05901816                0.39778249                1.90202239
              15.59544940                2.88594787               35.44567369                0.88928476                0.44197065                0.98899092               -2.00783809               -0.02884385                0.02234351               -2.14668728
               5.83492878                7.78955068               36.32949798                0.95997836               -0.09534554               -0.29997861                0.79654191               -0.04646856                0.04478961                1.99984984
               6.83397532                7.44292086               36.02484316                0.43427266                0.01810053                0.11004137               -0.16104752                0.01292508                0.26376596               -1.66457553
               7.83529079                7.09592119               35.72455624                0.00921996                0.86658024                0.52014611               -1.08493959               -3.00989009               20.16233458               -5.26281231
               8.85130693                6.68658530               35.81765089                0.00010000                1.62064985                0.24503814               -1.00291393               -6.14304405               39.87810499               -2.68055265
               9.86770379                6.26921407               35.90723486                0.00010000                1.71131879               -0.23586729               -0.94818410               -6.62557978               39.80573971               -0.28989944
              10.88553330                5.84592133               35.99403064                0.00010000                1.86009102               -0.77434178               -0.90987046               -6.93232674               39.79671443                1.98814017
              11.90490561                5.42068102               36.07823929                0.00010000                1.97583736               -1.23677348               -0.87717852               -6.95532921               39.73700765                4.27326138
              12.92505005                4.99758548               36.15853333                0.06355671                1.72269050               -1.46496326               -0.83613516               -6.19085331               36.65215414                6.60196962
              13.93935942                4.59077069               36.17603826                0.25064709                0.86563168               -0.80827058                0.17082998               -2.86908892               17.25494918                5.61771446
              14.94236268                4.24157155               35.86399933                0.54600660                0.32302631                0.00207285               -0.70429226               -0.06188720                0.41144676                1.64720595
              15.94581994                3.89487733               35.54398869                0.89736837                0.34572580                0.80401139               -1.71708234               -0.03095359                0.02684532               -2.31980997
               6.17904700                8.78693892               36.25180403                0.94690951               -0.01748703               -0.22179749                0.57659696               -0.04607265                0.04517696                1.99443962
               7.17887213                8.44438613               35.92889746                0.41858337                0.11326317                0.18388051               -0.45654911                0.01319276                0.30212298               -1.63810744
               8.18131226                8.10145775               35.61108476                0.00243168                1.14079630                0.58605011               -1.44817334               -3.31165626               23.51937633               -5.17804994
               9.20168805                7.69015772               35.75224082                0.00010000                1.96595781                0.42967226               -1.27109996               -6.67557647               46.48976321               -2.58242137
              10.22063142                7.26780512               35.88854650                0.00010000                1.87223986               -0.09885267               -1.12053310               -7.16416717               46.36608153               -0.30639921
              11.23913285                6.83870872               36.02152469                0.00010000                1.83763872               -0.64246821               -0.99826414               -7.43030197               46.41417390                1.83794214
              12.25738419                6.40849417               36.15285901                0.00010000                1.78263624               -1.11296933               -0.90083224               -7.52217159               46.51114070                4.16359306
              13.27478558                5.98299293               36.28193418                0.07106116                1.36087084               -1.38828880               -0.82168437               -6.48723543               41.69935858                6.91077963
              14.28460161                5.58329224               36.31171970                0.26137825                0.54498706               -0.70241801                0.60184348               -2.89116953               18.87733324                5.38744138
              15.28568532                5.24144066               35.98030977                0.55978707                0.18085853               -0.03632019               -0.34718941               -0.06430673                0.42974270                1.51187703
              16.28821878                4.90202809               35.64064902                0.90556451                0.25334625                0.63160981               -1.43315414               -0.03416674                0.03142227               -2.39056486
               6.51911291                9.78511473               36.17398569                0.93467818                0.06074455               -0.14286200                0.35363093               -0.04587389                0.05445432                1.98478159
               7.51972035                9.44659847               35.83306064                0.40407000                0.20865826                0.26030554               -0.75364722                0.01012015                0.36477843               -1.64800290
               8.52328607                9.10764219               35.49826377                0.00195349                1.58638340                0.64620035               -1.80903176               -3.57790841               26.93698284               -4.94669015
               9.55144802                8.69517874               35.68843665                0.00010000                2.62916819                0.35951110               -1.52071433               -6.85734825               53.09158866               -2.22341803
              10.57586944                8.26723702               35.87023128                0.00010000                2.23950961               -0.23367335               -1.27322511               -6.84236218               52.78699740               -0.26715276
              11.59623821                7.83307197               36.04742327                0.00010000                1.71542635               -0.44923307               -1.07404551               -6.92902333               52.96486018                1.47550375
              12.61017797                7.39842163               36.22586712                0.00010000                1.21345298               -0.65719459               -0.92605582               -7.28232067               53.54362871                3.56678879
              13.62050727                6.96981971               36.40847700                0.07895520                0.64551673               -1.02708416               -0.82980078               -6.55297791               46.74853697                6.75311056
              14.62308830                6.57672233               36.44569481                0.27249041                0.09167100               -0.61824756                1.03219639               -2.88806383               20.27225210                5.04413338
              15.62234069                6.24084515               36.09570575                0.57396807                0.04367180               -0.08982949                0.01022820               -0.07386761                0.48215431                1.50694348
              16.62396174                5.90750952               35.73677425                0.91383668                0.16210417                0.46947022               -1.14978219               -0.03810065                0.04936789               -2.38257822
               6.85516204               10.78408168               36.09618207                0.92263703                0.13850296               -0.06438094                0.12931968               -0.04551951               -0.00551911                1.71849962
               7.85654707               10.44959224               35.73670208                0.39021791                0.30058900                0.33953240               -1.05491618               -0.00092051                0.58532206               -1.47767962
               8.86117382               10.11438175               35.38892838                0.00127340                2.41995941                0.68456553               -2.15616259               -4.00885358               30.65122927               -3.68739693
               9.90494626                9.69734794               35.63035543                0.00010000                4.23585630               -0.78505047               -1.73191133               -5.41043016               59.61937033               -1.29309898
              10.94589095                9.26313166               35.85335481                0.00010000                3.22107572               -0.60240403               -1.38858783               -4.69003907               58.80613067               -0.16514744
              11.96936777                8.82972406               36.06913369                0.00010000                1.45495459               -0.24334363               -1.11765304               -4.43741982               59.09278389                0.83212687
              12.97499004                8.39535028               36.29000534                0.00010000               -0.19712300                0.14541774               -0.92284653               -5.13167235               60.61608980                2.13500641
              13.96542531                7.96245125               36.52989623                0.08743850               -0.95875744                0.29841484               -0.83176431               -5.16431015               52.04780290                4.68167417
              14.95581489                7.57092729               36.57479543                0.28410916               -0.60022704               -0.51342929                1.44956472               -2.99575498               21.93542165                3.57222426
              15.95342077                7.23964407               36.21172503                0.58850094               -0.08434377               -0.15575393                0.37430951               -0.09633721                0.76391572                1.37769681
              16.95412802                6.91141750               35.83297549                0.92194358                0.07072421                0.32079266               -0.86339430               -0.04542998               -0.00575077               -1.98868842
               7.18718140               11.78382711               36.01310209                0.95777481                0.22204726               -0.02545715               -0.11493337                0.15813661                0.81226473                1.45244275
               8.18940187               11.45338912               35.64401345                0.69136579                0.40859505                0.37968758               -1.34093595                0.16079974                2.11314468               -1.27925198
               9.19535330               11.12133350               35.30079600                0.49273894                5.25438218                0.69517470               -2.41631933               -5.27762119               34.86014249               -2.60610930
              10.29448952               10.67947773               35.58604686                0.44538955                7.71696168               -1.78702102               -1.86741434               -4.35290226               65.47091111               -0.80131878
              11.34969254               10.25518894               35.83905963                0.43498670                4.03908381               -0.79427167               -1.44704641               -2.18347297               63.99704016               -0.16901469
              12.37527119                9.82820510               36.08397666                0.44780742                1.25623975               -0.15189676               -1.11012340               -2.10260569               64.32686311                0.39075097
              13.37481733                9.40132998               36.33561417                0.48283768               -1.68135656                0.59797047               -0.86019096               -2.63812536               66.39749592                1.14188732
              14.34164406                8.97578800               36.61590267                0.54666307               -4.44184748                1.33367540               -0.74145131               -4.12193691               57.21892900                2.94427654
              15.28598038                8.56645375               36.67941128                0.64613633               -3.08601618               -0.44735405                1.77137170               -3.88634756               25.20786736                2.36258889
              16.27992374                8.23773007               36.32435210                0.79926339               -0.32370524               -0.19139983                0.72938553                0.02387817                2.62232935                1.21714459
              17.27950628                7.91392538               35.93647980                0.96363649               -0.04174627                0.25078793               -0.54432871                0.15735691                0.99456930               -1.60250566
               3.88156004                1.92063150               37.81941371                1.00000000               -0.62836729               -0.68212659                2.30995250               -0.11774429               -1.62863640                1.71964248
               4.87527637                1.53327360               37.60591152                0.94073585               -0.59320846               -0.47083652                1.75045628               -0.07713997               -1.88715987               -0.45758119
               5.86969587                1.14429419               37.38741618                0.64419783               -0.76083128               -0.25905626                1.12397623               -0.40599757               -1.58017748               -1.16960673
               6.86005974                0.74513495               37.18039544                0.51018603               -1.11350114               -0.13815078                0.54300480               -0.59093801                0.37246017               -0.17051546
               7.84742585                0.32467978               37.00205159                0.45538178               -1.08330041                0.05108912               -0.06328266               -0.53436654                2.94867052               -0.15419192
               8.83839373               -0.11918065               36.84795755                0.45756556               -0.35518298                0.23364775               -0.71375949               -0.30205795                4.12335180                0.02755065
               9.84032219               -0.57296447               36.69417861                0.51144902                0.58962612                0.40456127               -1.35500992               -0.32352240                2.92707370                0.18847116
              10.85018626               -1.01947217               36.51633060                0.62555070                1.06226750                0.56636751               -1.95631288               -0.39008717                0.52888348                0.28863804
              11.86156754               -1.45318107               36.31396062                0.82214617                1.09460450                0.71000416               -2.55247835               -0.30001891               -1.49688962                0.54812947
              12.87207835               -1.87801330               36.09474118                1.00000000                1.06600926                0.87466107               -3.18681502               -0.13651313               -1.90317793                1.02313484
              13.88288772               -2.29977946               35.88354804                1.00000000                1.08093779                1.11861418               -3.79605393               -0.15380769               -1.47617216               -1.47191366
               4.26774049                2.91381023               37.73504286                1.00000000               -0.50668714               -0.66237009                2.03562095               -0.04113244                0.21628553                2.09226065
               5.26267362                2.52856524               37.51988824                0.70339941               -0.40176354               -0.40647683                1.44872476               -0.01639572                0.69951269               -0.99446780
               6.25970522                2.14170362               37.31449340                0.17355232                0.06419723               -0.14294686                0.95558781               -0.53001791                2.66285166               -3.00254640
               7.26395757                1.74375344               37.13849789                0.00641310                0.72673782               -0.20277234                0.44917705               -1.51296587                5.19943921               -2.40504145
               8.27423998                1.32519067               36.98277192                0.01011774                1.01188554               -0.71810835               -0.08589803               -2.49364277                7.66283319                0.29547182
               9.28419528                0.88315583               36.85443482                0.01323220                0.64963725               -0.32342983               -0.67340095               -3.04592426                9.16295304                0.95452807
              10.28723273                0.43108114               36.72713588                0.01196607                0.10992034                0.20641389               -1.25209451               -2.69704365                8.02893144                1.43176958
              11.28639369               -0.01380849               36.57522010                0.14905970                0.03025957                0.30345499               -1.78195511               -1.58137778                5.63584192                3.12523661
              12.28783792               -0.44608103               36.39991126                0.43926424                0.38093623                0.49072012               -2.30978551               -0.64652732                3.70494096                3.24719411
              13.29401241               -0.86926669               36.20944742                0.91746837                0.76389467                0.78072237               -2.83826170               -0.14987290                1.86302982                1.81188838
              14.30311581               -1.28859332               35.99713895                1.00000000                0.91033998                1.10859974               -3.40507149               -0.09257133                0.79229139               -1.77170716
               4.65122738                3.90738409               37.65835343                1.00000000               -0.41723240               -0.61138636                1.75238302               -0.05979450                0.20709410                2.30585604
               5.64705506                3.52514406               37.42316595                0.51389820               -0.36600362               -0.25947102                1.07521253               -0.04728014                1.04930543               -1.73558899
               6.64390731                3.14143525               37.20488100                0.04941475               -0.03708388                0.13878360                0.53699595               -0.91371950                5.14977912               -5.95988195
               7.64631338                2.74107950               37.05188344                0.00010000                0.71216450               -0.68569177                0.31046781               -3.09266271               12.15041073               -2.40668332
               8.65815060                2.31031761               36.97238126                0.00010000                1.26356966               -1.19137218               -0.25349979               -4.76292015               15.26239709                0.30283322
               9.67158478                1.87435076               36.87929109                0.00010000                1.25975184               -0.90752980               -0.70470183               -5.16653188               14.62926601                1.86671998
              10.68334564                1.43116381               36.78471298                0.00010000                1.20680488               -0.35849077               -1.13235783               -4.95799949               14.68119578                3.18600245
              11.69572087                0.98659693               36.69050931                0.03571279                1.03747759               -0.17177836               -1.55377582               -3.49557065               11.96869912                5.29799588
              12.70409519                0.55663333               36.53945189                0.21869528                0.79361524               -0.58849874               -1.83151626               -1.37814962                6.77899079                8.45171535
              13.71159318                0.13760115               36.33949221                0.52818220                0.77971850                0.38204566               -2.37338011               -0.42146555                2.60089731                3.05643052
              14.71968956               -0.27760747               36.10420625                0.89596088                0.80963821                1.30379721               -3.08260375               -0.34897393                0.85642248               -1.98087625
               5.03102467                4.90158250               37.57856254                0.99363561               -0.33478017               -0.54218478                1.48452936               -0.05284019                0.05639021                2.09111686
               6.02767687                4.52337581               37.32219082                0.47833749               -0.27646337               -0.12499101                0.74057611               -0.00610948                0.37975018               -1.90298280
               7.02549540                4.14447930               37.07236670                0.03111108                0.27725447                0.34302340                0.02988301               -1.70589629               10.12245775               -6.55476175
               8.03322195                3.73003960               37.01090421                0.00010000                1.01074603               -0.77674202               -0.13080931               -3.76370640               19.90383250               -1.41604986
               9.04571032                3.30136322               36.95450718                0.00010000                1.33982448               -0.80765416               -0.43393956               -4.72174425               20.62413193               -0.05240255
              10.06001844                2.86500523               36.90471920                0.00010000                1.50581192               -0.92139856               -0.75159012               -5.16454237               20.98851538                1.90397197
              11.07582656                2.42391133               36.85251768                0.00010000                1.54971524               -0.85145596               -1.03841847               -5.05485459               20.64996566                3.78884197
              12.09101275                1.98275594               36.79278923                0.03954759                1.67220754               -0.77202840               -1.27523959               -4.60709626               20.25324662                5.49020808
              13.10927071                1.54214900               36.72969832                0.21419310                1.44055737               -1.39472476               -1.25310137               -2.11686459               10.88194177                9.28311679
              14.11982390                1.13837423               36.47882152                0.49359107                0.86414257                0.04451879               -1.91391733               -0.11190786                0.80961084                3.06516317
              15.12655356                0.73748263               36.21283479                0.86368091                0.67296643                1.44448761               -2.72364147               -0.09255896                0.06788805               -1.82606441
               5.40658396                5.89654040               37.49786509                0.97706630               -0.25478810               -0.46485434                1.26172884               -0.04882998                0.04892004                2.05268544
               6.40403608                5.52264424               37.22194604                0.45698324               -0.17291800               -0.03441154                0.42549167                0.00857991                0.24407745               -1.83156356
               7.40312560                5.14829572               36.95001463                0.02128786                0.50596249                0.41234215               -0.37989141               -2.31168364               13.76294447               -5.83924357
               8.41415533                4.72554466               36.94439474                0.00010000                1.28122432               -0.27784716               -0.47936896               -4.82196554               27.18011348               -2.78797873
               9.42875008                4.29416453               36.93778795                0.00010000                1.57952496               -0.63252452               -0.64321498               -5.38416885               27.29423830               -0.17827660
              10.44574583                3.85592278               36.93096805                0.00010000                1.78738773               -0.90889006               -0.81766227               -5.66782065               27.39744353                1.93537741
              11.46449784                3.41413469               36.92258167                0.00010000                1.97977265               -1.10079685               -0.97167181               -5.63129424               27.39837492                4.00698510
              12.48534128                2.97115637               36.91178545                0.04606722                2.08208877               -1.30657316               -1.07286522               -5.28017127               26.83640529                6.25457346
              13.50613961                2.52873884               36.88811025                0.22289239                1.43400557               -1.21384588               -0.78443133               -2.57847273               13.66281368                7.03557478
              14.51402139                2.13849152               36.60937547                0.50416622                0.67409831                0.02333163               -1.50752044               -0.07091531                0.48879057                2.36757646
              15.51962158                1.75128229               36.32106161                0.87002029                0.56001899                1.26485732               -2.38974747               -0.02741787                0.02418451               -1.96359858
               5.77784038                6.89228542               37.41757587                0.96230663               -0.17472341               -0.38586739                1.03840528               -0.04765954                0.04583168                2.07519940
               6.77609314                6.52268758               37.12231431                0.43868942               -0.07395332                0.04195425                0.12090943                0.01404222                0.25092724               -1.77510195
               7.77636131                6.15272614               36.83118751                0.01370211                0.74103456                0.47611792               -0.76470451               -2.80140135               17.25565433               -5.58530480
               8.79091384                5.72448266               36.87587088                0.00010000                1.56437521                0.01460513               -0.78822121               -5.72905171               34.10166158               -2.88839879
               9.80764882                5.28871273               36.91785084                0.00010000                1.78890171               -0.45073968               -0.84195546               -6.19717289               34.07309193               -0.38833201
              10.82669187                4.84682743               36.95771555                0.00010000                2.01591384               -0.89308570               -0.90102112               -6.48133859               34.08702049                1.92424261
              11.84796709                4.40189539               36.99536941                0.00010000                2.20566528               -1.26934002               -0.94481819               -6.48498369               34.06651914                4.14341784
              12.87080518                3.95662448               37.03003996                0.05279695                2.11995012               -1.48488192               -0.94844419               -6.08460042               32.66450761                6.25595397
              13.89036610                3.51787208               37.03499936                0.23255631                1.25284820               -0.99485728               -0.33477962               -2.98457920               16.15180871                6.18781301
              14.89586214                3.13884086               36.73475737                0.51665655                0.50287919                0.03178660               -1.12588753               -0.07676896                0.47427226                1.94744730
              15.90042368                2.76277977               36.42523874                0.87769604                0.45615397                1.04667057               -2.08158094               -0.02807448                0.02530965               -2.24715328
               6.14482643                7.88882305               37.33755287                0.94864631               -0.09502350               -0.30657823                0.81525345               -0.04714609                0.04659784                2.08604074
               7.14387620                7.52348333               37.02312636                0.42206551                0.02380313                0.11741499               -0.18231081                0.01627605                0.28325357               -1.73416953
               8.14530250                7.15781808               36.71342840                0.00675323                0.98557501                0.54331726               -1.14117175               -3.20010994               20.70672913               -5.47892209
               9.16358770                6.72583676               36.80725099                0.00010000                1.85796786                0.24628867               -1.07865943               -6.52533964               40.92551708               -2.86610639
              10.18246185                6.28514973               36.89734226                0.00010000                1.96743502               -0.26525656               -1.03269964               -7.02493065               40.84378802               -0.43885184
              11.20293640                5.83806107               36.98451753                0.00010000                2.12696334               -0.82871034               -0.99515647               -7.33247650               40.83536888                1.86727228
              12.22500112                5.38874789               37.06909546                0.00010000                2.23680918               -1.30131505               -0.95336587               -7.34582884               40.78874068                4.16297184
              13.24767258                4.94145873               37.14991471                0.05981956                1.96152653               -1.51316014               -0.88835572               -6.64930825               38.19061447                6.47452370
              14.26423165                4.50884169               37.17747035                0.24261897                0.99528674               -0.83654436                0.10796541               -3.15426887               18.34136788                5.81317566
              15.26757832                4.13912726               36.85671008                0.52966211                0.34753064                0.01377236               -0.75759687               -0.07637139                0.48864401                1.68749605
              16.27118226                3.77221570               36.52647466                0.88552914                0.36039461                0.84940865               -1.78879982               -0.03010806                0.03041475               -2.42868516
               6.50757690                8.88615385               37.25763828                0.93588209               -0.01532621               -0.22689913                0.59093747               -0.04684265                0.04677674                2.07780385
               7.50742364                8.52503588               36.92418686                0.40681804                0.12143895                0.19374913               -0.48573140                0.01669979                0.32581533               -1.70815237
               8.51000568                8.16359248               36.59627446                0.00218485                1.28258733                0.61051971               -1.51479860               -3.52081730               24.15494084               -5.39114372
               9.53307539                7.72940843               36.73911744                0.00010000                2.24601061                0.42546406               -1.35524381               -7.08977173               47.71118910               -2.75232840
              10.55492589                7.28340760               36.87688491                0.00010000                2.16843994               -0.14172851               -1.21364517               -7.58581954               47.57275073               -0.44069210
              11.57644419                6.83025323               37.01107796                0.00010000                2.13634835               -0.70926239               -1.09225941               -7.83491076               47.60645273                1.72304526
              12.59765286                6.37586909               37.14342418                0.00010000                2.06405110               -1.18391913               -0.98582915               -7.90298089               47.69280070                4.04321882
              13.61772521                5.92636128               37.27339316                0.06714982                1.59796641               -1.44187806               -0.88263422               -6.92831155               43.54756954                6.75006450
              14.62961219                5.50114119               37.31751062                0.25309138                0.66177483               -0.71972113                0.54905562               -3.17388531               20.21608526                5.58608248
              15.63096070                5.13911630               36.97661986                0.54301224                0.20162235               -0.02462351               -0.39471140               -0.07562923                0.50697070                1.55379148
              16.63364464                4.77976794               36.62598344                0.89347196                0.26839314                0.66781724               -1.50349521               -0.03330343                0.03573861               -2.50084350
               6.86612552                9.88428507               37.17757170                0.92396597                0.06460437               -0.14680642                0.36423477               -0.04669032                0.05638119                2.06568056
               7.86677156                9.52735831               36.82534280                0.39280931                0.21940416                0.27238905               -0.79039287                0.01284534                0.39430733               -1.72049278
               8.87051360                9.17002847               36.47979559                0.00194618                1.76027924                0.67129106               -1.88603977               -3.81214669               27.67275252               -5.15090542
               9.90197715                8.73434604               36.67277490                0.00010000                2.96935340                0.33246712               -1.61324039               -7.29489885               54.49451801               -2.36587769
              10.92990067                8.28231516               36.85699978                0.00010000                2.58997758               -0.31022249               -1.37449814               -7.24071535               54.15781416               -0.37399171
              11.95377670                7.82387582               37.03616588                0.00010000                2.04663918               -0.53245438               -1.17746524               -7.28230317               54.29737922                1.38229423
              12.97083345                7.36506950               37.21609852                0.00010000                1.50287760               -0.72554566               -1.02472741               -7.60098661               54.83413065                3.45921785
              13.98383425                6.91262117               37.39971940                0.07494273                0.85827310               -1.07813607               -0.91393836               -6.93462082               48.90832772                6.58193905
              14.98799891                6.49444727               37.45583837                0.26398667                0.18023642               -0.62567535                0.99026488               -3.15807069               21.87964226                5.23918409
              15.98743898                6.13863479               37.09561632                0.55673951                0.06070004               -0.07883907               -0.03183835               -0.08358071                0.56094639                1.55580032
              16.98921292                5.78557204               36.72494942                0.90146425                0.17739372                0.49869421               -1.21922893               -0.03724835                0.05511110               -2.48941714
               7.22049661               10.88321772               37.09750867                0.91226449                0.14405343               -0.06726692                0.13654401               -0.04642713               -0.00721672                1.78817144
               8.22193714               10.53048366               36.72593470                0.37947552                0.31392030                0.35369335               -1.09925822               -0.00056119                0.62741608               -1.54406988
               9.22677502               10.17701831               36.36694198                0.00127247                2.64767864                0.70755600               -2.24203787               -4.28568629               31.50793983               -3.83925980
              10.27489072                9.73605777               36.61254699                0.00010000                4.69033944               -0.90682964               -1.83157665               -5.77077974               61.21390355               -1.37967431
              11.32058181                9.27720315               36.83893405                0.00010000                3.65765311               -0.72001790               -1.49678786               -4.96518890               60.33442737               -0.22637522
              12.34804378                8.81960414               37.05739389                0.00010000                1.81529900               -0.33977742               -1.22966333               -4.64765562               60.55675291                0.77893333
              13.35688779                8.36135818               37.28018581                0.00010000                0.08056241                0.07861313               -1.03655815               -5.31765525               61.99588042                2.06971428
              14.34965503                7.90479855               37.52092000                0.08330661               -0.82253158                0.28855163               -0.95172319               -5.40734675               54.50240369                4.55951422
              15.34043715                7.48862768               37.58915665                0.27539164               -0.57453566               -0.50632851                1.41675194               -3.24240132               23.81568032                3.71408593
              16.33816431                7.13753952               37.21530164                0.57082429               -0.07059989               -0.14536410                0.33749256               -0.10699741                0.85322209                1.42784428
              17.33902516                6.78974183               36.82401809                0.90930575                0.08608412                0.34505021               -0.93246556               -0.04502861               -0.00165461               -2.07511128
               7.57066509               11.88293973               37.01196511                0.95266949                0.22946613               -0.02779936               -0.11210369                0.16609318                0.84211085                1.51157908
               8.57295976               11.53443218               36.63035236                0.68613562                0.42803353                0.39485139               -1.39206223                0.16425409                2.22200684               -1.33734627
               9.57922576               11.18417959               36.27618791                0.49185980                5.67084746                0.71612846               -2.50640082               -5.66606163               35.86900834               -2.71340080
              10.68637670               10.71620945               36.56686215                0.44550465                8.39123814               -1.98483258               -1.97166194               -4.66464061               67.23590546               -0.85025465
              11.74705053               10.26791480               36.82403192                0.43511802                4.51459293               -0.92883485               -1.56008261               -2.30958650               65.66363177               -0.20353483
              12.77666856                9.81708027               37.07228451                0.44758863                1.61177023               -0.25238638               -1.22795457               -2.20117351               65.91744597                0.35980806
              13.77928593                9.36664177               37.32637974                0.48194258               -1.41253783                0.52835920               -0.98244586               -2.69458912               67.88289488                1.10243605
              14.74841781                8.91839220               37.60771288                0.54457707               -4.44380069                1.35936444               -0.88357932               -4.23977561               59.87824223                2.85748011
              15.69040992                8.48432070               37.69699716                0.64171068               -3.21164611               -0.43069860                1.73997159               -4.13595822               27.30934358                2.45982518
              16.68418488                8.13572750               37.33149787                0.79028843               -0.32510929               -0.18120193                0.69615682                0.00967444                2.78842856                1.26483938
              17.68390773                7.79247305               36.93072107                0.95722423               -0.02771519                0.27312178               -0.61210714                0.16281191                1.03977912               -1.66966040
               4.08141608                2.02381122               38.84265532                1.00000000               -0.63745189               -0.69380968                2.33962277               -0.11987320               -1.65989697                1.76970409
               5.07504156                1.61594004               38.62350897                0.93068713               -0.60629271               -0.47239686                1.76877639               -0.08042065               -1.95373063               -0.51889625
               6.06929023                1.20634638               38.39867229                0.64013802               -0.79585730               -0.25766032                1.12591762               -0.43186901               -1.65810614               -1.17289760
               7.05912442                0.78576548               38.18577950                0.50910833               -1.17231034               -0.13696937                0.53172311               -0.61916763                0.30899683               -0.17806486
               8.04584402                0.34250992               38.00129644                0.45521323               -1.13880871                0.05578373               -0.09086832               -0.55720218                2.86121181               -0.15915472
               9.03634824               -0.12558217               37.84062498                0.45728164               -0.38025325                0.24066265               -0.75682597               -0.31419488                4.03303111                0.02707805
              10.03823896               -0.60452888               37.68037043                0.51013761                0.60416118                0.41638590               -1.41072045               -0.33153958                2.87193746                0.19244079
              11.04843147               -1.07630873               37.49646499                0.62203541                1.10023750                0.58296587               -2.01959312               -0.40145231                0.50119651                0.29588916
              12.06024371               -1.53487435               37.28809832                0.81463368                1.13352848                0.72964288               -2.62028027               -0.31175616               -1.53976159                0.54527305
              13.07110204               -1.98412300               37.06249810                1.00000000                1.09578774                0.89602847               -3.25940530               -0.14421814               -1.95381871                1.04388670
              14.08215946               -2.43013888               36.84515853                1.00000000                1.10574245                1.14389660               -3.87742764               -0.15697671               -1.51719727               -1.48935352
               4.48808853                3.01687313               38.75553472                1.00000000               -0.51187560               -0.67743487                2.06385682               -0.04155723                0.23447844                2.13332143
               5.48296978                2.61121607               38.53443084                0.68610206               -0.40148590               -0.40420424                1.46050004               -0.02361998                0.76710209               -1.09130749
               6.48005882                2.20376978               38.32408883                0.16784600                0.09405967               -0.13108691                0.96361708               -0.58412942                2.77318605               -3.13581735
               7.48485097                1.78439579               38.14297172                0.00657712                0.79435041               -0.22764357                0.44431627               -1.61660881                5.28754862               -2.43598406
               8.49594582                1.34306776               37.98183036                0.01019945                1.09373603               -0.74602731               -0.10498887               -2.64463741                7.71054751                0.21051633
               9.50672569                0.87682446               37.84754841                0.01326984                0.71705075               -0.33746043               -0.70795150               -3.22956173                9.19487180                0.91027087
              10.51028684                0.39963498               37.71439514                0.01216803                0.14319944                0.21703764               -1.30073959               -2.87363973                8.10416299                1.43780932
              11.50958968               -0.07047907               37.55712771                0.14398935                0.03732210                0.31390850               -1.84001521               -1.70170635                5.75111385                3.15349398
              12.51103328               -0.52757792               37.37648950                0.42787121                0.38512196                0.49539645               -2.37573609               -0.69313342                3.82806489                3.36156044
              13.51729212               -0.97516272               37.18068899                0.89531274                0.77861475                0.79774875               -2.91220025               -0.16608788                1.96788748                1.89041035
              14.52660558               -1.41869992               36.96266884                1.00000000                0.93134562                1.14062228               -3.48598899               -0.10098451                0.87734544               -1.82619518
               4.89189905                4.01026253               38.67591803                1.00000000               -0.42265365               -0.62946581                1.77570372               -0.05791759                0.22145890                2.35350317
               5.88767251                3.60785595               38.43394140                0.49984235               -0.37355639               -0.25358401                1.08805527               -0.05863398                1.12724552               -1.85303366
               6.88442792                3.20372464               38.21022422                0.04614183               -0.00891255                0.16974623                0.53034531               -1.02806093                5.45441932               -6.26752656
               7.88749426                2.78121261               38.05498254                0.00010000                0.80473405               -0.71649156                0.30705340               -3.29933239               12.44486311               -2.63076749
               8.90052260                2.32758937               37.96967378                0.00010000                1.38477602               -1.24056079               -0.29113853               -5.03062916               15.44166674                0.13879145
               9.91518978                1.86766862               37.87200361                0.00010000                1.37735425               -0.94064512               -0.75700619               -5.48694128               14.88561834                1.77473856
              10.92806969                1.39981187               37.77309488                0.00010000                1.32102311               -0.36430085               -1.19608493               -5.28963889               14.95923525                3.17951346
              11.94161025                0.92996944               37.67460841                0.03241741                1.14974989               -0.16808732               -1.63143597               -3.77269296               12.33410039                5.38140789
              12.95106469                0.47503358               37.52081269                0.21105050                0.86460137               -0.65081489               -1.89871962               -1.50371885                7.10604110                8.72851239
              13.95890227                0.03183197               37.31539458                0.51133144                0.80747440                0.37929452               -2.44672243               -0.46197105                2.70972337                3.18952254
              14.96721417               -0.40732644               37.07296463                0.88327881                0.83119012                1.37275521               -3.16375023               -0.38208763                0.88050342               -2.05164914
               5.29174333                5.00428381               38.59354400                0.98132952               -0.34083432               -0.55717993                1.52321443               -0.04994374                0.06957067                2.16964591
               6.28833498                4.60614439               38.32957253                0.46478771               -0.28011922               -0.12176835                0.74167106               -0.01012207                0.40997813               -1.99382776
               7.28614094                4.20716470               38.07255097                0.02805852                0.33323054                0.37737110                0.00694608               -1.83953930               10.44704179               -6.86276524
               8.29499959                3.77006596               38.00937246                0.00010000                1.13681436               -0.77873582               -0.17686633               -4.00618162               20.43877193               -1.73954826
               9.30887723                3.31825654               37.94991231                0.00010000                1.48823853               -0.83718724               -0.48826993               -4.99689339               21.08596887               -0.23415434
              10.32476436                2.85801156               37.89689433                0.00010000                1.66580064               -0.95355465               -0.81766827               -5.47564054               21.46322719                1.79960442
              11.34219324                2.39234896               37.84179600                0.00010000                1.70748784               -0.87703215               -1.11109212               -5.37772831               21.17364317                3.76040138
              12.35891412                1.92615919               37.77971204                0.03622570                1.84515658               -0.78761057               -1.34604534               -4.96398821               20.93823359                5.55902736
              13.37909637                1.45940578               37.71675168                0.20681463                1.57492964               -1.49139572               -1.34368531               -2.32184847               11.36827284                9.55395512
              14.39041271                1.03242317               37.45932579                0.47824434                0.90921376                0.03566533               -1.98786832               -0.13475731                0.88991904                3.16704305
              15.39728065                0.60875519               37.18519625                0.85249595                0.68679348                1.53740159               -2.80398450               -0.09722974                0.06885806               -1.88642441
               5.68717902                5.99911893               38.51065705                0.96504117               -0.25898345               -0.47645562                1.29399656               -0.04917597                0.04880151                2.14494741
               6.68458918                5.60542059               38.22618552                0.44378314               -0.17317230               -0.03207234                0.42260323                0.01045975                0.26073870               -1.90991953
               7.68371557                5.21127206               37.94603345                0.01836264                0.58448054                0.43851291               -0.41533003               -2.45963085               14.15095494               -6.08741076
               8.69627879                4.76563789               37.93930610                0.00010000                1.44617835               -0.27166126               -0.53961127               -5.11071545               27.89691318               -3.03329677
               9.71263914                4.31084563               37.93101869                0.00010000                1.76528779               -0.65275068               -0.71363452               -5.69106891               27.98029047               -0.36409865
              10.73158455                3.84859753               37.92242997                0.00010000                1.98641777               -0.94403112               -0.89412809               -5.99352943               28.09400136                1.81769302
              11.75236749                3.38227123               37.91250716                0.00010000                2.18445597               -1.13823765               -1.04829505               -5.97063223               28.13960892                3.94879495
              12.77527367                2.91421723               37.90074372                0.04257327                2.29981179               -1.34385855               -1.14165423               -5.68135865               27.79844476                6.24719746
              13.79836373                2.44520566               37.87983662                0.21531351                1.57920256               -1.27759853               -0.87934690               -2.82400516               14.32545575                7.25079326
              14.80685772                2.03254528               37.59396032                0.48855737                0.71209133                0.02951777               -1.57938184               -0.09605093                0.57645026                2.43350155
              15.81260555                1.62342159               37.29677547                0.85870305                0.57478361                1.34182817               -2.46931003               -0.02675763                0.02654948               -2.04707094
               6.07815649                6.99475470               38.42808233                0.95059438               -0.17654457               -0.39549193                1.06364419               -0.04843794                0.04782057                2.16449059
               7.07639104                6.60550294               38.12346067                0.42592170               -0.07127346                0.04721663                0.10848440                0.01779736                0.26949119               -1.84962512
               8.07673102                6.21593496               37.82331108                0.01096327                0.84103398                0.49918678               -0.81053934               -2.96425203               17.72436281               -5.81720066
               9.09321172                5.76463273               37.86764372                0.00010000                1.76825986                0.01893572               -0.85849750               -6.05544055               34.99408640               -3.10140655
              10.11209621                5.30520153               37.90904057                0.00010000                2.01282252               -0.47213310               -0.92289690               -6.54139656               34.95550897               -0.55954871
              11.13346817                4.83913093               37.94830255                0.00010000                2.25323403               -0.93465812               -0.98527481               -6.83571913               34.98114121                1.79743188
              12.15716090                4.36958421               37.98554862                0.00010000                2.44421736               -1.31927752               -1.02367950               -6.84665875               34.99618117                4.05237572
              13.18235252                3.89928201               38.02027069                0.04913978                2.35636628               -1.52472369               -1.01027287               -6.52583147               33.91833950                6.18305418
              14.20428822                3.43385381               38.03124855                0.22469234                1.39616226               -1.03413568               -0.42396830               -3.26204044               17.01922735                6.39786091
              15.21027576                3.03301353               37.72318270                0.50071134                0.53523244                0.04568534               -1.19320868               -0.09942574                0.56567483                1.99899579
              16.21499287                2.63559175               37.40404207                0.86613979                0.47171066                1.10686643               -2.16052570               -0.02750128                0.02847430               -2.34952392
               6.46471377                7.99120909               38.34580305                0.93724230               -0.09488995               -0.31392631                0.83528691               -0.04797259                0.04817916                2.17555286
               7.46376487                7.60636492               38.02119694                0.40977516                0.02934875                0.12518482               -0.20350119                0.02039639                0.30538711               -1.80751626
               8.46530074                7.22125580               37.70173281                0.00423354                1.10692739                0.56663639               -1.19845546               -3.37994145               21.26398319               -5.70553840
               9.48590341                6.76601661               37.79607770                0.00010000                2.10061315                0.24772538               -1.15746641               -6.88815860               41.99423767               -3.06155157
              10.50731300                6.30140297               37.88658087                0.00010000                2.22920327               -0.29338866               -1.12206062               -7.40412729               41.90835506               -0.59790792
              11.53048748                5.82990437               37.97412751                0.00010000                2.39851159               -0.88048265               -1.08569738               -7.71314086               41.90578997                1.73783146
              12.55528324                5.35588568               38.05917197                0.00010000                2.49999808               -1.36143652               -1.03393212               -7.72087509               41.88108635                4.04692581
              13.58048744                4.88372276               38.14076621                0.05597772                2.20540842               -1.55462396               -0.94371153               -7.10323626               39.75294378                6.34690338
              14.59939140                4.42452295               38.17819756                0.23450739                1.13219100               -0.86039668                0.02848423               -3.44276867               19.44237753                6.02503855
              15.60313126                4.03345899               37.84884739                0.51332325                0.37538421                0.02983594               -0.81922314               -0.09439401                0.58121534                1.73435666
              16.60689909                3.64555892               37.50821269                0.87376024                0.37678268                0.89723540               -1.86712791               -0.02933037                0.03452807               -2.54064536
               6.84688537                8.98847617               38.26362278                0.92480479               -0.01331150               -0.23255687                0.60664775               -0.04772482                0.04838108                2.16517321
               7.84675226                8.60800664               37.91918284                0.39501530                0.12975634                0.20379281               -0.51524698                0.02046339                0.35266488               -1.78198634
               8.84948050                8.22726769               37.58078879                0.00216442                1.42745623                0.63503783               -1.58307721               -3.72055577               24.80685898               -5.61485441
               9.87530138                7.76958724               37.72513594                0.00010000                2.53227052                0.42075154               -1.44267066               -7.48515814               48.95926609               -2.93123863
              10.90012591                7.29933375               37.86427360                0.00010000                2.47106276               -0.18474578               -1.31067356               -7.98721094               48.81072100               -0.58321731
              11.92472264                6.82152128               37.99967951                0.00010000                2.43995466               -0.77512235               -1.18913001               -8.21893464               48.83568177                1.60066918
              12.94892500                6.34235548               38.13314243                0.00010000                2.34639445               -1.25206642               -1.07074556               -8.26539620               48.92147893                3.91506371
              13.97165053                5.86818953               38.26428149                0.06316134                1.83858073               -1.48955509               -0.93763993               -7.36315326               45.43239582                6.57825125
              14.98569662                5.41664587               38.32270082                0.24470962                0.78506912               -0.73314826                0.48098615               -3.45932332               21.57968418                5.80187730
              15.98735191                5.03361025               37.97241554                0.52628289                0.22548877               -0.00898076               -0.45035129               -0.08960547                0.60010718                1.60199121
              16.99020639                4.65353646               37.61057912                0.88145231                0.28544842                0.70638021               -1.58146482               -0.03244562                0.04084896               -2.61510462
               7.22469833                9.98655795               38.18127039                0.91325495                0.06842848               -0.15122311                0.37607426               -0.04770354                0.05824789                2.15102394
               8.22538262                9.61044078               37.81725278                0.38150563                0.23053464                0.28473262               -0.82792995                0.01542149                0.42745515               -1.79687217
               9.22930903                9.23395656               37.46054298                0.00192652                1.93757838                0.69682724               -1.96482661               -4.03846529               28.42851201               -5.36473982
              10.26413419                8.77443164               37.65617184                0.00010000                3.31628589                0.30399849               -1.70915579               -7.71588102               55.92963501               -2.51611837
              11.29563474                8.29770805               37.84274131                0.00010000                2.94764365               -0.38808680               -1.47878696               -7.62115195               55.56397454               -0.48697737
              12.32308706                7.81440192               38.02387397                0.00010000                2.38361562               -0.61685907               -1.28141870               -7.61676334               55.66926427                1.28303134
              13.34330706                7.33084435               38.20537257                0.00010000                1.79234620               -0.79460678               -1.11827177               -7.90068611               56.17109756                3.34191769
              14.35893398                6.85393166               38.39019823                0.07078218                1.07385840               -1.12707393               -0.98206763               -7.30661739               51.12269933                6.38684445
              15.36478422                6.40985998               38.46550010                0.25536409                0.27572925               -0.62978298                0.93448624               -3.43010255               23.52994701                5.45103703
              16.36444857                6.03327937               38.09506898                0.53957119                0.08067662               -0.06454198               -0.08166414               -0.09507976                0.65527518                1.61065820
              17.36639776                5.65968653               37.71238967                0.88917678                0.19491885                0.53035813               -1.29703767               -0.03650321                0.06165539               -2.60080964
               7.59816565               10.98545171               38.09891295                0.90181971                0.14964300               -0.07060618                0.14485113               -0.04750243               -0.00909925                1.86185178
               8.59966208               10.61370129               37.71471691                0.36861318                0.32773389                0.36830531               -1.14486608               -0.00054447                0.67484672               -1.61397207
               9.60472033               10.24120423               37.34408762                0.00126215                2.87850928                0.73085360               -2.32998361               -4.55597164               32.38909255               -3.99780280
              10.65723227                9.77566721               37.59372390                0.00010000                5.15061297               -1.02946611               -1.93474683               -6.12013896               62.84523804               -1.47148355
              11.70773259                9.29157202               37.82341905                0.00010000                4.10093994               -0.83927755               -1.60758685               -5.22875214               61.90068320               -0.29073485
              12.73925107                8.80918410               38.04454043                0.00010000                2.18244778               -0.43909488               -1.34071180               -4.84617212               62.05962586                0.72241876
              13.75138155                8.32646334               38.26927418                0.00010000                0.36257410                0.00732431               -1.14148615               -5.48981189               63.41305775                1.99670847
              14.74650255                7.84564806               38.51086177                0.07908402               -0.68173475                0.27100917               -1.04723667               -5.63778116               57.02570594                4.41330587
              15.73774685                7.40405021               38.60313047                0.26655115               -0.54393894               -0.49453781                1.37122086               -3.48653033               25.76288686                3.86777369
              16.73562377                7.03231941               38.21847488                0.55321174               -0.05424148               -0.13224827                0.29322468               -0.11933826                0.95864969                1.48299253
              17.73666202                6.66414362               37.81432618                0.89671754                0.10382505                0.37198398               -1.01047557               -0.04469442                0.00303784               -2.16570618
               7.96724912               11.98514583               38.01086002                0.94755394                0.23700861               -0.03058820               -0.10842903                0.17445215                0.87374140                1.57413035
               8.96961921               11.61780688               37.61617221                0.68087708                0.44872783                0.41055900               -1.44483413                0.16710235                2.34052433               -1.39852859
               9.97622368               11.24857363               37.25066799                0.49096785                6.08722081                0.73693957               -2.59911894               -6.04789367               36.90804723               -2.82606278
              11.09136362               10.75384232               37.54661362                0.44562505                9.06595673               -2.18248918               -2.07988268               -4.96942110               69.03812777               -0.90072272
              12.15754281               10.28092250               37.80785798                0.43525764                4.99543330               -1.06495182               -1.67634840               -2.43009259               67.36813144               -0.23854729
              13.19127229                9.80562002               38.05941757                0.44734907                1.97520247               -0.35640758               -1.34522381               -2.29446088               67.54619363                0.32797271
              14.19704686                9.33099084               38.31596526                0.48103120               -1.13403988                0.45274944               -1.09608411               -2.74687768               69.39932282                1.05889493
              15.16859149                8.85935184               38.59823108                0.54241535               -4.43322976                1.37037828               -0.99876408               -4.34218655               62.61047378                2.75205015
              16.10838227                8.39996923               38.71421072                0.63723546               -3.33115468               -0.40809879                1.69552233               -4.37233016               29.49605718                2.56569129
              17.10196840                8.03063441               38.33827523                0.78134005               -0.32634103               -0.16850020                0.65532372               -0.00768842                2.97563424                1.31671059
              18.10185544                7.66712621               37.92423766                0.95083647               -0.01129520                0.29825852               -0.68940909                0.16852226                1.08821726               -1.74034582
               4.28665480                2.13026677               39.86620617                1.00000000               -0.64700152               -0.70528241                2.37176760               -0.12318162               -1.69229653                1.82229933
               5.28018479                1.70105193               39.64128705                0.92061522               -0.61957931               -0.47452746                1.78696673               -0.08550286               -2.02356379               -0.58635916
               6.27426322                1.27000316               39.40993453                0.63607413               -0.82846300               -0.25678192                1.12599832               -0.45665013               -1.73982276               -1.17396449
               7.26361553                0.82718922               39.19102990                0.50799489               -1.22293051               -0.13584956                0.51694099               -0.64356716                0.24201680               -0.18698374
               8.24980461                0.36042885               39.00023422                0.45507410               -1.18175790                0.05947992               -0.12359158               -0.57679503                2.76811908               -0.16492514
               9.23998037               -0.13248594               38.83282103                0.45698003               -0.39418357                0.24685680               -0.80751824               -0.32494072                3.93790919                0.02572311
              10.24192093               -0.63716508               38.66596420                0.50880949                0.62509641                0.42779589               -1.47486417               -0.33811912                2.81576540                0.19518748
              11.25248230               -1.13487983               38.47593873                0.61852679                1.14091299                0.59977994               -2.08901888               -0.41071318                0.47828120                0.30198264
              12.26473919               -1.61905797               38.26155501                0.80703859                1.17297308                0.74937757               -2.68884391               -0.32200124               -1.57491318                0.54034797
              13.27594176               -2.09351734               38.02955307                1.00000000                1.12418617                0.91623836               -3.32642924               -0.15155304               -1.99891043                1.06209451
              14.28722292               -2.56458714               37.80599948                1.00000000                1.12811587                1.16638318               -3.94851665               -0.15897070               -1.55565700               -1.50471094
               4.71463783                3.12321395               39.77632000                1.00000000               -0.51762634               -0.69109446                2.09557271               -0.04297780                0.25227407                2.18181810
               5.70946156                2.69630666               39.54909824                0.66883994               -0.40048783               -0.40551136                1.47436720               -0.03348066                0.84070676               -1.18823597
               6.70662807                2.26743534               39.33376574                0.16211698                0.12527234               -0.11902930                0.97115659               -0.63922930                2.89093670               -3.27879519
               7.71196701                1.82583072               39.14738422                0.00673172                0.86230834               -0.25629054                0.43654827               -1.71330666                5.37551710               -2.47136095
               8.72387424                1.36102365               38.98067214                0.01026608                1.17804595               -0.77086854               -0.12908205               -2.78449192                7.75415709                0.11121612
               9.73552793                0.86998263               38.84027579                0.01329472                0.79312246               -0.35072237               -0.75122090               -3.40075484                9.21959687                0.85289811
              10.73973669                0.36711288               38.70112109                0.01237668                0.18968395                0.22591483               -1.35969990               -3.04300225                8.17438272                1.43247509
              11.73932161               -0.12888203               38.53841980                0.13886982                0.05506254                0.32602979               -1.90646930               -1.82371466                5.86578841                3.16834953
              12.74083794               -0.61156419               38.35239654                0.41634725                0.39346047                0.49996828               -2.44494826               -0.73911390                3.95239088                3.47235215
              13.74719082               -1.08435495               38.15120341                0.87297355                0.79325401                0.81360707               -2.98371004               -0.18325846                2.07419368                1.96676273
              14.75670302               -1.55292331               37.92741917                1.00000000                0.95121997                1.17096449               -3.56026600               -0.11000507                0.96382941               -1.87935299
               5.13960983                4.11644488               39.69386750                0.99384681               -0.43160497               -0.64887714                1.81431046               -0.06425817                0.24012376                2.41799176
               6.13529378                3.69294170               39.44492705                0.48586053               -0.38276332               -0.25257606                1.10619767               -0.07072058                1.20730477               -1.97435639
               7.13195456                3.26762258               39.21548791                0.04282354                0.02336531                0.19897123                0.52403542               -1.14350283                5.77177426               -6.59622555
               8.13576108                2.82206341               39.05802450                0.00010000                0.90041523               -0.74528254                0.29813833               -3.49710273               12.74394683               -2.88192605
               9.14996287                2.34501148               38.96655849                0.00010000                1.50574811               -1.28442083               -0.33514621               -5.27651050               15.61198512               -0.05056727
              10.16587605                1.86049961               38.86415097                0.00010000                1.49813386               -0.97058331               -0.81779522               -5.78934492               15.14017330                1.66001417
              11.17992554                1.36735321               38.76079128                0.00010000                1.44045128               -0.37029035               -1.26975679               -5.60569062               15.23205924                3.15501520
              12.19468507                0.87164077               38.65788059                0.02904829                1.27521492               -0.16583960               -1.72030396               -4.04558385               12.70169444                5.45349758
              13.20542984                0.39094140               38.50147750                0.20331091                0.94753195               -0.71158219               -1.97281084               -1.63507428                7.44038446                8.98759800
              14.21363571               -0.07724520               38.29055777                0.49442098                0.83648454                0.37521503               -2.52205201               -0.50611813                2.81733994                3.32046312
              15.22215953               -0.54116786               38.04093125                0.87056177                0.85238215                1.44333005               -3.24086192               -0.41792666                0.90332069               -2.12127839
               5.56035902                5.11023640               39.60902682                0.96898041               -0.34895625               -0.57719343                1.56770991               -0.05346631                0.06988340                2.25464542
               6.55686946                4.69125513               39.33702425                0.45121641               -0.28613565               -0.11919932                0.74970564               -0.01204819                0.43721027               -2.09406563
               7.55463631                4.27141477               39.07250562                0.02494774                0.38832956                0.40824091               -0.01474765               -1.96302503               10.77578880               -7.18674047
               8.56463605                3.81092507               39.00736689                0.00010000                1.26357591               -0.77279730               -0.22534441               -4.23661317               20.98133861               -2.09595422
               9.57990783                3.33533523               38.94474178                0.00010000                1.63816241               -0.86285924               -0.54897199               -5.25424784               21.55641775               -0.43785671
              10.59739930                2.85057096               38.88836584                0.00010000                1.82869450               -0.98155948               -0.89238020               -5.76834177               21.94326595                1.67765945
              11.61648172                2.35970707               38.83029584                0.00010000                1.87112248               -0.89976214               -1.19437442               -5.68595260               21.70521157                3.72114301
              12.63482175                1.86780118               38.76586832                0.03283104                2.02703497               -0.80495523               -1.42953133               -5.31036302               21.62043254                5.62927442
              13.65702241                1.37420416               38.70282461                0.19937740                1.71779806               -1.58417834               -1.45002299               -2.53247734               11.85640416                9.81094484
              14.66917771                0.92314935               38.43906416                0.46290815                0.95836923                0.02749186               -2.06795350               -0.16425215                0.98102330                3.26934039
              15.67618980                0.47594329               38.15675510                0.84132835                0.70120916                1.63314507               -2.88493680               -0.10246958                0.06898979               -1.94729950
               5.97650304                6.10490101               39.52374502                0.95296527               -0.26285889               -0.49035877                1.32462133               -0.05027442                0.05101516                2.23497831
               6.97387445                5.69055772               39.23039810                0.43048925               -0.17394592               -0.02857361                0.42020145                0.01355726                0.28001295               -1.99222775
               7.97302412                5.27578739               38.94170803                0.01539577                0.66169507                0.46340008               -0.44914995               -2.59605221               14.54438709               -6.34803513
               8.98710835                4.80660746               38.93360251                0.00010000                1.61039508               -0.26210756               -0.60207979               -5.38015371               28.62347826               -3.29421656
              10.00523202                4.32775430               38.92351526                0.00010000                1.95145115               -0.66878301               -0.78998404               -5.97733549               28.68078785               -0.56736524
              11.02613738                3.84086842               38.91308549                0.00010000                2.18721238               -0.97462167               -0.97906682               -6.29944884               28.80559060                1.68702314
              12.04897627                3.34935797               38.90161577                0.00010000                2.39216704               -1.17144870               -1.13552662               -6.29429447               28.89816705                3.88475030
              13.07398072                2.85554166               38.88895237                0.03902482                2.52279283               -1.37690575               -1.22372556               -6.07249250               28.75925206                6.24403621
              14.09943213                2.35925783               38.87052331                0.20762064                1.73154142               -1.33679053               -0.99283809               -3.07104046               14.99190054                7.47338879
              15.10861154                1.92330464               38.57778783                0.47298404                0.75450644                0.03921776               -1.65924320               -0.12791892                0.67994474                2.50448391
              16.11452226                1.49149505               38.27167541                0.84741455                0.59107117                1.42043947               -2.55305691               -0.02672783                0.02870834               -2.13267461
               6.38804012                7.10042923               39.43884876                0.93884790               -0.17859025               -0.40536770                1.08954812               -0.04959710                0.04904727                2.25780155
               7.38625422                6.69068366               39.12448400                0.41307671               -0.06873042                0.05265575                0.09644883                0.02166355                0.29001466               -1.92831571
               8.38666552                6.28068277               38.81497672                0.00820237                0.94059246                0.52211028               -0.85631915               -3.11617322               18.20164293               -6.06129344
               9.40506607                5.80568292               38.85870093                0.00010000                1.97173208                0.02530215               -0.93125022               -6.36035797               35.90088764               -3.32608678
              10.42610016                5.32195957               38.89939290                0.00010000                2.23702866               -0.48978769               -1.00949074               -6.86286376               35.85796939               -0.74299564
              11.44980664                4.83107853               38.93801005                0.00010000                2.49112125               -0.97138366               -1.07725709               -7.16788783               35.89876622                1.66146951
              12.47592258                4.33627810               38.97489582                0.00010000                2.68326960               -1.36326873               -1.11184183               -7.19037926               35.95484593                3.95891762
              13.50347204                3.84026306               39.00983451                0.04541315                2.59580223               -1.55778379               -1.08337671               -6.95422958               35.17867024                6.11931229
              14.52783863                3.34746835               39.02651999                0.21677970                1.54550390               -1.06838198               -0.53161829               -3.53817330               17.89335597                6.62402062
              15.53438211                2.92393370               38.71089320                0.48477294                0.57179012                0.06384551               -1.26909735               -0.12701618                0.67493100                2.05798739
              16.53927443                2.50435208               38.38202822                0.85464590                0.48923157                1.16853485               -2.24578973               -0.02716399                0.03204403               -2.45514804
               6.79500223                8.09679366               39.35425861                0.92581173               -0.09480480               -0.32196242                0.85641528               -0.04906831                0.04969311                2.26883455
               7.79405418                7.69161083               39.01905633                0.39742447                0.03495836                0.13283257               -0.22454877                0.02463245                0.33003764               -1.88514419
               8.79570140                7.28622960               38.68945929                0.00235909                1.22851023                0.59012293               -1.25642923               -3.54865426               21.83361433               -5.94422708
               9.81862439                6.80711351               38.78410166                0.00010000                2.34388736                0.25033017               -1.23928691               -7.22806167               43.08337938               -3.26708442
              10.84257914                6.31795854               38.87490104                0.00010000                2.49183553               -0.31883804               -1.21660147               -7.75880855               42.99895310               -0.76623576
              11.86846110                5.82144075               38.96280358                0.00010000                2.67025013               -0.92791851               -1.18245052               -8.06917968               43.00819736                1.60198429
              12.89598415                5.32209260               39.04841681                0.00010000                2.76223843               -1.41541651               -1.12086078               -8.07484460               43.01440774                3.92981022
              13.92370587                4.82438599               39.13104048                0.05206765                2.45069385               -1.58843904               -1.00495392               -7.54298548               41.33258946                6.22733345
              14.94499802                4.33789019               39.17804004                0.22630631                1.27408159               -0.87960784               -0.06940151               -3.72856194               20.55464118                6.25636727
              15.94918750                3.92458155               38.84032562                0.49701282                0.40720998                0.05004198               -0.88957821               -0.11610074                0.69321592                1.78907510
              16.95314222                3.51486574               38.48913210                0.86204259                0.39547259                0.94683954               -1.95335229               -0.02857904                0.03949403               -2.65688275
               7.19742441                9.09398998               39.26977124                0.91372529               -0.01134821               -0.23891411                0.62362877               -0.04879433                0.04982170                2.25694279
               8.19731093                8.69334031               38.91388192                0.38312884                0.13826718                0.21379791               -0.54502633                0.02445686                0.38280717               -1.86008210
               9.20018976                8.29248523               38.56461291                0.00213138                1.57324815                0.66026208               -1.65259187               -3.90936992               25.47522920               -5.84978795
              10.22877589                7.81068953               38.71026403                0.00010000                2.82034945                0.41611048               -1.53343193               -7.85776457               50.23404887               -3.11946121
              11.25659675                7.31558281               38.85067144                0.00010000                2.77565512               -0.22641891               -1.41214514               -8.36352422               50.08093708               -0.73287087
              12.28428900                6.81252016               38.98729536                0.00010000                2.74418525               -0.83826094               -1.29006724               -8.57717087               50.10415774                1.47353794
              13.31148045                6.30796977               39.12200927                0.00010000                2.62628678               -1.31582461               -1.15726073               -8.60394392               50.20095439                3.78436632
              14.33681473                5.80849428               39.25464036                0.05909769                2.07956872               -1.53041026               -0.99058628               -7.78193657               47.34688969                6.40696775
              15.35307183                5.32987620               39.32713034                0.23625507                0.91349080               -0.74259173                0.39563594               -3.74153303               22.96156913                6.03820476
              16.35508455                4.92493454               38.96761283                0.50958113                0.25313190                0.01035307               -0.51464571               -0.10599587                0.71291042                1.65777311
              17.35813446                4.52328887               38.59435414                0.86950122                0.30499154                0.74715233               -1.66822912               -0.03144691                0.04690291               -2.73416078
               7.59532568               10.09201538               39.18509319                0.90244222                0.07223964               -0.15624282                0.38914601               -0.04874436                0.06023534                2.24098993
               8.59604807                9.69588679               38.80878420                0.37007039                0.24195556                0.29722432               -0.86621195                0.01839711                0.46525068               -1.87755567
               9.60016479                9.29943484               38.44049905                0.00189450                2.11617180                0.72260063               -2.04528168               -4.25454743               29.20501718               -5.58958724
              10.63837151                8.81543572               38.63859179                0.00010000                3.66566215                0.27483996               -1.80848614               -8.11582615               57.39744258               -2.67410628
              11.67347803                8.31343016               38.82742404                0.00010000                3.30796098               -0.46555117               -1.58668683               -7.97889968               57.00796875               -0.60498909
              12.70453073                7.80467553               39.01053751                0.00010000                2.72265553               -0.70056214               -1.38701393               -7.92809431               57.08494684                1.18047218
              13.72793114                7.29577610               39.19373309                0.00010000                2.08149873               -0.86350537               -1.20865271               -8.17752980               57.56285342                3.22037867
              14.74616070                6.79377778               39.38007805                0.06657207                1.28979826               -1.17312309               -1.03554471               -7.66198109               53.38097379                6.17922334
              15.75372711                6.32303836               39.47452809                0.24665881                0.37471036               -0.63018271                0.86208841               -3.69896084               25.21132474                5.68230921
              16.75365491                5.92478861               39.09398304                0.52245931                0.10387623               -0.04707114               -0.13987892               -0.10862578                0.76922118                1.67259181
              17.75580463                5.52980879               38.69900867                0.87696109                0.21497209                0.56454248               -1.38411586               -0.03553939                0.06931681               -2.71714167
               7.98870670               11.09086512               39.10040570                0.89131948                0.15527094               -0.07435886                0.15431347               -0.04853874               -0.01106115                1.93979138
               8.99025941               10.69928480               38.70303738                0.35769419                0.34215912                0.38321154               -1.19175011               -0.00068408                0.72826179               -1.68792470
               9.99554988               10.30693724               38.32034231                0.00124272                3.11023188                0.75313811               -2.42035406               -4.81589821               33.29616543               -4.16522811
              11.05246405                9.81618632               38.57385205                0.00010000                5.61145284               -1.15100790               -2.04128001               -6.45438455               64.51499221               -1.56825496
              12.10777894                9.30627179               38.80678231                0.00010000                4.54585612               -0.95820810               -1.72151085               -5.47731185               63.50822329               -0.35750611
              13.14338117                8.79850891               39.03057966                0.00010000                2.55243308               -0.53950397               -1.45169032               -5.03088501               63.60785591                0.66454359
              14.15882760                8.29069966               39.25735609                0.00010000                0.64658439               -0.06692964               -1.23882021               -5.64746778               64.88018305                1.91991886
              15.15631286                7.78503182               39.49997526                0.07472023               -0.53729114                0.24583968               -1.11887300               -5.86029983               59.60751166                4.25083117
              16.14808178                7.31727254               39.61658107                0.25757200               -0.50856289               -0.47821664                1.31080967               -3.72394515               27.76202794                4.03525669
              17.14614160                6.92399312               39.22116614                0.53563871               -0.03492296               -0.11638035                0.24084786               -0.13385563                1.08404341                1.54390353
              18.14738332                6.53457972               38.80380858                0.88422432                0.12417195                0.40171836               -1.09816442               -0.04421045                0.00872263               -2.26083778
               8.37751555               12.09052820               39.00979653                0.94241910                0.24467266               -0.03369240               -0.10373715                0.18316691                0.90710664                1.64035906
               9.37996228               11.70355102               38.60145567                0.67558716                0.47148752                0.42662205               -1.49917303                0.16875669                2.46934371               -1.46338266
              10.38694530               11.31449760               38.22420553                0.49001739                6.49934959                0.75603632               -2.69395988               -6.41723155               37.97918652               -2.94563460
              11.50994927               10.79241556               38.52526450                0.44571221                9.73319532               -2.37707672               -2.19181758               -5.26305807               70.87901182               -0.95232653
              12.58160921               10.29426600               38.79050495                0.43538338                5.47679465               -1.20057879               -1.79605247               -2.54347887               69.11362979               -0.27346454
              13.61948516                9.79388545               39.04538003                0.44711475                2.34248357               -0.46234641               -1.46260198               -2.38102550               69.21973822                0.29672165
              14.62845888                9.29443751               39.30445806                0.48011171               -0.85516695                0.37378537               -1.20076572               -2.79641612               70.96118133                1.01370295
              15.60238182                8.79869458               39.58773760                0.54017793               -4.40859850                1.36627538               -1.08881240               -4.44127803               65.40522748                2.63367003
              16.54028691                8.31347402               39.73090761                0.63267924               -3.43555990               -0.37985187                1.63602993               -4.59116570               31.75282536                2.68125805
              17.53367062                7.92246100               39.34460434                0.77242684               -0.32698422               -0.15321131                0.60646986               -0.02864104                3.18865711                1.37332014
              18.53374722                7.53784316               38.91693289                0.94449265                0.00765993                0.32634396               -0.77667678                0.17460555                1.14045976               -1.81497524
               4.49740839                2.24002955               40.89009067                1.00000000               -0.65664647               -0.71813952                2.40665826               -0.12699190               -1.72516388                1.87901499
               5.49084192                1.78859048               40.65924830                0.91044351               -0.63287356               -0.47791301                1.80632522               -0.09161930               -2.09580313               -0.65806335
               6.48475092                1.33520467               40.42119226                0.63191692               -0.85884303               -0.25641716                1.12608632               -0.47960025               -1.82448547               -1.17310261
               7.47366506                0.86931717               40.19611832                0.50678008               -1.26678188               -0.13432058                0.50048246               -0.66447045                0.17204477               -0.19732895
               8.45941528                0.37833557               39.99882461                0.45490722               -1.21443065                0.06322412               -0.15970169               -0.59250933                2.66812526               -0.17165814
               9.44937645               -0.13997724               39.82447462                0.45665706               -0.39893622                0.25297179               -0.86419257               -0.33449971                3.83429245                0.02315624
              10.45143656               -0.67093891               39.65087315                0.50746604                0.65149128                0.43963038               -1.54747698               -0.34330439                2.75469017                0.19696436
              11.46240628               -1.19523120               39.45468461                0.61501117                1.18472737                0.61772653               -2.16680940               -0.41820462                0.45828625                0.30700447
              12.47513110               -1.70575044               39.23432144                0.79939303                1.21365400                0.76970743               -2.75986186               -0.33089173               -1.60053010                0.53293798
              13.48667936               -2.20618179               38.99596952                1.00000000                1.15111997                0.93496354               -3.38629189               -0.15870230               -2.03624829                1.07769635
              14.49815350               -2.70307249               38.76618820                1.00000000                1.14741465                1.18537465               -4.00623367               -0.15935596               -1.59023441               -1.51715337
               4.94757754                3.23284815               40.79744618                1.00000000               -0.52393679               -0.70570061                2.13030184               -0.04497827                0.27063307                2.23629426
               5.94233817                2.78381135               40.56391819                0.65156523               -0.39929855               -0.40738302                1.48950996               -0.04256869                0.92040200               -1.28755125
               6.93959157                2.33264050               40.34351196                0.15627441                0.15583698               -0.10722065                0.97779867               -0.69111721                3.01540087               -3.42935451
               7.94545491                1.86797397               40.15170268                0.00687081                0.92729131               -0.28628753                0.42593123               -1.80175694                5.46326112               -2.51264261
               8.95813739                1.37896781               39.97924872                0.01030579                1.26068896               -0.79135880               -0.15796019               -2.91004641                7.79081128               -0.00230874
               9.97066869                0.86255248               39.83252399                0.01328930                0.87465484               -0.36219495               -0.80249802               -3.55632007                9.23180085                0.78382348
              10.97563049                0.33345740               39.68720115                0.01257790                0.24806546                0.23381668               -1.42970679               -3.20308572                8.23493838                1.41809906
              11.97563000               -0.18905393               39.51899833                0.13370840                0.08334957                0.34110344               -1.98450651               -1.94795634                5.97779991                3.17047339
              12.97729748               -0.69805337               39.32759053                0.40475074                0.40616782                0.50539522               -2.51974063               -0.78570639                4.07886933                3.57919840
              13.98375336               -1.19683215               39.12101479                0.85037224                0.80765794                0.82811418               -3.05256798               -0.20247016                2.18222698                2.04001329
              14.99345064               -1.69121874               38.89146352                1.00000000                0.96972857                1.19922775               -3.62643413               -0.11965240                1.05092349               -1.93002438
               5.39458243                4.22591553               40.71220424                0.98115039               -0.43842250               -0.66744735                1.85097649               -0.06884094                0.25915144                2.48788633
               6.39019821                3.78044282               40.45606535                0.47178862               -0.39082384               -0.25096595                1.11971280               -0.07965271                1.29145627               -2.09595010
               7.38676595                3.33306025               40.22070493                0.03942299                0.05522045                0.22846360                0.51905457               -1.25644428                6.10114221               -6.94367196
               8.39130261                2.86359142               40.06094530                0.00010000                0.99349441               -0.77025514                0.28316974               -3.68082875               13.04492908               -3.15981647
               9.40663584                2.36250839               39.96297086                0.00010000                1.62289219               -1.32125865               -0.38509284               -5.49716619               15.77258187               -0.26498128
              10.42376046                1.85277886               39.85564770                0.00010000                1.61727048               -0.99611271               -0.88655930               -6.06820117               15.39015290                1.52397543
              11.43898125                1.33373743               39.74769975                0.00010000                1.55987290               -0.37550302               -1.35340480               -5.90117443               15.49597898                3.11421974
              12.45495792                0.81159087               39.64020233                0.02562689                1.41069729               -0.16365855               -1.82107334               -4.31079842               13.06999628                5.51609979
              13.46719520                0.30435746               39.48135647                0.19547294                1.04187041               -0.76838851               -2.05614222               -1.77396196                7.78003427                9.22692431
              14.47579532               -0.18961951               39.26495354                0.47744831                0.86692152                0.37060369               -2.60180457               -0.55480292                2.92205135                3.44770554
              15.48453363               -0.67908793               39.00814739                0.85782928                0.87383033                1.51418884               -3.31550377               -0.45544703                0.92459750               -2.18953210
               5.83714615                5.21949920               40.62489820                0.95646608               -0.35457570               -0.59594870                1.60402016               -0.05518133                0.06805329                2.34268088
               6.83360040                4.77879203               40.34456664                0.43752061               -0.29160381               -0.11632695                0.75721764               -0.01306074                0.46378559               -2.19775086
               7.83131408                4.33720977               40.07225602                0.02176709                0.43949023                0.43900000               -0.03509007               -2.07951095               11.10589763               -7.52703089
               8.84239020                3.85256886               40.00486557                0.00010000                1.38462778               -0.75859513               -0.27608331               -4.45143124               21.52736331               -2.48275306
               9.85900663                3.35254263               39.93893287                0.00010000                1.78427138               -0.88305930               -0.61568002               -5.49012834               22.03267271               -0.66294380
              10.87807563                2.84263022               39.87904673                0.00010000                1.98941798               -1.00425424               -0.97537367               -6.03799507               22.42626154                1.53844489
              11.89879499                2.32594734               39.81790852                0.00010000                2.03591844               -0.91855843               -1.28823911               -5.97373117               22.24114080                3.67133795
              12.91879400                1.80767290               39.75112141                0.02938756                2.21168141               -0.82295514               -1.52593018               -5.63876150               22.29414670                5.70198720
              13.94302862                1.28657886               39.68775122                0.19182855                1.86543464               -1.66897020               -1.57354398               -2.74609494               12.34388105               10.05285447
              14.95610269                0.81057992               39.41796672                0.44754205                1.01249663                0.02127105               -2.15596736               -0.20023146                1.08369677                3.37359535
              15.96327855                0.33906504               39.12749751                0.83021621                0.71758629                1.72914569               -2.96971316               -0.10794153                0.06785744               -2.01045993
               6.27489315                6.21399656               40.53714948                0.94085152               -0.26667278               -0.50510346                1.35581552               -0.05198835                0.05234621                2.32778732
               7.27222643                5.77811628               40.23458955                0.41722495               -0.17471280               -0.02568170                0.41820795                0.01533335                0.29977251               -2.08021881
               8.27139890                5.34184025               39.93705045                0.01236252                0.73573486                0.48740307               -0.48223296               -2.72319443               14.94088648               -6.62165711
               9.28694112                4.84841952               39.92726450                0.00010000                1.76865088               -0.24785085               -0.66658020               -5.62849784               29.35659487               -3.57082798
              10.30677192                4.34484720               39.91521901                0.00010000                2.13273646               -0.67934001               -0.87209975               -6.23929498               29.39301837               -0.78800779
              11.32959585                3.83269378               39.90284863                0.00010000                2.38460194               -0.99939969               -1.07254357               -6.58079962               29.52988895                1.54350348
              12.35446396                3.31536626               39.88979663                0.00010000                2.59776549               -1.19929091               -1.23385570               -6.59618190               29.67082840                3.81554996
              13.38155116                2.79513177               39.87626920                0.03542332                2.74511602               -1.40463766               -1.32052165               -6.44402262               29.71304316                6.24704910
              14.40936628                2.27097806               39.85997986                0.19989476                1.88766785               -1.38806828               -1.12492298               -3.31289132               15.66163037                7.70417900
              15.41930452                1.81080591               39.56077545                0.45739448                0.80191446                0.05277832               -1.74750346               -0.16598055                0.80276788                2.58270926
              16.42540457                1.35549498               39.24571434                0.83618120                0.61000449                1.49835305               -2.64330025               -0.02683565                0.03098320               -2.22232421
               6.70786695                7.20939713               40.44987329                0.92702945               -0.18035812               -0.41666300                1.11590815               -0.05092259                0.05031028                2.35507718
               7.70606337                6.77827839               40.12538964                0.40020985               -0.06600017                0.05739171                0.08485181                0.02496032                0.31251426               -2.01220980
               8.70654695                6.34695783               39.80618470                0.00536784                1.03749633                0.54474065               -0.90203344               -3.25688721               18.68587900               -6.31814801
               9.72681330                5.84761185               39.84901871                0.00010000                2.16997652                0.03461510               -1.00658278               -6.64069350               36.81979467               -3.56341332
              10.74994648                5.33895583               39.88885076                0.00010000                2.45636427               -0.50237453               -1.10191446               -7.15756958               36.77840596               -0.93889053
              11.77594058                4.82264223               39.92675741                0.00010000                2.72434425               -1.00175147               -1.17758745               -7.47272560               36.83828155                1.51686846
              12.80443336                4.30196152               39.96331178                0.00010000                2.91805831               -1.39989112               -1.21061549               -7.50957763               36.94013663                3.86471045
              13.83430175                3.77958014               39.99860315                0.04162014                2.83316428               -1.58340998               -1.17011864               -7.35895912               36.44029087                6.06924618
              14.86109665                3.25881749               40.02061618                0.20880435                1.69822038               -1.09690552               -0.65933056               -3.80559216               18.77455093                6.86821173
              15.86826615                2.81163549               39.69780075                0.46884141                0.61335296                0.08574706               -1.35358024               -0.15931992                0.80691766                2.12559315
              16.87336371                2.36903210               39.35912627                0.84320764                0.50975524                1.23001830               -2.33941453               -0.02676663                0.03652867               -2.56617630
               7.13611218                8.20566330               40.36293135                0.91434904               -0.09472447               -0.33083421                0.87879571               -0.05024442                0.05104916                2.36673699
               8.13516494                7.77926411               40.01670597                0.38501899                0.04077590                0.13993663               -0.24550255                0.02875616                0.35734228               -1.96795279
               9.13692770                7.35273507               39.67660422                0.00231045                1.34821557                0.61371683               -1.31482273               -3.70481288               22.41491262               -6.19576232
              10.16212925                6.84911182               39.77129197                0.00010000                2.58312209                0.25480202               -1.32437684               -7.54124080               44.19147026               -3.48379621
              11.18859014                6.33479971               39.86224884                0.00010000                2.75032029               -0.34012493               -1.31688360               -8.08431179               44.11469655               -0.94388797
              12.21713566                5.81265875               39.95047850                0.00010000                2.93721730               -0.96920570               -1.28662938               -8.39519460               44.14218803                1.46093538
              13.24733449                5.28736844               40.03675476                0.00010000                3.01901746               -1.46174926               -1.21631803               -8.40147261               44.18875290                3.81506591
              14.27751601                4.76346357               40.12066713                0.04810558                2.69323004               -1.61444094               -1.07548905               -7.95814952               42.92292931                6.12284276
              15.30119909                4.24903995               40.17680953                0.21806983                1.41937572               -0.89477898               -0.18696813               -4.00419141               21.67656079                6.50825828
              16.30590352                3.81252086               39.83105583                0.48075134                0.44384603                0.07364029               -0.96881338               -0.14122189                0.82959648                1.85208389
              17.31007601                3.38009535               39.46914564                0.85039425                0.41724911                0.99722876               -2.04904590               -0.02764447                0.04549834               -2.77905706
               7.55966044                9.20278045               40.27609536                0.90255973               -0.00937120               -0.24600051                0.64196356               -0.04989108                0.05134162                2.35337455
               8.55956672                8.78107713               39.90828231                0.37121509                0.14712714                0.22350460               -0.57516289                0.02842712                0.41671304               -1.94332202
               9.56260298                8.35923217               39.54773695                0.00208580                1.71785549                0.68501726               -1.72303954               -4.08475765               26.16004413               -6.09753270
              10.59392383                7.85270789               39.69446730                0.00010000                3.10551687                0.41248328               -1.62788705               -8.20250170               51.53505291               -3.31756972
              11.62471332                7.33215333               39.83603070                0.00010000                3.07720654               -0.26511573               -1.51890639               -8.70957581               51.38387962               -0.88938220
              12.65546797                6.80325812               39.97387816                0.00010000                3.04428853               -0.89658395               -1.39664721               -8.90427526               51.41363613                1.34358251
              13.68559909                6.27272653               40.10999721                0.00010000                2.89996407               -1.37316654               -1.24842552               -8.91388497               51.53420405                3.65581382
              14.71346725                5.74729132               40.24446977                0.05493536                2.31782223               -1.56411717               -1.04542804               -8.17810855               49.28450202                6.24670554
              15.73195553                5.24092191               40.33061354                0.22770052                1.04595346               -0.74922526                0.29046843               -4.01381973               24.35779699                6.29644334
              16.73438632                4.81310829               39.96212263                0.49293227                0.28531514                0.03285252               -0.58802782               -0.12481735                0.85062959                1.72129160
              17.73766183                4.38897667               39.57721453                0.85761453                0.32755192                0.78969530               -1.76508540               -0.03032089                0.05421530               -2.85917052
               7.97852101               10.20074329               40.18905331                0.89162121                0.07607573               -0.16181259                0.40361683               -0.04987717                0.06227669                2.33582609
               8.97928177                9.78373420               39.79992855                0.35866289                0.25403894                0.30971003               -0.90543540                0.02080507                0.50780745               -1.96342290
               9.98360179                9.36643541               39.41963734                0.00185036                2.29381408                0.74805124               -2.12739632               -4.45733649               30.00304392               -5.82613706
              11.02515805                8.85736149               39.62000212                0.00010000                4.01233061                0.24607556               -1.91153536               -8.48848669               58.89885711               -2.84014677
              12.06384840                8.32949740               39.81100758                0.00010000                3.66594521               -0.54061727               -1.69919137               -8.30891436               58.49159382               -0.72754323
              13.09847695                7.79472707               39.99613369                0.00010000                3.05875908               -0.78128371               -1.49605535               -8.21129255               58.54839016                1.07686240
              14.12502358                7.25990511               40.18119952                0.00010000                2.36407505               -0.92948920               -1.29821842               -8.42776639               59.01739265                3.09958667
              15.14575845                6.73218123               40.36948734                0.06228880                1.50410735               -1.21430966               -1.08179969               -7.99445535               55.67251815                5.97126853
              16.15510573                6.23405544               40.48274187                0.23781796                0.47969814               -0.62730399                0.77057768               -3.95811575               26.91434079                5.93556763
              17.15535242                5.81317791               40.09227140                0.50538680                0.13135520               -0.02660572               -0.20719492               -0.12376904                0.90820074                1.74194663
              18.15773283                5.39588925               39.68470736                0.86482674                0.23804166                0.60129849               -1.48185266               -0.03437800                0.07836408               -2.83951835
               8.39268106               11.19954420               40.10199922                0.88077569                0.16096394               -0.07859712                0.16501712               -0.04968963               -0.01329595                2.02203176
               9.39429070               10.78727133               39.69088191                0.34673412                0.35739514                0.39842172               -1.23997244               -0.00178505                0.78821514               -1.76633902
              10.39982897               10.37419319               39.29568054                0.00121365                3.34007061                0.77495395               -2.51201679               -5.06225656               34.23034000               -4.34043204
              11.46109212                9.85762940               39.55289830                0.00010000                6.06702417               -1.26952950               -2.15158060               -6.76829033               66.22449682               -1.67037127
              12.52116945                9.32134099               39.78898883                0.00010000                4.98711457               -1.07447359               -1.83948106               -5.70727445               65.15984271               -0.42627191
              13.56083441                8.78763244               40.01550662                0.00010000                2.92100759               -0.63866826               -1.56434935               -5.19836253               65.20759563                0.60667101
              14.57958960                8.25413675               40.24449777                0.00010000                0.92966987               -0.14220769               -1.33093161               -5.78689837               66.40986215                1.84453027
              15.57942780                7.72300513               40.48848431                0.07023294               -0.38965329                0.21596721               -1.17182753               -6.06364368               62.23617515                4.07840575
              16.57179654                7.22837583               40.62934666                0.24851690               -0.46753406               -0.45570680                1.23254535               -3.94813271               29.79937528                4.21860845
              17.57007712                6.81257618               40.22329184                0.51813268               -0.01224773               -0.09767546                0.17975016               -0.15046780                1.23437871                1.61100684
              18.57155158                6.40100264               39.79236289                0.87182166                0.14744586                0.43444127               -1.19670581               -0.04361827                0.01559365               -2.36134845
               8.80207296               12.19917135               40.00878528                0.93722813                0.25241154               -0.03728511               -0.09785465                0.19231853                0.94238384                1.71020806
               9.80459707               11.79170264               39.58618875                0.67027127                0.49628135                0.44313111               -1.55502507                0.16879420                2.60998934               -1.53192784
              10.81199858               11.38193449               39.19678879                0.48907915                6.90236847                0.77413010               -2.78997220               -6.76962525               39.08328916               -3.07033204
              11.94264444               10.83197090               39.50277727                0.44578250               10.38506420               -2.56585019               -2.30757473               -5.54109556               72.75921324               -1.00531010
              13.01969987               10.30800793               39.77193693                0.43550110                5.95347493               -1.33330629               -1.91978388               -2.64781789               70.90288888               -0.30778559
              14.06171394                9.78195370               40.03016553                0.44689262                2.71065276               -0.56787392               -1.58133597               -2.45939530               70.94521870                0.26694893
              15.07391292                9.25706095               40.29194994                0.47917548               -0.57337237                0.29242023               -1.29903472               -2.84032442               72.58192309                0.97110569
              16.05024649                8.73650057               40.57645483                0.53788148               -4.36704480                1.34954383               -1.15475834               -4.52411338               68.25866664                2.50503019
              16.98657203                8.22494130               40.74693131                0.62806150               -3.52651203               -0.34345300                1.55853041               -4.78625942               34.06684211                2.80783834
              17.97971625                7.81122440               40.35040463                0.76352773               -0.32822452               -0.13517800                0.54943999               -0.05424831                3.43285655                1.43504322
              18.98000754                7.40457808               39.90870413                0.93822304                0.02912846                0.35754367               -0.87440950                0.18096375                1.19699477               -1.89416233
               4.71383626                2.35313606               41.91433933                1.00000000               -0.66691183               -0.73097964                2.44408841               -0.13149467               -1.75746941                1.93923578
               5.70716714                1.87855090               41.67741355                0.90038661               -0.64663858               -0.48123173                1.82738748               -0.09804947               -2.16956713               -0.73418214
               6.70090349                1.40190170               41.43245626                0.62775963               -0.88715365               -0.25661301                1.12750922               -0.49903866               -1.91176631               -1.16934317
               7.68942407                0.91207392               41.20103955                0.50554791               -1.30463361               -0.13230281                0.48441718               -0.68057064                0.09811157               -0.20875191
               8.67481081                0.39614748               40.99704019                0.45469867               -1.24031931                0.06837476               -0.19763887               -0.60394082                2.55990472               -0.17905517
               9.66461768               -0.14812157               40.81553717                0.45630880               -0.40030350                0.26075797               -0.92462119               -0.34208004                3.71879362                0.01941888
              10.66680474               -0.70588179               40.63501466                0.50611674                0.67910226                0.45300516               -1.62693711               -0.34664235                2.68228290                0.19785316
              11.67819973               -1.25736717               40.43260255                0.61150503                1.23194699                0.63768908               -2.25565650               -0.42393072                0.43449120                0.31175157
              12.69144368               -1.79493739               40.20635777                0.79176347                1.25751534                0.79221348               -2.84050442               -0.33882179               -1.61631327                0.52284214
              13.70335003               -2.32205395               39.96182724                1.00000000                1.17685891                0.95152457               -3.43813067               -0.16593958               -2.06128245                1.08957712
              14.71498086               -2.84548085               39.72587481                1.00000000                1.16308300                1.19978660               -4.04754572               -0.15837393               -1.61809736               -1.52530572
               5.18710647                3.34582626               41.81892604                1.00000000               -0.53026480               -0.71927353                2.16510195               -0.04704921                0.28870316                2.29554639
               6.18180382                2.87373858               41.57888844                0.63426690               -0.39774404               -0.40883276                1.50378838               -0.05178082                1.00588677               -1.38938052
               7.17915159                2.39933557               41.35332171                0.15039081                0.18458257               -0.09483137                0.98353475               -0.73968604                3.14640958               -3.58583362
               8.18549547                1.91075089               41.15590284                0.00698728                0.98587807               -0.31848640                0.41343949               -1.87673391                5.54970394               -2.56004982
               9.19886915                1.39683123               40.97751294                0.01030604                1.33580210               -0.80598903               -0.19047385               -3.01817962                7.81881578               -0.12916003
              10.21221152                0.85448601               40.82422583                0.01323435                0.95459851               -0.37110226               -0.85855980               -3.69252140                9.22782296                0.70419360
              11.21796112                0.29864826               40.67252695                0.01274419                0.31383508                0.24060153               -1.50781953               -3.34952681                8.27807558                1.39727316
              12.21848822               -0.25099028               40.49872967                0.12856945                0.12188690                0.36034239               -2.07520764               -2.07174856                6.08085087                3.16282225
              13.22039886               -0.78701525               40.30200172                0.39316725                0.42370753                0.51282944               -2.60508593               -0.83563989                4.20701434                3.68335045
              14.22696237               -1.31253871               40.09015205                0.82747771                0.82125816                0.84054698               -3.11683906               -0.22659696                2.29243185                2.10737812
              15.23682402               -1.83348299               39.85489049                1.00000000                0.98616542                1.22441822               -3.68206581               -0.13028186                1.13660599               -1.97848913
               5.65707063                4.33875059               41.73088703                0.96835986               -0.44484222               -0.68407381                1.88370210               -0.07379803                0.27972855                2.56430590
               6.65262221                3.87037425               41.46732131                0.45761660               -0.39865891               -0.24813328                1.13000373               -0.08809915                1.37922447               -2.21951958
               7.64909746                3.40000508               41.22586900                0.03593082                0.08857631                0.25965283                0.51247181               -1.36831542                6.43956215               -7.30683406
               8.65439374                2.90570419               41.06368790                0.00010000                1.08073240               -0.79000410                0.26125406               -3.84831980               13.34497011               -3.46210610
               9.67071210                2.38002770               40.95885663                0.00010000                1.72782410               -1.35015064               -0.43915455               -5.68684169               15.92272084               -0.50406959
              10.68895022                1.84445639               40.84641978                0.00010000                1.72891969               -1.01735433               -0.96135533               -6.31800449               15.63345059                1.36705304
              11.70529050                1.29893024               40.73372319                0.00010000                1.67390247               -0.38056588               -1.44505423               -6.16739901               15.74812156                3.05888208
              12.72242827                0.74983968               40.62145912                0.02217150                1.54944098               -0.16178388               -1.93005649               -4.56186393               13.43481098                5.57017679
              13.73627932                0.21531920               40.46035465                0.18753989                1.14287777               -0.81734393               -2.14609260               -1.92134122                8.12040285                9.44531631
              14.74528582               -0.30524301               40.23852167                0.46044226                0.89922327                0.36690218               -2.68908858               -0.60843522                3.01998322                3.57186696
              15.75426378               -0.82099249               39.97462117                0.84517059                0.89779580                1.58250628               -3.39594060               -0.49188063                0.94343026               -2.25678953
               6.12238320                5.33214479               41.64110723                0.94393038               -0.35958463               -0.61344632                1.63655851               -0.05692801                0.06589688                2.43633094
               7.11878735                4.86877592               41.35216860                0.42377900               -0.29639321               -0.11219521                0.76177824               -0.01347196                0.48977820               -2.30555382
               8.11645533                4.40452863               41.07180382                0.01852243                0.48595535                0.47102474               -0.05668691               -2.18778302               11.43463115               -7.88256762
               9.12850646                3.89495081               41.00184522                0.00010000                1.49623954               -0.73332168               -0.32929194               -4.65112309               22.07386579               -2.89757245
              10.14638012                3.36982821               40.93242818                0.00010000                1.92212139               -0.89757193               -0.68771489               -5.70078643               22.51276987               -0.90957605
              11.16694889                2.83413893               40.86885836                0.00010000                2.14248622               -1.02142922               -1.06546005               -6.27919812               22.91085232                1.38110742
              12.18922985                2.29103694               40.80453105                0.00010000                2.19565463               -0.93322670               -1.39132022               -6.23415549               22.77993830                3.61017041
              13.21086198                1.74577405               40.73534972                0.02590257                2.39124401               -0.84193898               -1.63393044               -5.93844965               22.95564677                5.77555060
              14.23705473                1.19663787               40.67135373                0.18420213                2.01216861               -1.74213753               -1.71241133               -2.95477699               12.83080582               10.28023801
              15.25110535                0.69479934               40.39594481                0.43221657                1.07153148                0.01839003               -2.25138084               -0.24120617                1.20031844                3.48459032
              16.25848536                0.19816714               40.09736084                0.81914191                0.73800076                1.82061434               -3.06305382               -0.11320100                0.06530453               -2.07716461
               6.58266981                6.32648166               41.55086133                0.92865137               -0.27008843               -0.51979464                1.38650433               -0.05361010                0.05323023                2.42499293
               7.57996893                5.86813034               41.23876226                0.40388843               -0.17514553               -0.02264326                0.41579672                0.01748335                0.31985673               -2.17399891
               8.57916690                5.40942557               40.93206337                0.00928466                0.80513834                0.51187023               -0.51562050               -2.83969437               15.33830745               -6.90908028
               9.59607169                4.89103776               40.92027091                0.00010000                1.91706799               -0.22818095               -0.73354333               -5.85299326               30.09368308               -3.86400534
              10.61750826                4.36207626               40.90607327                0.00010000                2.30429173               -0.68381427               -0.95976191               -6.47302515               30.11491342               -1.02688186
              11.64215753                3.82402780               40.89163462                0.00010000                2.57320033               -1.01764506               -1.17431055               -6.83240958               30.26545300                1.38573029
              12.66897227                3.28026570               40.87693866                0.00010000                2.79504111               -1.22113805               -1.34323448               -6.86885873               30.45542866                3.73970483
              13.69805835                2.73300090               40.86254193                0.03172769                2.95931094               -1.42619942               -1.43198695               -6.78388893               30.65709401                6.25480820
              14.72815849                2.18047645               40.84802485                0.19209349                2.04370384               -1.43174753               -1.27510965               -3.53993982               16.33785198                7.94492311
              15.73893243                1.69512479               40.54283776                0.44186998                0.85528344                0.06829276               -1.84225474               -0.20758118                0.94978165                2.67006817
              16.74526415                1.21541980               40.21880940                0.82501926                0.63317275                1.57150514               -2.74225137               -0.02706845                0.03405428               -2.31765224
               7.03801364                7.32174889               41.46116692                0.91522153               -0.18205300               -0.42876625                1.14359131               -0.05237523                0.05136554                2.45718598
               8.03619311                6.86832305               41.12618103                0.38733576               -0.06298057                0.06143835                0.07330217                0.02881878                0.33672270               -2.10269295
               9.03675403                6.41476604               40.79693605                0.00266198                1.13013990                0.56682627               -0.94855953               -3.38445548               19.17593556               -6.58904421
              10.05879591                5.89038719               40.83856927                0.00010000                2.35877758                0.04756164               -1.08494631               -6.89383150               37.74874585               -3.81513208
              11.08392958                5.35615193               40.87735461                0.00010000                2.66576715               -0.50877096               -1.20053311               -7.42114451               37.71515209               -1.14858850
              12.11211125                4.81378602               40.91445831                0.00010000                2.94749988               -1.02445491               -1.28694060               -7.74481658               37.79837138                1.36245728
              13.14287958                4.26661418               40.95068351                0.00010000                3.14311033               -1.42786086               -1.32135105               -7.79688303               37.95049560                3.76924212
              14.17497345                3.71725006               40.98643213                0.03778362                3.06262348               -1.60123372               -1.27233102               -7.72799700               37.69968004                6.03403367
              15.20413204                3.16800292               41.01333338                0.20074230                1.85184602               -1.12092224               -0.80745457               -4.05514009               19.66692315                7.13008831
              16.21201038                2.69616519               40.68382160                0.45300858                0.66109596                0.10882845               -1.44528413               -0.19473915                0.96834417                2.20113452
              17.21735396                2.22959724               40.33523993                0.83185141                0.53435888                1.28882717               -2.44287327               -0.02637495                0.04207702               -2.68432336
               7.48847399                8.31790634               41.37183453                0.90285024               -0.09458295               -0.34066864                0.90269206               -0.05153776                0.05235630                2.46943269
               8.48752816                7.86935911               41.01414628                0.37259550                0.04698305                0.14641212               -0.26664063                0.03331263                0.38772991               -2.05718717
               9.48941365                7.42076210               40.66316284                0.00225116                1.46405059                0.63677081               -1.37383528               -3.84592462               23.00744423               -6.46162013
              10.51680917                6.89198899               40.75761412                0.00010000                2.81364439                0.26203946               -1.41333093               -7.82369793               45.31716918               -3.71334543
              11.54568654                6.35190084               40.84856337                0.00010000                2.99948859               -0.35577466               -1.42375737               -8.37581938               45.25468504               -1.13202667
              12.57679894                5.80353870               40.93707099                0.00010000                3.19420176               -1.00247022               -1.39978939               -8.68541969               45.30739368                1.31439134
              13.60957057                5.25170849               41.02409045                0.00010000                3.26553656               -1.49864485               -1.32290251               -8.69345640               45.40358531                3.70373228
              14.64210968                4.70097623               41.10953070                0.04408137                2.92849879               -1.63209321               -1.15977159               -8.33677452               44.52027010                6.03794365
              15.66814055                4.15805800               41.17430068                0.20973039                1.56668212               -0.90650943               -0.32663532               -4.26160035               22.81126263                6.78100707
              16.67344332                3.69730136               40.82094935                0.46452152                0.48660019                0.09898033               -1.05669677               -0.16879469                0.99720831                1.92188143
              17.67787255                3.24119634               40.44815118                0.83882725                0.44292359                1.04732510               -2.15564798               -0.02645175                0.05292181               -2.90911393
               7.93407734                9.31493552               41.28261051                0.89138058               -0.00737414               -0.25391511                0.66197266               -0.05108565                0.05289180                2.45457107
               8.93400360                8.87125129               40.90237866                0.35922536                0.15641540                0.23298109               -0.60601902                0.03289776                0.45515579               -2.03275647
               9.93720565                8.42750145               40.53015212                0.00202862                1.85898026                0.71032061               -1.79482543               -4.24424335               26.86160308               -6.35895534
              10.97118320                7.89562798               40.67770629                0.00010000                3.38289147                0.41063950               -1.72663063               -8.51478866               52.86164033               -3.52687982
              12.00486348                7.34903643               40.82029331                0.00010000                3.37060014               -0.29898382               -1.63219634               -9.01997834               52.71981029               -1.05338878
              13.03859521                6.79373662               40.95936242                0.00010000                3.33547238               -0.94771942               -1.51112168               -9.19437502               52.76520149                1.21144266
              14.07157293                6.23664128               41.09704076                0.00010000                3.16466203               -1.42206062               -1.34811159               -9.18868268               52.92386009                3.53329306
              15.10188845                5.68460819               41.23373180                0.05075083                2.55009911               -1.58938061               -1.10829247               -8.54047606               51.23784094                6.10381270
              16.12257491                5.14987273               41.33293971                0.21909431                1.18038471               -0.75207095                0.16272557               -4.26870430               25.76725200                6.57649484
              17.12549614                4.69814480               40.95585228                0.47630716                0.32300239                0.05784890               -0.67106247               -0.14594306                1.02031555                1.79109835
              18.12903496                4.25054374               40.55905243                0.84580851                0.35388133                0.83368631               -1.87395130               -0.02873310                0.06327333               -2.99226896
               8.37482073               10.31282803               41.19316553                0.88076847                0.07994548               -0.16808669                0.41958527               -0.05102756                0.06430773                2.43538283
               9.37562018                9.87401873               40.79067550                0.34717170                0.26656837                0.32232623               -0.94579370                0.02396352                0.55648861               -2.05512933
              10.38015210                9.43496851               40.39795113                0.00179456                2.46791163                0.77378502               -2.21101748               -4.64411493               30.82344558               -6.07467698
              11.42497842                8.90020178               40.60036108                0.00010000                4.35131186                0.21878836               -2.01898575               -8.82924307               60.43372996               -3.01514194
              12.46717833                8.34592116               40.79344022                0.00010000                4.01640889               -0.61097175               -1.81773842               -8.60567369               60.01630006               -0.85484696
              13.50530659                7.78458432               40.98061640                0.00010000                3.38735068               -0.85630634               -1.61124562               -8.46124764               60.06340645                0.97325182
              14.53492535                7.22326727               41.16776872                0.00010000                2.63810579               -0.99007229               -1.39139808               -8.64607341               60.54038507                2.98430679
              15.55806871                6.66918861               41.35844205                0.05784230                1.71522555               -1.24878761               -1.12862772               -8.29758315               57.99373581                5.77303906
              16.56922986                6.14301658               41.48993965                0.22891145                0.58923644               -0.62087296                0.65660161               -4.20217161               28.63560241                6.21114950
              17.56985344                5.69845833               41.08983914                0.48837994                0.16350701               -0.00323877               -0.28453459               -0.14148550                1.07881991                1.81772445
              18.57250000                5.25787007               40.66937162                0.85278214                0.26465594                0.64061172               -1.59192073               -0.03291976                0.08914698               -2.96971508
               8.81067540               11.31157379               41.10370604                0.87019690                0.16669946               -0.08338931                0.17709684               -0.05081887               -0.01561677                2.10847834
               9.81234239               10.87769782               40.67823793                0.33570097                0.37324485                0.41400327               -1.28971811               -0.00291339                0.85678294               -1.84967765
              10.81814030               10.44297715               40.27010198                0.00117599                3.56516475                0.79529765               -2.60503791               -5.29118016               35.19309634               -4.52429974
              11.88364569                9.90000375               40.53082044                0.00010000                6.51135871               -1.38251808               -2.26615508               -7.05765893               67.97394424               -1.77823815
              12.94836747                9.33681700               40.76999269                0.00010000                5.41892270               -1.18535321               -1.96292268               -5.91464345               66.85791622               -0.49708656
              13.99202414                8.77661049               40.99929267                0.00010000                3.28398443               -0.73388512               -1.68146921               -5.34536161               66.86439592                0.54975615
              15.01404716                8.21683984               41.23073746                0.00010000                1.20816657               -0.21559911               -1.42230845               -5.90476820               68.01293387                1.77172990
              16.01618747                7.65963244               41.47653871                0.06564637               -0.23927022                0.18327577               -1.21260869               -6.24397499               64.90547880                3.90833356
              17.00926176                7.13745527               41.64123197                0.23932155               -0.41872635               -0.42775512                1.13239255               -4.15541634               31.86551168                4.41792241
              18.00781295                6.69808002               41.22476114                0.50070646                0.01456677               -0.07610282                0.10901614               -0.16988925                1.41622954                1.68390110
              19.00955309                6.26335598               40.77987447                0.85953053                0.17401428                0.47036813               -1.30733953               -0.04299787                0.02386790               -2.46818833
               9.24155629               12.31116025               41.00783943                0.93205094                0.26022630               -0.04135383               -0.09064160                0.20194342                0.97953100                1.78379975
              10.24415855               11.88229880               40.57035517                0.66491630                0.52331380                0.46009761               -1.61264662                0.16732633                2.76418767               -1.60464551
              11.25202256               11.45087446               40.16840609                0.48809164                7.29134204                0.78973103               -2.88732530               -7.09914204               40.22307461               -3.20212436
              12.38998539               10.87255142               40.47911300                0.44583047               11.01280786               -2.74523279               -2.42733627               -5.79904798               74.67953018               -1.05935654
              13.47227872               10.32221410               40.75210927                0.43563064                6.41955663               -1.46029000               -2.04861485               -2.74111541               72.73844419               -0.34134739
              14.51837652                9.76990661               41.01375331                0.44666002                3.07646576               -0.67038794               -1.70368547               -2.52770231               72.72803359                0.23959312
              15.53380804                9.21895529               41.27847737                0.47820379               -0.29013718                0.21154545               -1.39538884               -2.87653659               74.27603638                0.93112559
              16.51257378                8.67285413               41.56464243                0.53554439               -4.30670433                1.32216889               -1.19987434               -4.58605996               71.15448725                2.37713889
              17.44767395                8.13446148               41.76207822                0.62339355               -3.60094186               -0.29937857                1.45974487               -4.95467317               36.42433330                2.94524010
              18.44055494                7.69693628               41.35559314                0.75469276               -0.32929104               -0.11437449                0.48387552               -0.08500302                3.71596473                1.50180273
              19.44108813                7.26727743               40.89944470                0.93197782                0.05331854                0.39214527               -0.98321334                0.18761916                1.25838407               -1.97836280
               4.93611056                2.46964086               42.93897244                1.00000000               -0.67769027               -0.74294787                2.48357926               -0.13675493               -1.78898548                2.00116325
               5.92933366                1.97095707               42.69579605                0.89021131               -0.66104841               -0.48410846                1.85114346               -0.10504148               -2.24479962               -0.81477277
               6.92288959                1.47008689               42.44374244                0.62354645               -0.91451458               -0.25758060                1.13144871               -0.51549990               -2.00169452               -1.16218773
               7.91104337                0.95541555               42.20580667                0.50424902               -1.33869194               -0.12909268                0.46964605               -0.69245714                0.01881759               -0.22107722
               8.89611575                0.41380895               41.99487183                0.45443130               -1.26327566                0.07592059               -0.23631606               -0.61158963                2.44187822               -0.18709438
               9.88577785               -0.15696618               41.80598220                0.45593106               -0.40494556                0.27199206               -0.98697361               -0.34744024                3.59039497                0.01468002
              10.88801684               -0.74200643               41.61833440                0.50474074                0.69875654                0.47007603               -1.71063525               -0.34707867                2.59473566                0.19778947
              11.89975298               -1.32125041               41.40957148                0.60802209                1.27816533                0.65963421               -2.35342035               -0.42682771                0.39836927                0.31644462
              12.91358015               -1.88658150               41.17751135                0.78427099                1.30918443                0.81982592               -2.94313361               -0.34595061               -1.62889615                0.51304585
              13.92593667               -2.44103988               40.92720691                1.00000000                1.20581300                0.96608517               -3.49772491               -0.17376821               -2.07072910                1.08614113
              14.93769641               -2.99160997               40.68523729                1.00000000                1.17597367                1.20750831               -4.09248946               -0.15606111               -1.62189733               -1.54257602
               5.43342680                3.46221138               42.84074822                1.00000000               -0.53665729               -0.73101984                2.19729145               -0.04964474                0.30595474                2.35805579
               6.42806023                2.96611598               42.59399395                0.61694433               -0.39607242               -0.40924016                1.51607931               -0.06166111                1.09741413               -1.49410490
               7.42550535                2.46751108               42.36318265                0.14444451                0.20987681               -0.08227078                0.98928781               -0.78451729                3.28381917               -3.74689204
               8.43225776                1.95412462               42.15997147                0.00707592                1.03426853               -0.35043129                0.40061674               -1.93859550                5.63446463               -2.61552279
               9.44619072                1.41456816               41.97543924                0.01026130                1.39766889               -0.81485973               -0.22398989               -3.10641296                7.83886004               -0.26894609
              10.46021114                0.84575374               41.81535280                0.01312302                1.02487236               -0.37732162               -0.91517429               -3.80443798                9.20801552                0.61340414
              11.46668817                0.26269433               41.65704475                0.01285240                0.37805510                0.24586961               -1.58737422               -3.47601525                8.30016984                1.36965733
              12.46777224               -0.31465406               41.47749417                0.12332842                0.16636062                0.38123813               -2.17163364               -2.19039447                6.16684626                3.15084371
              13.47001538               -0.87838324               41.27548881                0.38168074                0.44704906                0.52466396               -2.70554064               -0.88822073                4.33433617                3.79197489
              14.47671322               -1.43137903               41.05867801                0.80470650                0.83452509                0.85324804               -3.18378148               -0.25799211                2.40542992                2.16441823
              15.48670588               -1.97953489               40.81782221                1.00000000                0.99926594                1.24579496               -3.73880150               -0.14024376                1.22642337               -2.02799946
               5.92730845                4.45502046               42.74987828                0.95553298               -0.45077241               -0.69799247                1.91190415               -0.07909198                0.30092185                2.64784773
               6.92280073                3.96277226               42.47866543                0.44334693               -0.40589250               -0.24379911                1.13625922               -0.09699205                1.47116827               -2.34428190
               7.91919060                3.46844147               42.23095437                0.03234575                0.12068250                0.29264800                0.50314674               -1.47703059                6.78456828               -7.68382164
               8.92521438                2.94840693               42.06617038                0.00010000                1.15838858               -0.80451086                0.23224314               -3.99721639               13.64011803               -3.78549320
               9.94235838                2.39751176               41.95418777                0.00010000                1.81742692               -1.37168395               -0.49575375               -5.84306865               16.06509570               -0.76952267
              10.96156292                1.83548739               41.83642059                0.00010000                1.82729832               -1.03581029               -1.03919112               -6.53110661               15.87104910                1.18666746
              11.97890434                1.26291096               41.71879866                0.00010000                1.77298741               -0.38795278               -1.54028997               -6.39493972               15.99185327                2.98622549
              12.99702267                0.68637436               41.60160120                0.01866178                1.68181796               -0.16224195               -2.04172310               -4.78435860               13.80193693                5.61551275
              14.01254070                0.12391178               41.43843462                0.17955815                1.24529031               -0.85516686               -2.23487300               -2.06575083                8.46109281                9.64563422
              15.02192847               -0.42397492               41.21117177                0.44350950                0.93312698                0.36673363               -2.78341500               -0.66085593                3.11038352                3.69925559
              16.03120324               -0.96669407               40.94022857                0.83269708                0.92747681                1.64341989               -3.49548867               -0.51957963                0.95815773               -2.32476661
               6.41634135                5.44825153               42.65762937                0.93130167               -0.36419780               -0.62918665                1.66814427               -0.05878054                0.06299921                2.53832748
               7.41269937                4.96124000               42.35980221                0.40989405               -0.30056361               -0.10742003                0.76392355               -0.01333488                0.51563234               -2.41589316
               8.41033008                4.47336404               42.07112228                0.01520325                0.52718891                0.50424689               -0.08090669               -2.28698997               11.76255189               -8.25356548
               9.42324315                3.93803441               41.99827973                0.00010000                1.59594035               -0.69957825               -0.38491539               -4.83195276               22.62150926               -3.33744283
              10.44224889                3.38713448               41.92517858                0.00010000                2.04733256               -0.90643107               -0.76415487               -5.88243858               22.99694637               -1.18031730
              11.46418980                2.82503754               41.85773752                0.00010000                2.28267609               -1.03394740               -1.16110448               -6.48612976               23.39829361                1.20195743
              12.48790241                2.25493528               41.79008211                0.00010000                2.34472269               -0.94515299               -1.50154276               -6.45877842               23.32301440                3.53255447
              13.51108426                1.68210110               41.71844280                0.02233439                2.55736185               -0.86144215               -1.75129297               -6.19188390               23.60665992                5.84320439
              14.53904964                1.10451342               41.65350299                0.17655524                2.15088484               -1.80074545               -1.86081696               -3.14293347               13.32408422               10.48203821
              15.55410195                0.57595564               41.37293910                0.41690892                1.13514701                0.01527070               -2.34730020               -0.27963880                1.33731350                3.60437757
              16.56175258                0.05333351               41.06623644                0.80813821                0.76506317                1.89784564               -3.16628458               -0.11525664                0.06396412               -2.14715271
               6.90015590                6.44243673               42.56487956                0.91645857               -0.27343803               -0.53419355                1.41836186               -0.05505220                0.05386289                2.52893003
               7.89742152                5.96062386               42.24290549                0.39047230               -0.17497501               -0.01997445                0.41237098                0.02095002                0.34079260               -2.27327401
               8.89665640                5.47852641               41.92673804                0.00613755                0.86916852                0.53567186               -0.55128824               -2.94305809               15.73695914               -7.21256151
               9.91480489                4.93441536               41.91259364                0.00010000                2.05250385               -0.20342079               -0.80341794               -6.05083854               30.83411732               -4.17501637
              10.93770648                4.37938314               41.89602377                0.00010000                2.46173187               -0.68202592               -1.05285469               -6.67476590               30.84614489               -1.28636736
              11.96403953                3.81480844               41.87936242                0.00010000                2.74793687               -1.02912692               -1.28413536               -7.04929599               31.01236294                1.20970068
              12.99266521                3.24400790               41.86293194                0.00010000                2.97836588               -1.23703565               -1.46363124               -7.10479444               31.25230331                3.65193543
              14.02360684                2.66914551               41.84762947                0.02802976                3.15811380               -1.44145249               -1.55800134               -7.07749086               31.59214189                6.26112458
              15.05582749                2.08789687               41.83447767                0.18424587                2.19543808               -1.46849912               -1.44110097               -3.74095083               17.03082205                8.18725792
              16.06751561                1.57633049               41.52393036                0.42631390                0.91574386                0.07954710               -1.93990056               -0.25047449                1.13140796                2.76239605
              17.07414237                1.07126284               41.19086931                0.81389084                0.66267603                1.63351687               -2.85198482               -0.02596526                0.03906042               -2.42136805
               7.37886603                7.43756766               42.47274512                0.90341420               -0.18373432               -0.44141798                1.17313787               -0.05371972                0.05223681                2.56462238
               8.37702869                6.96084051               42.12685569                0.37446562               -0.05943062                0.06494384                0.06113362                0.03397647                0.36282821               -2.20038732
               9.37767742                6.48407748               41.78721350                0.00258583                1.21704829                0.58800934               -0.99694836               -3.49610864               19.67203020               -6.87658730
              10.40136965                5.93396599               41.82731979                0.00010000                2.53415335                0.06462706               -1.16711947               -7.11581542               38.68722503               -4.08330634
              11.42836049                5.37349396               41.86484009                0.00010000                2.86047298               -0.50813275               -1.30593367               -7.64952483               38.66742275               -1.37484286
              12.45857911                4.80445500               41.90101860                0.00010000                3.15544794               -1.03829896               -1.40630372               -7.97912383               38.77854991                1.19484486
              13.49146945                4.23019456               41.93688476                0.00010000                3.35331793               -1.44610355               -1.44582636               -8.04508376               38.98537228                3.66858241
              14.52564547                3.65327205               41.97315653                0.03387893                3.27881021               -1.61113712               -1.39262537               -8.04733924               38.95672438                6.00929710
              15.55704565                3.07514344               42.00446709                0.19264335                2.00405077               -1.14215543               -0.97644336               -4.27736307               20.58042105                7.40288580
              16.56572649                2.57754658               41.66889507                0.43721335                0.71614627                0.12986555               -1.54301908               -0.23290066                1.16907201                2.27870116
              17.57136857                2.08600385               41.31026881                0.82053943                0.56420867                1.34188612               -2.55777014               -0.02485215                0.04948354               -2.81398030
               7.85253580                8.43360837               42.38098520                0.89132577               -0.09445698               -0.35133921                0.92862912               -0.05276621                0.05382568                2.57683874
               8.85159123                7.96192274               42.01137315                0.36014040                0.05364752                0.15261366               -0.28858604                0.03888837                0.42219949               -2.15375203
               9.85360875                7.49028660               41.64912752                0.00218250                1.57404370                0.65936446               -1.43461827               -3.96924193               23.61148714               -6.74301382
              10.88307210                6.93570790               41.74302535                0.00010000                3.03091131                0.27286723               -1.50700210               -8.07101594               46.45949259               -3.95789396
              11.91422697                6.36922048               41.83377370                0.00010000                3.23421738               -0.36426233               -1.53839384               -8.62862677               46.41836026               -1.33296468
              12.94775645                5.79404246               41.92248272                0.00010000                3.43597579               -1.02567164               -1.52397724               -8.93446059               46.50331310                1.16000800
              13.98294649                5.21508583               42.01029671                0.00010000                3.49773683               -1.52402170               -1.44411269               -8.94411166               46.65848159                3.59407894
              15.01771118                4.63692277               42.09747170                0.04002846                3.15296020               -1.64079111               -1.26319427               -8.66762161               46.12178278                5.97190656
              16.04600569                4.06505376               42.17027683                0.20136539                1.71429986               -0.91652986               -0.49111451               -4.49302598               23.96592450                7.06902798
              17.05199718                3.57892780               41.80992189                0.44837963                0.53625487                0.12469436               -1.15306032               -0.19998906                1.20581672                1.99306272
              18.05673079                3.09810057               41.42603268                0.82732439                0.47336085                1.09535040               -2.27495375               -0.02480299                0.06241736               -3.05109276
               8.32118196                9.43054087               42.28933481                0.88018013               -0.00537347               -0.26264754                0.68390361               -0.05223752                0.05444330                2.56033199
               9.32112823                8.96389278               41.89616193                0.34723388                0.16627297                0.24248057               -0.63803358                0.03793027                0.49899433               -2.12913456
              10.32450742                8.49726477               41.51184044                0.00196117                1.99436133                0.73527115               -1.86865766               -4.38465394               27.58069063               -6.63556742
              11.36101545                7.93942334               41.65993469                0.00010000                3.64729855                0.41182964               -1.83051443               -8.78922985               54.21351801               -3.74887227
              12.39745339                7.36620871               41.80338677                0.00010000                3.65045490               -0.32596990               -1.75362719               -9.28948308               54.08860384               -1.22652018
              13.43402455                6.78394156               41.94365573                0.00010000                3.61267556               -0.98903057               -1.63649724               -9.44172269               54.15924814                1.07607051
              14.46970690                6.19971413               42.08303498                0.00010000                3.41502812               -1.45956453               -1.46097249               -9.42131009               54.37045317                3.41718120
              15.50232511                5.62045623               42.22230392                0.04646212                2.77365985               -1.60438363               -1.18775372               -8.85751153               53.20288013                5.98263276
              16.52518010                5.05681284               42.33386805                0.21044063                1.31773944               -0.75337969                0.00789106               -4.50003785               27.19385110                6.87447070
              17.52867990                4.58004047               41.94870138                0.45979246                0.36734446                0.08478656               -0.76458157               -0.17011599                1.23064054                1.86331760
              18.53252699                4.10791086               41.53973551                0.83407765                0.38470867                0.87861769               -1.99666854               -0.02695967                0.07410542               -3.13659665
               8.78478722               10.42835542               42.19744501                0.86985638                0.08387141               -0.17505079                0.43720724               -0.05215722                0.06650305                2.53954399
               9.78562594                9.96677235               41.78101267                0.33566004                0.27989474                0.33526569               -0.98770927                0.02694017                0.61229369               -2.15335985
              10.79038512                9.50499202               41.37541699                0.00172796                2.63588112                0.79937328               -2.29653170               -4.81134467               31.66765929               -6.33672975
              11.83834356                8.94394449               41.57962240                0.00010000                4.67669826                0.19446891               -2.13160608               -9.13130508               62.00235553               -3.19992079
              12.88391908                8.36270108               41.77465281                0.00010000                4.35365102               -0.67392554               -1.94422433               -8.86402456               61.58270763               -0.98786069
              13.92541658                7.77426185               41.96390878                0.00010000                3.70432723               -0.92254586               -1.73611000               -8.67267667               61.63184243                0.86956116
              14.95800563                7.18589454               42.15337155                0.00010000                2.90228315               -1.04257143               -1.49489153               -8.82657075               62.13563191                2.87680711
              15.98346224                6.60483510               42.34691478                0.05337280                1.92075322               -1.27423994               -1.18256125               -8.55953126               60.33555651                5.59285363
              16.99642069                6.04998617               42.49587390                0.21993445                0.70173018               -0.61085630                0.51482224               -4.42536609               30.37341676                6.50601386
              17.99749684                5.58062353               42.08658071                0.47145400                0.20150653                0.02298642               -0.37319587               -0.16169636                1.28972618                1.89738815
              19.00045082                5.11567292               41.65286894                0.84083056                0.29539763                0.68274655               -1.71616216               -0.03129649                0.10199385               -3.10970294
               9.24330494               11.42703986               42.10554116                0.85958472                0.17254802               -0.08874318                0.19068826               -0.05193191               -0.01813661                2.19919161
              10.24503042               10.97059810               41.66508755                0.32464526                0.39017196                0.43014464               -1.34150362               -0.00496938                0.93507825               -1.93847581
              11.25110838               10.51325223               41.24357978                0.00113076                3.78249316                0.81458783               -2.69996644               -5.49841263               36.18653283               -4.71750009
              12.32068029                9.94331271               41.50757520                0.00010000                6.93735799               -1.48729253               -2.38558092               -7.31668629               69.76410738               -1.89228944
              13.38985554                9.35273020               41.74973038                0.00010000                5.83486346               -1.28766365               -2.09374518               -6.09563543               68.60372831               -0.57037817
              14.43737756                8.76549065               41.98187724                0.00010000                3.63733473               -0.82187871               -1.80670837               -5.46887811               68.58193195                0.49391447
              15.46260224                8.17886270               42.21605161                0.00010000                1.48326526               -0.28454504               -1.51966463               -5.99901557               69.69845559                1.70423550
              16.46704286                7.59497143               42.46423213                0.06095418               -0.08589479                0.15004051               -1.24949977               -6.39969182               67.60542063                3.74851510
              17.46088434                7.04459572               42.65199451                0.23006125               -0.36418206               -0.39162724                1.00484747               -4.33919676               33.95316224                4.63238769
              18.45975922                6.58050020               42.22547216                0.48338572                0.04589718               -0.05135438                0.02725224               -0.19288556                1.63820513                1.76131104
              19.46180229                6.12156579               41.76621610                0.84730199                0.20430650                0.50987137               -1.43166258               -0.04237724                0.03403844               -2.58252267
               9.69663210               12.42658055               42.00697245                0.92685582                0.26820705               -0.04593045               -0.08210543                0.21218473                1.01871219                1.86113059
              10.69931417               11.97537524               41.55393581                0.65950793                0.55350740                0.47771459               -1.67244994                0.16353578                2.93395332               -1.68179246
              11.70770225               11.52128378               41.13904228                0.48707375                7.66088464                0.80315425               -2.98586810               -7.39944363               41.40084670               -3.34057979
              12.85253186               10.91419864               41.45423054                0.44586133               11.60630955               -2.91140705               -2.55153746               -6.03164084               76.64052460               -1.11465482
              13.93982844               10.33694781               41.73096463                0.43573723                6.86873275               -1.57823933               -2.18407146               -2.82142883               74.62194846               -0.37412181
              14.98990652                9.75782428               41.99609182                0.44644035                3.43580484               -0.76663720               -1.83304757               -2.58431231               74.57265783                0.21502483
              16.00854454                9.18020364               42.26404216                0.47723203               -0.00855643                0.13409408               -1.49474801               -2.90518858               76.05529010                0.89600435
              16.98973539                8.60783591               42.55245734                0.53309973               -4.22182763                1.28644826               -1.23616303               -4.63324823               74.08573258                2.25669108
              17.92410798                8.04215362               42.77612621                0.61867140               -3.65331648               -0.24420932                1.33547208               -5.08960908               38.81645643                3.09455497
              18.91666906                7.57959645               42.36008214                0.74590117               -0.33179435               -0.09037526                0.40892000               -0.12317985                4.04624116                1.57308462
              19.91747210                7.12587035               41.88903986                0.92579054                0.08030361                0.43045586               -1.10404415                0.19437112                1.32494772               -2.06818973
               5.16440932                2.58960777               43.96401092                1.00000000               -0.69081727               -0.75262353                2.52984767               -0.14233537               -1.81889470                2.06460539
               6.15750115                2.06585965               43.71443642                0.88008078               -0.67751685               -0.48725341                1.87980012               -0.10986017               -2.32231079               -0.90146193
               7.15085898                1.53977752               43.45508523                0.61933666               -0.94150608               -0.25917198                1.13808871               -0.52769701               -2.09725903               -1.15122588
               8.13867103                0.99932277               43.21043247                0.50295640               -1.36930665               -0.12460439                0.45519556               -0.69962183               -0.06805355               -0.23381748
               9.12347285                0.43127078               42.99231386                0.45412788               -1.28540087                0.08655882               -0.27597303               -0.61537925                2.31452048               -0.19530603
              10.11296301               -0.16656917               42.79579770                0.45549688               -0.41813394                0.28848675               -1.05086571               -0.35054396                3.45308410                0.00936346
              11.11511017               -0.77934670               42.60080195                0.50332213                0.70135766                0.49238529               -1.79687403               -0.34442717                2.49895581                0.19735403
              12.12699016               -1.38688366               42.38553414                0.60450030                1.30600830                0.68805397               -2.45870598               -0.42514249                0.35065251                0.32002600
              13.14123034               -1.98063139               42.14749510                0.77707191                1.36096777                0.85323696               -3.06472349               -0.35234295               -1.63549928                0.50905040
              14.15420952               -2.56327334               41.89187274                1.00000000                1.26259073                1.00581336               -3.63610131               -0.19073482               -2.06864115                1.07108573
              15.16648215               -3.14150221               41.64402502                1.00000000                1.22726349                1.24679455               -4.25411465               -0.16469281               -1.61454617               -1.60254845
               5.68673409                3.58208154               43.86287186                1.00000000               -0.54164223               -0.73906893                2.22112779               -0.05416923                0.32431691                2.42234507
               6.68131767                3.06098711               43.60921002                0.59945779               -0.39418188               -0.40896461                1.52742845               -0.07136935                1.19694488               -1.60168323
               7.67885045                2.53718580               43.37310747                0.13839003                0.23052557               -0.06942528                0.99724960               -0.82427545                3.42831479               -3.91330389
               8.68592818                1.99807672               43.16391518                0.00713554                1.07072865               -0.38183465                0.38855991               -1.98788831                5.71824490               -2.68180310
               9.70026503                1.43213637               42.97303314                0.01018058                1.44190649               -0.81864360               -0.25614340               -3.17350354                7.85521075               -0.42376696
              10.71476631                0.83631570               42.80592235                0.01297595                1.07790581               -0.38129089               -0.96862233               -3.88809579                9.18088532                0.50780489
              11.72182314                0.22557715               42.64077947                0.01292393                0.43073861                0.24820471               -1.66176724               -3.57410123                8.31211863                1.33063795
              12.72338108               -0.38000312               42.45529699                0.11802660                0.20393022                0.40424831               -2.26448178               -2.29176448                6.24115807                3.13002094
              13.72590175               -0.97209902               42.24789091                0.37041106                0.46782467                0.54245502               -2.81161200               -0.92559084                4.46937328                3.91521513
              14.73273758               -1.55321520               42.02647642                0.78368532                0.85811742                0.88771716               -3.30174880               -0.27226067                2.54485794                2.21054814
              15.74306410               -2.12903426               41.78011446                1.00000000                1.03265199                1.28000791               -3.87404353               -0.14034768                1.34353037               -2.11834103
               6.20551478                4.57482639               43.76912512                0.94265641               -0.45452915               -0.70857395                1.93624864               -0.08643325                0.32302626                2.73923722
               7.20096949                4.05768035               43.49004649                0.42901639               -0.41154589               -0.23845589                1.13520730               -0.10739775                1.56689992               -2.46783911
               8.19728386                3.53838902               43.23593193                0.02868277                0.14966031                0.32439227                0.49378300               -1.58079442                7.13558065               -8.07607104
               9.20396270                2.99168607               43.06833276                0.00010000                1.22399703               -0.81490098                0.19687397               -4.12694737               13.93547558               -4.13388288
              10.22176381                2.41489791               42.94894156                0.00010000                1.88988066               -1.38752494               -0.55374101               -5.96424159               16.20613125               -1.06524100
              11.24176031                1.82580501               42.82563596                0.00010000                1.90915775               -1.05397240               -1.11757717               -6.70178023               16.10953010                0.97551019
              12.25994696                1.22561739               42.70291739                0.00010000                1.85353680               -0.40112004               -1.63594208               -6.57209921               16.23711858                2.88600428
              13.27883105                0.62120131               42.58062466                0.01511438                1.79918222               -0.16935083               -2.15028563               -4.96032356               14.19245977                5.63971062
              14.29593060                0.03021771               42.41565719                0.17149458                1.34342474               -0.88326956               -2.31912355               -2.17909679                8.82178241                9.82388818
              15.30569954               -0.54551899               42.18285337                0.42679764                0.96913566                0.36717485               -2.87225118               -0.68695773                3.20308625                3.81720467
              16.31531332               -1.11590205               41.90471140                0.82053765                0.96137766                1.68088071               -3.60723903               -0.53301200                0.97135359               -2.41474757
               6.71929750                5.56791006               43.67447011                0.91875028               -0.36904159               -0.64409416                1.70310802               -0.06018432                0.05902461                2.65196556
               7.71560709                5.05621799               43.36744707                0.39601646               -0.30343279               -0.10344858                0.76513983               -0.01397977                0.54154538               -2.52788142
               8.71322885                4.54367365               43.07018568                0.01180177                0.56366291                0.53470481               -0.10913291               -2.37526115               12.09137576               -8.63934387
               9.72688034                3.98177870               42.99414691                0.00010000                1.68162050               -0.65943478               -0.44270067               -4.98910832               23.17177834               -3.80229109
              10.74686126                3.40438587               42.91714508                0.00010000                2.15654383               -0.91052562               -0.84437330               -6.03219434               23.48764762               -1.47909519
              11.77001122                2.81523625               42.84563627                0.00010000                2.40618017               -1.04321348               -1.26136705               -6.65474088               23.89282789                0.99364042
              12.79498486                2.21755475               42.77450020                0.00010000                2.47815372               -0.95578140               -1.61783735               -6.64110264               23.87642690                3.42721755
              13.81957430                1.61660987               42.70032386                0.01872126                2.70276262               -0.88458242               -1.87631068               -6.38973739               24.25681620                5.88911065
              14.84904011                1.01023558               42.63413739                0.16881971                2.27719405               -1.84800988               -2.01624817               -3.29690705               13.84613444               10.63648940
              15.86511818                0.45412829               42.34899880                0.40157088                1.20649283               -0.00321355               -2.43808594               -0.30914136                1.51137572                3.71694328
              16.87316997               -0.09541665               42.03403515                0.79719540                0.80517921                1.94310573               -3.28080914               -0.11178700                0.06626049               -2.22755359
               7.22769522                6.56194451               43.57922857                0.90434456               -0.27689190               -0.54871744                1.45328468               -0.05632550                0.05437683                2.64016558
               8.22492630                6.05561138               43.24700968                0.37710621               -0.17386432               -0.01851779                0.40773452                0.02564040                0.36289686               -2.37804853
               9.22421793                5.54908312               42.92103761                0.00341928                0.92710055                0.55855816               -0.59051176               -3.03061616               16.13867182               -7.53133892
              10.24346831                4.97849738               42.90420255                0.00010000                2.17222194               -0.17446736               -0.87661113               -6.21811240               31.58022931               -4.50636560
              11.26766237                4.39668739               42.88501617                0.00010000                2.60141500               -0.67403625               -1.15150421               -6.84193372               31.58791460               -1.57073333
              12.29549661                3.80494074               42.86595191                0.00010000                2.90444584               -1.03368098               -1.40237637               -7.22796377               31.77241904                1.00850037
              13.32575129                3.20650176               42.84766603                0.00010000                3.14294253               -1.24668419               -1.59591698               -7.29834259               32.06374483                3.54233812
              14.35835546                2.60350966               42.83138191                0.02429805                3.33613722               -1.45080518               -1.70046613               -7.31464681               32.52431557                6.25254797
              15.39247403                1.99325751               42.81920283                0.17639362                2.34067416               -1.49870558               -1.62324084               -3.90655548               17.75821837                8.41032042
              16.40516895                1.45441674               42.50403975                0.41086196                0.98467145                0.08096942               -2.03819501               -0.29127617                1.36015807                2.84248542
              17.41216746                0.92296007               42.16176971                0.80284473                0.69985168                1.67854543               -2.97379169               -0.02435752                0.04574050               -2.54355636
               7.73083725                7.55693571               43.48462968                0.89158808               -0.18559578               -0.45455429                1.20535728               -0.05483860                0.05330967                2.67726022
               8.72898129                7.05584764               43.12740371                0.36155705               -0.05533584                0.06832203                0.04765750                0.04063168                0.39216490               -2.30549736
               9.72973053                6.55484481               42.77699709                0.00249859                1.29662648                0.60958845               -1.04788745               -3.58925088               20.17570046               -7.18007687
              10.75491382                5.97828935               42.81522688                0.00010000                2.69243448                0.08594171               -1.25401581               -7.30275683               39.63599382               -4.37056224
              11.78357922                5.39090514               42.85123594                0.00010000                3.03618801               -0.49962635               -1.41895722               -7.83963620               39.63554623               -1.62173406
              12.81563758                4.79456263               42.88633223                0.00010000                3.34349351               -1.04195019               -1.53724089               -8.17192483               39.77886465                1.00818350
              13.85044909                4.19262106               42.92176698                0.00010000                3.54440180               -1.45309571               -1.58685829               -8.24844690               40.04481920                3.55510832
              14.88652561                3.58759376               42.95857963                0.02995430                3.47764188               -1.61213446               -1.53558350               -8.30749228               40.21353337                5.98517427
              15.92000193                2.98026147               42.99380451                0.18451927                2.15322415               -1.16099509               -1.16919598               -4.46556299               21.52891573                7.66929546
              16.92959010                2.45574768               42.65296121                0.42140105                0.77971172                0.14697848               -1.64686894               -0.27361817                1.42113406                2.34651246
              17.93559616                1.93815426               42.28408453                0.80933105                0.60060639                1.38738621               -2.68650980               -0.02274982                0.05933999               -2.96186352
               8.22877459                8.55285342               43.39040711                0.87979411               -0.09447578               -0.36266808                0.95717082               -0.05382391                0.05537848                2.68893532
               9.22782983                8.05697782               43.00837456                0.34767464                0.06083067                0.15907236               -0.31205231                0.04590138                0.46165590               -2.25795876
              10.22999120                7.56127488               42.63447047                0.00210391                1.67615081                0.68279068               -1.49878121               -4.07227194               24.22853322               -7.04065810
              11.26135285                6.98021621               42.72747408                0.00010000                3.23025877                0.28820644               -1.60624161               -8.27932998               47.61879742               -4.21946985
              12.29459638                6.38669487               42.81779549                0.00010000                3.44946744               -0.36391135               -1.66225241               -8.83895888               47.60533495               -1.55010302
              13.33034219                5.78410174               42.90659145                0.00010000                3.65774211               -1.03653293               -1.66188727               -9.13803169               47.72917625                0.99340182
              14.36775122                5.17743985               42.99520820                0.00010000                3.71115077               -1.53555021               -1.58454904               -9.14750284               47.95213726                3.48138356
              15.40456521                4.57126697               43.08426682                0.03587915                3.36288173               -1.63879959               -1.39263301               -8.94074366               47.72751639                5.91927985
              16.43500885                3.97003761               43.16447839                0.19295434                1.86192925               -0.92482033               -0.68547337               -4.69290594               25.15264773                7.36024944
              17.44180379                3.45735631               42.79788815                0.43230446                0.59452295                0.15023247               -1.25928865               -0.23392110                1.46708949                2.05721848
              18.44689931                2.95070779               42.40265211                0.81590451                0.50955167                1.14106467               -2.40976332               -0.02221954                0.07427194               -3.21045983
               8.72151197                9.54968235               43.29628858                0.86895239               -0.00341135               -0.27204281                0.70798142               -0.05328202                0.05608616                2.67056401
               9.72147785                9.05902909               42.88961799                0.33521497                0.17673671                0.25240447               -0.67175086                0.04412632                0.54958676               -2.23286555
              10.72504670                8.56850063               42.49277897                0.00188316                2.12146901                0.76098454               -1.94522742               -4.50356246               28.31863689               -6.92707589
              11.76390723                7.98405348               42.64109600                0.00010000                3.89339066                0.41733240               -1.94051110               -9.02184223               55.59039546               -3.98509802
              12.80291452                7.38362692               42.78522077                0.00010000                3.91123641               -0.34372637               -1.88510097               -9.51358898               55.48969396               -1.41125466
              13.84213196                6.77383197               42.92663247                0.00010000                3.87096413               -1.01738532               -1.77636040               -9.64171757               55.59504437                0.93475995
              14.88033380                6.16191006               43.06782131                0.00010000                3.64905099               -1.48265291               -1.59331204               -9.60667184               55.87268985                3.30512578
              15.91511298                5.55481777               43.20997673                0.04216936                2.98603371               -1.60747488               -1.29252930               -9.12163570               55.17670268                5.88452805
              16.94005447                4.96176507               43.33309753                0.20173082                1.45642549               -0.75136048               -0.18115229               -4.70210115               28.64664357                7.18322007
              17.94424149                4.45875233               42.94056065                0.44334621                0.41971653                0.11395048               -0.87026015               -0.19701916                1.49361339                1.93158243
              18.94844880                3.96097555               42.51911906                0.82246429                0.42073104                0.92438160               -2.13552799               -0.02447307                0.08756408               -3.29627719
               9.20901547               10.54741257               43.20190967                0.85894003                0.08786071               -0.18260810                0.45668982               -0.05326968                0.06882670                2.64825010
              10.20989407               10.06202591               42.77092131                0.32413284                0.29400430                0.34880375               -1.03175003                0.03047448                0.67722123               -2.25854703
              11.21489555                9.57649457               42.35202049                0.00165032                2.79478183                0.82506171               -2.38380581               -4.95632243               32.53706572               -6.61092079
              12.26578971                8.98856286               42.55772896                0.00010000                4.98252783                0.17481686               -2.25042588               -9.39021160               63.60411412               -3.39563633
              13.31454611                8.37982034               42.75455573                0.00010000                4.67174937               -0.72646522               -2.08080114               -9.07916738               63.19055335               -1.12816133
              14.35922470                7.76375403               42.94589420                0.00010000                4.00429351               -0.97631146               -1.87498021               -8.84119772               63.25364917                0.76454657
              15.39463198                7.14778679               43.13787089                0.00010000                3.15263959               -1.08280617               -1.61548278               -8.96544898               63.80471051                2.77723621
              16.42227749                6.53911747               43.33479083                0.04883821                2.12001432               -1.28787952               -1.25610475               -8.77681974               62.68946877                5.43744272
              17.43703227                5.95501040               43.50023609                0.21092577                0.81877163               -0.59571765                0.33796609               -4.62258278               32.13055536                6.81652440
              18.43865292                5.45963532               43.08237522                0.45459306                0.24655699                0.05262387               -0.47523732               -0.18505013                1.55232664                1.97686478
              19.44196341                4.96919542               42.63504837                0.82897635                0.33104833                0.72795271               -1.85727592               -0.02913031                0.11764627               -3.26275836
               9.69121988               11.54603018               43.10751980                0.84899111                0.17854523               -0.09461409                0.20576808               -0.05308603               -0.02094975                2.29404176
              10.69300534               11.06600516               42.65140786                0.31355788                0.40817116                0.44702528               -1.39570351               -0.00773093                1.02548022               -2.03293500
              11.69938331               10.58500186               42.21610265                0.00107819                3.98859508                0.83216444               -2.79605719               -5.68030612               37.21240190               -4.91877035
              12.77277724                9.98754982               42.48310882                0.00010000                7.33783450               -1.58076105               -2.51088109               -7.54102136               71.59466537               -2.01315940
              13.84614000                9.36909761               42.72811778                0.00010000                6.22821604               -1.37785906               -2.23408832               -6.24668900               70.39752680               -0.64696075
              14.89734156                8.75430574               42.96315850                0.00010000                3.97606896               -0.89880415               -1.94461715               -5.56581120               70.36175232                0.43867073
              15.92566138                8.14025394               43.20034416                0.00010000                1.75057115               -0.34462643               -1.63061050               -6.06646145               71.47232414                1.64423476
              16.93235298                7.52906018               43.45154872                0.05616853                0.07117993                0.12100273               -1.29633648               -6.52381658               70.32572988                3.60417613
              17.92708497                6.94985071               43.66132892                0.22074750               -0.29987577               -0.34606085                0.84215301               -4.49546779               36.05946215                4.85964748
              18.92635547                6.45980481               43.22530618                0.46611774                0.08305052               -0.02286556               -0.06764296               -0.22014545                1.91152209                1.84123701
              19.92874598                5.97553461               42.75124121                0.83520440                0.23905190                0.55353446               -1.57222201               -0.04160809                0.04686181               -2.70625943
              10.16800379               12.54552029               43.00619732                0.92162246                0.27639849               -0.05098989               -0.07229402                0.22300433                1.05984596                1.94206331
              11.17076778               12.07096642               42.53690617                0.65414812                0.58704885                0.49612572               -1.73491773                0.15712326                3.12190719               -1.76336950
              12.17974477               11.59313786               42.10868873                0.48603328                8.00528771                0.81360026               -3.08511975               -7.66479254               42.61890629               -3.48488637
              13.33087353               10.95694764               42.42808225                0.44590592               12.15558198               -3.06021826               -2.68092126               -6.23410564               78.64259937               -1.17141222
              14.42285641               10.35226316               42.70842784                0.43584717                7.29393082               -1.68344531               -2.32798629               -2.88684310               76.55414761               -0.40634865
              15.47675215                9.74577795               42.97709236                0.44620214                3.78459505               -0.85277926               -1.97343920               -2.62738570               76.48176101                0.19326489
              16.49854831                9.14089426               43.24858241                0.47627891                0.27261169                0.06403246               -1.60520859               -2.92332736               77.92744095                0.86825794
              17.48220438                8.54153753               43.53991917                0.53063255               -4.10850156                1.24773482               -1.27605373               -4.65511384               77.04653446                2.14707053
              18.41637828                7.94808918               43.78878766                0.61389649               -3.68191323               -0.17615327                1.17775058               -5.18864553               41.23863599                3.25412703
              19.40856612                7.45917800               43.36377154                0.73717947               -0.33533166               -0.06268055                0.32302758               -0.17008816                4.43508976                1.64799514
              20.40967165                6.98026611               42.87736382                0.91964161                0.11055286                0.47315021               -1.23889253                0.20137692                1.39782450               -2.16451088
               5.39888166                2.71321107               44.98956939                1.00000000               -0.70685296               -0.76669905                2.58644032               -0.14752798               -1.85590360                2.11597586
               6.39181313                2.16338063               44.73339206                0.87009151               -0.69666491               -0.49083788                1.91180113               -0.11462006               -2.40765912               -0.99614583
               7.38494836                1.61101789               44.46650421                0.61505077               -0.96797337               -0.26195885                1.14579913               -0.53852878               -2.20102193               -1.13576978
               8.37245366                1.04377379               44.21491058                0.50157089               -1.39537126               -0.11855163                0.43862331               -0.70334808               -0.16222997               -0.24748186
               9.35704093                0.44846427               43.98935237                0.45384332               -1.30511065                0.10008499               -0.31811642               -0.61541585                2.18069184               -0.20367260
              10.34635145               -0.17702820               43.78496488                0.45513105               -0.43907066                0.30997804               -1.11717932               -0.35082477                3.31263691                0.00416797
              11.34825952               -0.81801438               43.58239692                0.50192324                0.68607180                0.52060311               -1.88697210               -0.33773242                2.40396029                0.19687757
              12.36007288               -1.45437559               43.36039736                0.60102511                1.31360218                0.72314279               -2.57405172               -0.41777937                0.31092074                0.32504271
              13.37453156               -2.07719211               43.11621688                0.77029039                1.39805232                0.89510790               -3.20833770               -0.35331224               -1.65434064                0.50366052
              14.38803393               -2.68882554               42.85448488                1.00000000                1.32846776                1.06768350               -3.85032248               -0.19709547               -2.10691495                1.07301020
              15.40110092               -3.29583982               42.60015499                1.00000000                1.30669897                1.32517386               -4.52431196               -0.18147876               -1.65926167               -1.64757462
               5.94723682                3.70554408               44.88517077                1.00000000               -0.54733036               -0.75020578                2.24693834               -0.05495454                0.36074854                2.48981294
               6.94176352                3.15847225               44.62454252                0.58220806               -0.39351654               -0.41010960                1.54815963               -0.08134967                1.31244555               -1.71770276
               7.93936649                2.60839830               44.38312764                0.13236420                0.24667354               -0.05880249                1.00697459               -0.86081934                3.58142559               -4.08491447
               8.94669699                2.04258827               44.16774267                0.00717462                1.09606398               -0.41381276                0.37761976               -2.02362866                5.80439250               -2.76434620
               9.96128777                1.44946512               43.97031637                0.01008648                1.46927683               -0.81846389               -0.28638804               -3.21899108                7.87506228               -0.59698517
              10.97608252                0.82607158               43.79598035                0.01283344                1.11340625               -0.38440689               -1.01760886               -3.94236111                9.15799526                0.38163592
              11.98355589                0.18719166               43.62380941                0.01301653                0.47007167                0.24623449               -1.72928454               -3.64086278                8.33110971                1.27034935
              12.98548396               -0.44714417               43.43220454                0.11276756                0.23337607                0.42586498               -2.35177647               -2.36867590                6.32982409                3.09105859
              13.98822342               -1.06824103               43.21925657                0.35946592                0.49514362                0.56675856               -2.92288170               -0.93942350                4.60796709                4.03676026
              14.99538683               -1.67814871               42.99264303                0.76429818                0.90384985                0.93361657               -3.47034942               -0.27224925                2.67716344                2.28040564
              16.00630041               -2.28258808               42.74034133                1.00000000                1.09135825                1.34650585               -4.08734172               -0.15327029                1.45062172               -2.19391118
               6.49192623                4.69820695               44.78860326                0.92987148               -0.45943175               -0.71783448                1.97416767               -0.08629646                0.34732329                2.84923620
               7.48733191                4.15517843               44.50136957                0.41457965               -0.41551414               -0.23765315                1.13356150               -0.11569599                1.67304209               -2.59081035
               8.48361595                3.60984184               44.24083003                0.02491492                0.17911766                0.35365946                0.48563077               -1.67948202                7.49491555               -8.48799185
               9.49091427                3.03549753               44.07010786                0.00010000                1.27809285               -0.82347378                0.15397755               -4.23622590               14.23124194               -4.50918572
              10.50917780                2.43209500               43.94311295                0.00010000                1.94317141               -1.39935821               -0.61228441               -6.04945830               16.35465961               -1.39807964
              11.52977769                1.81528366               43.81406905                0.00010000                1.97401047               -1.07385942               -1.19620657               -6.82879812               16.35739739                0.72274496
              12.54865801                1.18691031               43.68607982                0.00010000                1.91771801               -0.42303365               -1.73237914               -6.69772447               16.49886038                2.74201828
              13.56813205                0.55414171               43.55859548                0.01153109                1.90448108               -0.18648850               -2.25725854               -5.08339133               14.62568652                5.61852926
              14.58674764               -0.06585694               43.39205215                0.16341312                1.44019709               -0.90306993               -2.39845635               -2.26104738                9.23350082                9.94646457
              15.59693600               -0.67015321               43.15372674                0.41028323                1.00833166                0.36284198               -2.96326232               -0.70039413                3.32384569                3.92602577
              16.60691427               -1.26890971               42.86808379                0.80871480                0.99782726                1.71561081               -3.73737213               -0.54041470                0.99862013               -2.51809795
               7.03156793                5.69118739               44.69169153                0.90621100               -0.37532193               -0.65632405                1.74462763               -0.05907148                0.05476469                2.77968681
               8.02781471                5.15371918               44.37510500                0.38211949               -0.30550902               -0.10360901                0.76718640               -0.00886982                0.56873870               -2.63842006
               9.02545775                4.61547149               44.06893962                0.00832553                0.59523018                0.56231931               -0.14093817               -2.44896850               12.42552299               -9.04350724
              10.03971931                4.02611880               43.98942572                0.00010000                1.75273622               -0.61447289               -0.50253691               -5.12384450               23.73031287               -4.29204207
              11.06051247                3.42147796               43.90829111                0.00010000                2.24859646               -0.91086909               -0.92846644               -6.14934008               23.98907906               -1.81216901
              12.08469124                2.80459439               43.83251018                0.00010000                2.51154445               -1.05005858               -1.36671378               -6.78433097               24.40009728                0.74597932
              13.11074336                2.17873098               43.75772536                0.00010000                2.59460712               -0.96612140               -1.74165041               -6.78081147               24.44799198                3.27947137
              14.13658339                1.54912606               43.68091659                0.01516251                2.82770103               -0.91005015               -2.01219543               -6.53045586               24.91857280                5.88896959
              15.16729738                0.91369757               43.61317803                0.16103432                2.39241631               -1.88534518               -2.18455197               -3.42157760               14.42376304               10.71223763
              16.18443171                0.32910813               43.32417738                0.38629594                1.28538628               -0.03144995               -2.52759737               -0.33787676                1.74304584                3.78688564
              17.19300511               -0.24827587               43.00062025                0.78631158                0.85733969                1.96260199               -3.40842267               -0.10425039                0.06975576               -2.34743182
               7.56568121                6.68508047               44.59394526                0.89221577               -0.28107953               -0.56265357                1.49278626               -0.05661008                0.05556943                2.75760611
               8.56287041                6.15310625               44.25106018                0.36374237               -0.17221230               -0.01767523                0.40166160                0.03488096                0.38833718               -2.48842460
               9.56223696                5.62108823               43.91492780                0.00329029                0.97802463                0.57857927               -0.63347656               -3.09938378               16.54737493               -7.86332190
              10.58243091                5.02320808               43.89506141                0.00010000                2.27392212               -0.14177916               -0.95345654               -6.35396242               32.33542767               -4.86103083
              11.60771541                4.41387761               43.87299368                0.00010000                2.72035720               -0.65990003               -1.25620836               -6.97359978               32.34254453               -1.88544328
              12.63683805                3.79428249               43.85131489                0.00010000                3.03973535               -1.03076329               -1.53038392               -7.36778027               32.54791835                0.77302678
              13.66851011                3.16758789               43.83101360                0.00010000                3.28591498               -1.24882114               -1.74289984               -7.44833597               32.89255056                3.39768644
              14.70255635                2.53594070               43.81362014                0.02051608                3.49119502               -1.45177209               -1.86405456               -7.49282561               33.46068237                6.20996341
              15.73833401                1.89643616               43.80201285                0.16843593                2.47977729               -1.52218863               -1.83102370               -4.03889595               18.54329289                8.59166970
              16.75215190                1.32921779               43.48316646                0.39539530                1.06316239                0.07601505               -2.13972522               -0.33281892                1.65322408                2.88856374
              17.75959726                0.77034233               43.13139347                0.79185742                0.74453652                1.70800229               -3.10939293               -0.02236387                0.05508982               -2.69671193
               8.09438417                7.67993432               44.49685227                0.87977239               -0.18795889               -0.46761512                1.24105817               -0.05550145                0.05472275                2.79508584
               9.09250458                7.15336568               44.12780884                0.34863931               -0.05079568                0.07215126                0.03247102                0.04996617                0.42656152               -2.41730613
              10.09336825                6.62704308               43.76625576                0.00239793                1.36730509                0.63016631               -1.10263543               -3.66197690               20.68998109               -7.49893139
              11.11985068                6.02328321               43.80223947                0.00010000                2.82989055                0.11206573               -1.34613417               -7.45354998               40.59697219               -4.67930256
              12.14996606                5.40827996               43.83646095                0.00010000                3.18873439               -0.48220112               -1.54068788               -7.99015955               40.62025706               -1.89442031
              13.18362537                4.78397913               43.87027378                0.00010000                3.50761850               -1.03361177               -1.68204476               -8.32180917               40.79912040                0.79475783
              14.22011843                4.15375456               43.90514760                0.00010000                3.71266191               -1.44643546               -1.74860691               -8.40423764               41.12801378                3.41801731
              15.25787860                3.52009062               43.94244486                0.02599863                3.65619718               -1.60147187               -1.70830803               -8.50328950               41.47301925                5.94765277
              16.29324238                2.88325380               43.98108317                0.17635759                2.29952753               -1.17352109               -1.39468119               -4.61794427               22.53142182                7.91202494
              17.30386916                2.33062843               43.63595769                0.40567447                0.85331839                0.16274744               -1.75912690               -0.31781317                1.73970985                2.38842721
              18.31030875                1.78588418               43.25653861                0.79820782                0.64395895                1.42572500               -2.83197369               -0.01987325                0.07181024               -3.13798188
               8.61770846                8.67572817               44.40012861                0.86836607               -0.09474771               -0.37423635                0.98847415               -0.05485443                0.05681055                2.80554141
               9.61676098                8.15454928               44.00513211                0.33522132                0.06857171                0.16615223               -0.33738266                0.05441882                0.50718577               -2.36926823
              10.61907989                7.63369155               43.61915189                0.00201312                1.76810226                0.70650760               -1.56641051               -4.15329939               24.86072801               -7.35349765
              11.65212303                7.02544939               43.71090052                0.00010000                3.40682053                0.30916421               -1.71187076               -8.44635384               48.79614466               -4.50009762
              12.68721630                6.40423359               43.80052865                0.00010000                3.64021208               -0.35282872               -1.79688672               -9.00472018               48.81497814               -1.78764038
              13.72492727                5.77361026               43.88924497                0.00010000                3.85487821               -1.03225563               -1.81676750               -9.29374412               48.98308037                0.80861539
              14.76431387                5.13865918               43.97860573                0.00010000                3.90320289               -1.53003022               -1.75006311               -9.30004918               49.28145011                3.35795718
              15.80299132                4.50391127               44.06961904                0.03177711                3.55617253               -1.62339247               -1.55689108               -9.14945527               49.33577979                5.87154110
              16.83543732                3.87296573               44.15656736                0.18454418                2.00869631               -0.92671296               -0.91949079               -4.85759242               26.38702880                7.64118349
              17.84316525                3.33247274               43.78473612                0.41623365                0.66254957                0.17783037               -1.37849757               -0.27237095                1.79601028                2.10340343
              18.84868831                2.79885683               43.37783742                0.80460540                0.55230574                1.18524343               -2.56349989               -0.01895600                0.08890215               -3.39472208
               9.13564486                9.67244959               44.30349444                0.85777252               -0.00152874               -0.28194882                0.73431499               -0.05448585                0.05776977                2.78501247
              10.13562957                9.15668873               43.88272691                0.32319601                0.18786471                0.26311327               -0.70755966                0.05110964                0.60841889               -2.34364793
              11.13940215                8.64117323               43.47293589                0.00179345                2.23759959                0.78791869               -2.02492969               -4.59916671               29.07730565               -7.23201525
              12.18038156                8.02946650               43.62112447                0.00010000                4.11543205                0.42847757               -2.05732703               -9.20911330               56.99231056               -4.23726399
              13.22171079                7.40122338               43.76568475                0.00010000                4.14716678               -0.34963762               -2.02858898               -9.68919391               56.92168862               -1.61067739
              14.26332490                6.76333402               43.90812852                0.00010000                4.10528236               -1.02917532               -1.93487263               -9.79111467               57.06996065                0.78340366
              15.30381644                6.12315396               44.05116874                0.00010000                3.86290218               -1.48713839               -1.75249341               -9.74109523               57.42720343                3.19374606
              16.34058294                5.48762277               44.19645333                0.03777902                3.18563064               -1.59496493               -1.43391036               -9.32696650               57.15401094                5.80577194
              17.36752905                4.86471954               44.33024500                0.19299010                1.59738467               -0.74402359               -0.41343661               -4.87138223               30.13846746                7.49394966
              18.37253064                4.33418504               43.93129617                0.42695047                0.48161905                0.14712759               -0.99150158               -0.22823223                1.82460617                1.98851449
              19.37716144                3.80958905               43.49702495                0.81095902                0.46307994                0.97193837               -2.29481201               -0.02114250                0.10441702               -3.47723845
               9.64814047               10.67008919               44.20657881                0.84805442                0.09190626               -0.19082773                0.47806904               -0.05451577                0.07111735                2.76133574
              10.64905954               10.15981155               43.76037767                0.31252166                0.30891552                0.36329052               -1.07824683                0.03441735                0.75343098               -2.37054881
              11.65431878                9.64944993               43.32774088                0.00156211                2.94155338                0.85176823               -2.47362655               -5.07696489               33.43414328               -6.89781997
              12.70789060                9.03401894               43.53461388                0.00010000                5.26230619                0.16148661               -2.37600811               -9.60160962               65.23835526               -3.60323795
              13.75956491                8.39724084               43.73303679                0.00010000                4.96418997               -0.76522548               -2.22970393               -9.24732945               64.83825573               -1.27778508
              14.80717440                7.75302675               43.92640917                0.00010000                4.28191485               -1.01340591               -2.03268134               -8.96315520               64.92698722                0.65575778
              15.84520320                7.10891641               44.12106190                0.00010000                3.38560052               -1.10590387               -1.76179482               -9.05863585               65.54535426                2.68499666
              16.87488641                6.47201197               44.32179269                0.04421062                2.31220997               -1.28480820               -1.36370890               -8.94206945               65.05262462                5.30947161
              17.89144740                5.85808526               44.50263323                0.20187968                0.94223415               -0.57412185                0.11550097               -4.79048057               33.91780048                7.13764161
              18.89373110                5.33541529               44.07707596                0.43786731                0.30050217                0.08717896               -0.59390225               -0.21214623                1.88123380                2.05097921
              19.89745745                4.81829560               43.61572342                0.81723845                0.37263510                0.77680531               -2.01873605               -0.02656760                0.13650297               -3.43298775
              10.15510984               11.66863304               44.10965652                0.83833952                0.18473449               -0.10112092                0.22234549               -0.05430772               -0.02385100                2.39303992
              11.15695719               11.16395454               43.63717348                0.30240405                0.42728085                0.46498388               -1.45282583               -0.01115339                1.13091477               -2.13300203
              12.16365546               10.65820859               43.18765864                0.00102015                4.18006361                0.84819806               -2.89458735               -5.83363965               38.27388179               -5.12938613
              13.24055846               10.03269623               43.45735758                0.00010000                7.70504697               -1.65977027               -2.64233714               -7.72677932               73.46491154               -2.14129987
              14.31775640                9.38591887               43.70504861                0.00010000                6.59138833               -1.45200604               -2.38619537               -6.36469806               72.23806758               -0.72786267
              15.37238622                8.74306590               43.94298489                0.00010000                4.29510552               -0.96024486               -2.10030883               -5.63351123               72.20296771                0.38301879
              16.40365851                8.10103588               44.18343940                0.00010000                2.00932379               -0.39120483               -1.76465919               -6.10379722               73.33575253                1.59071337
              17.41257270                7.46192661               44.43830540                0.05132959                0.23288051                0.10122227               -1.36928705               -6.61121817               73.06115139                3.48229985
              18.40831612                6.85323710               44.66883757                0.21136049               -0.22476645               -0.28832847                0.63405667               -4.62085304               38.19017177                5.09729001
              19.40807737                6.33592862               44.22411930                0.44899301                0.12766720                0.01051706               -0.17875419               -0.25241752                2.25084544                1.92103823
              20.41086946                5.82512515               43.73477166                0.82320097                0.27920906                0.60196576               -1.73208202               -0.04101762                0.06276407               -2.84135462
              10.65641132               12.66806678               44.00552657                0.91640523                0.28495899               -0.05662609               -0.06136418                0.23459277                1.10319976                2.02686200
              11.65926091               12.16911122               43.51923746                0.64879867                0.62464866                0.51566876               -1.80093557                0.14772815                3.33163724               -1.84944477
              12.66890430               11.66641389               43.07733989                0.48496566                8.31919118                0.82052945               -3.18596864               -7.88950060               43.88222344               -3.63644814
              13.82564474               11.00082354               43.40061212                0.44587445               12.64984925               -3.18726938               -2.81562965               -6.40203076               80.68562766               -1.22965075
              14.92190128               10.36820072               43.68440491                0.43597184                7.68712199               -1.77181566               -2.48223416               -2.93559597               78.53466808               -0.43844539
              15.97938718                9.73382185               43.95662304                0.44596345                4.11826341               -0.92440442               -2.12963774               -2.65532524               78.45485854                0.17412445
              17.00426655                9.10109231               44.23193799                0.47528239                0.55368264                0.00564347               -1.73617420               -2.92846802               79.89645402                0.84705577
              17.99046083                8.47403641               44.52693627                0.52810709               -3.96191085                1.21098031               -1.33506757               -4.64986823               80.02507548                2.05520480
              18.92502833                7.85231869               44.79968122                0.60914399               -3.68330679               -0.09184070                0.97666940               -5.24931766               43.69439046                3.42410918
              19.91679469                7.33562563               44.36654269                0.72849561               -0.33921508               -0.03029881                0.22331463               -0.22745670                4.89731083                1.72560598
              20.91824403                6.83033492               43.86426201                0.91357713                0.14493373                0.52097638               -1.39048096                0.20838521                1.47708918               -2.26840146
               5.63964592                2.84072453               46.01573972                1.00000000               -0.72327779               -0.78805981                2.64828029               -0.15290933               -1.90542021                2.15927026
               6.63241314                2.26363580               45.75267244                0.86021832               -0.71629497               -0.49802569                1.94488798               -0.12580675               -2.50196607               -1.08828138
               7.62532002                1.68381527               45.47800121                0.61084921               -0.99174381               -0.26535675                1.15293691               -0.55046338               -2.30978023               -1.12104422
               8.61257827                1.08870894               45.21920494                0.50024497               -1.41438195               -0.11164291                0.41838527               -0.70239329               -0.26023490               -0.26123250
               9.59703238                0.46526933               44.98595154                0.45355419               -1.32035365                0.11667567               -0.36393586               -0.61166397                2.04525681               -0.21162518
              10.58617120               -0.18851675               44.77345412                0.45474580               -0.46377436                0.33609963               -1.18827520               -0.34897460                3.17418027               -0.00088846
              11.58775690               -0.85823412               44.56306251                0.50056505                0.66087105                0.55353651               -1.98495723               -0.32759465                2.31581886                0.19659254
              12.59938862               -1.52399715               44.33405310                0.59763361                1.31495553                0.76170855               -2.70404630               -0.40599376                0.27955294                0.33023586
              13.61405601               -2.17663757               44.08332835                0.76377886                1.43722459                0.94384791               -3.38105667               -0.34995551               -1.67232287                0.49646025
              14.62813311               -2.81812944               43.81486629                1.00000000                1.39503407                1.12804859               -4.07720309               -0.20314312               -2.14422169                1.07519402
              15.64195669               -3.45482638               43.55353878                1.00000000                1.38235806                1.39850950               -4.79995241               -0.19737059               -1.71030352               -1.67583702
               6.21520556                3.83284393               45.90781063                1.00000000               -0.55958539               -0.77170847                2.29856936               -0.05470455                0.42205310                2.57409796
               7.20960971                3.25865554               45.64017322                0.56521262               -0.39633725               -0.41670656                1.58549409               -0.09459078                1.44371991               -1.84558482
               8.20727882                2.68116170               45.39324696                0.12633783                0.26087983               -0.04990308                1.01711509               -0.89695820                3.74264365               -4.26686885
               9.21482730                2.08759251               45.17146757                0.00721467                1.11248875               -0.44448149                0.36719923               -2.04996332                5.89823312               -2.86967649
              10.22952859                1.46643609               44.96730538                0.01000534                1.48029359               -0.81538776               -0.31548704               -3.24424225                7.90562154               -0.79224033
              11.24443318                0.81484424               44.78557017                0.01273425                1.13462796               -0.38765848               -1.06434409               -3.96823259                9.15049372                0.22804888
              12.25222115                0.14730124               44.60619377                0.01318412                0.50486115                0.23879626               -1.79441172               -3.67917368                8.37054972                1.17858384
              13.25453040               -0.51638007               44.40826146                0.10756398                0.27007216                0.44284995               -2.44145668               -2.42582491                6.44011815                3.02141217
              14.25762259               -1.16719909               44.18943328                0.34869273                0.53328427                0.59315543               -3.04923210               -0.95277632                4.75901549                4.15491099
              15.26519608               -1.80684895               43.95706944                0.74522488                0.95286657                0.97983059               -3.64724323               -0.28152481                2.80846914                2.35278420
              16.27667993               -2.44084129               43.69836763                1.00000000                1.14838408                1.41417272               -4.30855525               -0.16848700                1.54976493               -2.26287697
               6.78692861                4.82529036               45.80860847                0.91728802               -0.47250544               -0.73410698                2.04144686               -0.08085522                0.36342261                2.98319321
               7.78220356                4.25530167               45.51271772                0.40036073               -0.42423640               -0.24482759                1.14743818               -0.11745462                1.78983340               -2.72501097
               8.77844389                3.68281721               45.24564455                0.02116582                0.20505279                0.37720143                0.47692235               -1.76712886                7.86480263               -8.92215198
               9.78630462                3.07981931               45.07141231                0.00010000                1.32259612               -0.83041019                0.10429622               -4.32739117               14.53309594               -4.91606049
              10.80489581                2.44896157               44.93669587                0.00010000                1.98183866               -1.40871666               -0.67231494               -6.10297275               16.52054613               -1.77557245
              11.82594139                1.80373008               44.80171183                0.00010000                2.02509633               -1.09671261               -1.27684136               -6.91370187               16.62197420                0.41641763
              12.84539774                1.14654180               44.66826980                0.00010000                1.97155282               -0.45454249               -1.83309161               -6.77765434               16.78572348                2.53705561
              13.86537245                0.48485984               44.53547949                0.00790633                2.00358144               -0.21276662               -2.37226945               -5.16767846               15.11889574                5.53012416
              14.88546936               -0.16477446               44.36768807                0.15527160                1.53861832               -0.91406391               -2.47962341               -2.33803431                9.70095143                9.99383550
              15.89614481               -0.79853283               44.12358813                0.39397753                1.05511258                0.36376215               -3.07319089               -0.72138423                3.45920715                4.01773187
              16.90657162               -1.42654293               43.82996395                0.79708374                1.04268041                1.75831604               -3.89514121               -0.55103924                1.02958719               -2.64595844
               7.35356585                5.81816179               45.70936267                0.89394693               -0.38320771               -0.66772342                1.79286588               -0.05787270                0.05373387                2.91346194
               8.34973377                5.25375899               45.38279080                0.36825689               -0.30736264               -0.10813038                0.77118933                0.00254369                0.60263670               -2.74811396
               9.34741859                4.68870573               45.06736692                0.00626246                0.62006719                0.58416674               -0.17232308               -2.50271844               12.77105579               -9.46824209
              10.36213511                4.07098431               44.98409617                0.00010000                1.80698892               -0.56781526               -0.56424202               -5.23188019               24.30223674               -4.80630082
              11.38355837                3.43826175               44.89857576                0.00010000                2.32218999               -0.90764422               -1.01696273               -6.23551718               24.50531605               -2.18636285
              12.40857891                2.79290999               44.81830200                0.00010000                2.59899627               -1.05462002               -1.47900690               -6.87788453               24.92441328                0.44817112
              13.43553830                2.13821039               44.73966719                0.00010000                2.69570878               -0.97542704               -1.87690987               -6.88230374               25.04170344                3.07370134
              14.46249309                1.47936460               44.66007995                0.01153393                2.93581408               -0.93395964               -2.16574604               -6.62466693               25.59677590                5.82193597
              15.49425458                0.81451964               44.59044635                0.15323452                2.50218910               -1.90198913               -2.37908096               -3.53070477               15.07303138               10.67333746
              16.51253687                0.20042629               44.29844686                0.37103131                1.37123813               -0.05297375               -2.62662055               -0.37433039                2.04672104                3.80572295
              17.52167934               -0.40567496               43.96586669                0.77555143                0.91424712                1.98251963               -3.55203587               -0.09794501                0.07642069               -2.51195464
               7.91457677                6.81193589               45.60908429                0.88011673               -0.28662708               -0.57538618                1.53734447               -0.05704743                0.05677236                2.88121100
               8.91171050                6.25313906               45.25504291                0.35041780               -0.17062853               -0.01647017                0.39500400                0.04699553                0.41908639               -2.60308022
               9.91116420                5.69450054               44.90836808                0.00314113                1.02002454                0.59681844               -0.67956827               -3.14975642               16.96847211               -8.20881667
              10.93211099                5.06846301               44.88513342                0.00010000                2.35477932               -0.10600536               -1.03379809               -6.45894474               33.10387603               -5.24205940
              11.95825978                4.43080869               44.85989201                0.00010000                2.81620364               -0.63899897               -1.36778405               -7.07168268               33.11202758               -2.23639052
              12.98843506                3.78263768               44.83534423                0.00010000                3.15186349               -1.01911412               -1.67036714               -7.47105019               33.33980130                0.49344622
              14.02129705                3.12703326               44.81280803                0.00010000                3.40674013               -1.24105516               -1.90899270               -7.55785188               33.73891110                3.20400807
              15.05656986                2.46618065               44.79410082                0.01668290                3.62482619               -1.44083409               -2.05697234               -7.61450817               34.40216795                6.11456110
              16.09379358                1.79718576               44.78258236                0.16042947                2.61414710               -1.52860867               -2.07634760               -4.14549995               19.40613090                8.70779641
              17.10885280                1.20040770               44.46124524                0.37997918                1.15108252                0.07601390               -2.25212776               -0.38431564                2.02980554                2.88433385
              18.11681523                0.61310747               44.09958185                0.78100369                0.79624222                1.73128222               -3.26318373               -0.02046403                0.06772522               -2.89490739
               8.47001856                7.80665407               45.50945084                0.86796910               -0.19095347               -0.48069062                1.28064906               -0.05609632                0.05623479                2.91790645
               9.46810903                7.25342958               45.12805313                0.33572859               -0.04595241                0.07676612                0.01585808                0.06138989                0.46736896               -2.53447395
              10.46909952                6.70064210               44.75494438                0.00228090                1.42695194                0.65121259               -1.16099858               -3.71461131               21.21836587               -7.83083865
              11.49664807                6.06886420               44.78830420                0.00010000                2.94252657                0.14331275               -1.44364630               -7.56861630               41.57280788               -5.01237247
              12.52795005                5.42548177               44.82042218                0.00010000                3.31426349               -0.45452172               -1.67218601               -8.10223962               41.62161194               -2.19840417
              13.56293334                4.77252771               44.85269134                0.00010000                3.64441184               -1.01091854               -1.84351756               -8.43004113               41.83768209                0.54596948
              14.60083828                4.11338929               44.88679484                0.00010000                3.85585429               -1.42277052               -1.93652507               -8.51353485               42.23161427                3.24534029
              15.64005042                3.45054792               44.92441347                0.02201749                3.81396239               -1.57456651               -1.91958190               -8.63462587               42.73443265                5.88107870
              16.67711753                2.78394746               44.96591089                0.16818701                2.44392138               -1.17431572               -1.66712601               -4.73812849               23.60816722                8.11515464
              17.68892885                2.20194657               44.61777868                0.39002922                0.93764969                0.18390974               -1.88535996               -0.36978226                2.14385114                2.39103272
              18.69587053                1.62895068               44.22744505                0.78718159                0.69416743                1.46097734               -2.99800541               -0.01661267                0.08723356               -3.35272366
               9.01990381                8.80232208               45.41017659                0.85687365               -0.09535427               -0.38608337                1.02271438               -0.05557731                0.05845758                2.92680888
              10.01895026                8.25467438               45.00162691                0.32269809                0.07667731                0.17404892               -0.36458640                0.06492309                0.56092024               -2.48683919
              11.02143735                7.70752479               44.60314226                0.00190779                1.84743601                0.73146197               -1.63774721               -4.21246870               25.51075996               -7.68042773
              12.05589898                7.07132926               44.69323667                0.00010000                3.55570651                0.33653169               -1.82398446               -8.57250094               49.99202608               -4.80169281
              13.09255148                6.42171826               44.78185776                0.00010000                3.80138692               -0.32882727               -1.94375409               -9.12578845               50.04580068               -2.05017233
              14.13192672                5.76241931               44.87025610                0.00010000                4.02273319               -1.00959342               -1.99217840               -9.40132772               50.26123334                0.59855730
              15.17300615                5.09857785               44.96020694                0.00010000                4.06962240               -1.50302394               -1.94713574               -9.40076076               50.64056646                3.21454345
              16.21331917                4.43468932               45.05312899                0.02761422                3.73131036               -1.58941759               -1.76721787               -9.29059447               50.94269123                5.81756652
              17.24763235                3.77369945               45.14608857                0.17609255                2.15673857               -0.91846340               -1.20632000               -4.98699893               27.68763247                7.89867344
              18.25645394                3.20408589               44.77031819                0.40030475                0.74211986                0.21181045               -1.51487872               -0.31738078                2.21186298                2.12053986
              19.26247475                2.64232701               44.35138211                0.79340430                0.60208093                1.22970501               -2.73997452               -0.01543458                0.10710641               -3.61171137
               9.56420242                9.79893240               45.31097488                0.84654975                0.00023618               -0.29224395                0.76317768               -0.05536979                0.05978361                2.90403155
              10.56420478                9.25691056               44.87546680                0.31121141                0.19964227                0.27469938               -0.74581577                0.05946480                0.67757943               -2.46104700
              11.56819526                8.71527134               44.45228038                0.00169058                2.33999048                0.81453187               -2.10710361               -4.67054368               29.85910060               -7.55044270
              12.61100459                8.07559484               44.59994946                0.00010000                4.30744865                0.44678648               -2.18121302               -9.35020927               58.41845493               -4.50627112
              13.65434423                7.41890523               44.74464899                0.00010000                4.35213015               -0.34087401               -2.18589086               -9.81472716               58.38176136               -1.82835654
              14.69804719                6.75233584               44.88793502                0.00010000                4.31044098               -1.02032473               -2.11641006               -9.88819052               58.57899273                0.61681148
              15.74055305                6.08332881               45.03277144                0.00010000                4.05348743               -1.46808919               -1.94653912               -9.82134355               59.02626076                3.07669614
              16.77911694                5.41875956               45.18129852                0.03338887                3.37139638               -1.56172433               -1.62520738               -9.46555652               59.12998876                5.74094610
              17.80798098                4.76557819               45.32482880                0.18429035                1.74183654               -0.72643939               -0.70242453               -5.00520702               31.68656695                7.79570641
              18.81395367                4.20618278               44.92073061                0.41068183                0.55493074                0.18729398               -1.13269272               -0.26499784                2.24165470                2.02603693
              19.81907960                3.65354478               44.47322282                0.79955684                0.51259265                1.02309723               -2.47869575               -0.01761033                0.12472199               -3.68496870
              10.10284009               10.79647720               45.21147105                0.83710042                0.09605380               -0.19945883                0.50145403               -0.05555687                0.07368344                2.87924360
              11.10380062               10.26016837               44.74935637                0.30098436                0.32510608                0.37873840               -1.12771303                0.03774829                0.84320770               -2.48932023
              12.10934221                9.72381543               44.30254796                0.00146304                3.07301418                0.87718951               -2.56538673               -5.17108953               34.36098195               -7.19558486
              13.16526091                9.08026499               44.51020880                0.00010000                5.50868640                0.15653777               -2.50856590               -9.76168753               66.90387371               -3.82331203
              14.21951594                8.41490078               44.70996165                0.00010000                5.22392122               -0.78664956               -2.39290119               -9.36611924               66.52227407               -1.43912806
              15.26973933                7.74201281               44.90524057                0.00010000                4.53198079               -1.02917937               -2.21423824               -9.03608839               66.64640467                0.53990345
              16.31015555                7.06921607               45.10263499                0.00010000                3.60096621               -1.10683497               -1.94391251               -9.10275565               67.35056250                2.59679333
              17.34175866                6.40345483               45.30751665                0.03964483                2.49747249               -1.25984863               -1.52005897               -9.04922568               67.41511551                5.20911954
              18.36010500                5.75917066               45.50254611                0.19284226                1.07143722               -0.54148402               -0.16627761               -4.92647647               35.74870624                7.46121584
              19.36318740                5.20783177               45.07049718                0.42123407                0.36467700                0.12880322               -0.73370870               -0.24485402                2.29567759                2.11427755
              20.36739854                4.66278896               44.59467365                0.80559824                0.42111408                0.83120756               -2.20488446               -0.02343368                0.15964919               -3.62371386
              10.63570894               11.79494322               45.11196671                0.82766719                0.19125702               -0.10798833                0.24044274               -0.05549356               -0.02684131                2.49661668
              11.63762151               11.26448533               44.62235134                0.29130809                0.44839524                0.48405973               -1.51359960               -0.01707601                1.25359925               -2.23900424
              12.64467685               10.73281513               44.15821090                0.00095699                4.35319892                0.86154846               -2.99378497               -5.95436819               39.37383455               -5.34724586
              13.72468549               10.07872559               44.43026208                0.00010000                8.02985907               -1.72097243               -2.77996761               -7.86913649               75.37407903               -2.27687461
              14.80527403                9.40317224               44.68039388                0.00010000                6.91623204               -1.50595551               -2.55203014               -6.44752107               74.12173644               -0.81432795
              15.86301013                8.73175225               44.92115233                0.00010000                4.58909443               -1.00143284               -2.27913717               -5.67016117               74.10078055                0.32516771
              16.89705592                8.06119211               45.16505098                0.00010000                2.25838504               -0.41889415               -1.93265909               -6.10905273               75.28438655                1.54339610
              17.90817783                7.39356259               45.42416298                0.04640927                0.40092980                0.09625276               -1.48599615               -6.66197955               75.80081070                3.38494560
              18.90507451                6.75474851               45.67401006                0.20198997               -0.13697713               -0.21432997                0.36702612               -4.71245425               40.35550630                5.34171166
              19.90543829                6.20875884               45.22173110                0.43205632                0.18110201                0.05057814               -0.31051455               -0.29177164                2.67473439                1.99734908
              20.90869655                5.67016893               44.71659957                0.81132756                0.32582635                0.65642088               -1.91526158               -0.04017817                0.08285281               -2.98944112
              11.16264600               12.79431743               45.00497004                0.91115942                0.29412005               -0.06257903               -0.04961730                0.24691865                1.14873573                2.11583934
              12.16558720               12.26984956               44.50088746                0.64339778                0.66842922                0.53642314               -1.87126675                0.13301709                3.56641423               -1.94049913
              13.17601458               11.74104640               44.04496935                0.48391922                8.59669334                0.82312726               -3.28712809               -8.06642729               45.19445158               -3.79359585
              14.33752107               11.04584554               44.37176966                0.44584902               13.07621340               -3.28800482               -2.95522219               -6.52967909               82.76964659               -1.28953661
              15.43753885               10.38478167               44.65878316                0.43604011                8.03975842               -1.83905719               -2.64848229               -2.96658701               80.56096800               -0.47103797
              16.49831624                9.72198415               44.93449961                0.44574774                4.43126523               -0.97680978               -2.30671386               -2.66656374               80.48821351                0.15672183
              17.52616416                9.06083818               45.21385892                0.47429330                0.83232128               -0.03539271               -1.89776922               -2.91938925               81.95966000                0.83321182
              18.51496266                8.40537989               45.51321782                0.52558841               -3.77522454                1.18172977               -1.43275501               -4.61922332               83.01474392                1.98351230
              19.45065967                7.75488406               45.80832104                0.60434505               -3.65155554                0.01355452                0.71904175               -5.26831238               46.19219285                3.60295161
              20.44193155                7.20884334               45.36823783                0.71991019               -0.34424331                0.00844939                0.10530323               -0.29900812                5.45037845                1.80381322
              21.44377480                6.67591738               44.84955420                0.90756115                0.18432496                0.57484444               -1.56233561                0.21522861                1.56314846               -2.37990676
               5.88690781                2.97225466               47.04253500                1.00000000               -0.73954957               -0.80973683                2.71402727               -0.15963013               -1.95742530                2.21437360
               6.87951232                2.36661346               46.77228982                0.85041495               -0.73437766               -0.50981833                1.98087060               -0.13853096               -2.59792836               -1.17086175
               7.87222026                1.75810551               46.48956295                0.60653558               -1.01068386               -0.26879179                1.15903255               -0.55900491               -2.41879909               -1.10872475
               8.85929864                1.13402387               46.22327828                0.49877298               -1.42616823               -0.10364999                0.39590298               -0.69861238               -0.35781947               -0.27539917
               9.84369689                0.48152408               45.98207365                0.45327284               -1.32872799                0.13519042               -0.41385760               -0.60502615                1.91122510               -0.21945735
              10.83272408               -0.20127807               45.76119938                0.45436376               -0.48599928                0.36529218               -1.26616759               -0.34546388                3.03926713               -0.00567737
              11.83397691               -0.90034505               45.54269778                0.49928237                0.63370125                0.59010927               -2.09416872               -0.31560748                2.23279310                0.19615611
              12.84539811               -1.59618759               45.30631644                0.59439055                1.31475075                0.80452874               -2.85099508               -0.39151417                0.25102359                0.33396256
              13.86027192               -2.27947277               45.04859575                0.75752934                1.47704789                0.99702320               -3.57177158               -0.34463506               -1.69162659                0.48857151
              14.87493906               -2.95172796               44.77294082                1.00000000                1.46389695                1.19130928               -4.31311873               -0.20879461               -2.18465183                1.07497097
              15.88954986               -3.61901426               44.50415595                1.00000000                1.46108004                1.47434596               -5.08070322               -0.21368371               -1.76107770               -1.70406691
               6.49095271                3.96415729               46.93114216                1.00000000               -0.57511308               -0.79679386                2.36819439               -0.06078351                0.49130181                2.67632778
               7.48520158                3.36151527               46.65625240                0.54833948               -0.40138554               -0.42764121                1.62703190               -0.10797589                1.58197006               -1.97685542
               8.48292500                2.75541759               46.40346995                0.12029604                0.27008235               -0.04133313                1.02912606               -0.92653774                3.91228644               -4.46308004
               9.49060323                2.13298737               46.17508666                0.00727645                1.11863010               -0.47380725                0.35720474               -2.06576927                6.00629036               -3.00228399
              10.50529761                1.48287598               45.96400663                0.00995977                1.48003883               -0.81054522               -0.34461100               -3.25101033                7.95368333               -1.01387280
              11.52020401                0.80237485               45.77469347                0.01270012                1.14889943               -0.39208696               -1.11216686               -3.97003893                9.16484713                0.04158731
              12.52827559                0.10555604               45.58792118                0.01344408                0.54214058                0.22615318               -1.86407459               -3.69446209                8.43204532                1.04784661
              13.53104682               -0.58814231               45.38337540                0.10248803                0.31600799                0.45566498               -2.54165655               -2.46824862                6.56537516                2.91425006
              14.53459575               -1.26950253               45.15827193                0.33815821                0.57875216                0.62397292               -3.18863667               -0.96432278                4.91350024                4.26895683
              15.54262186               -1.93981486               44.91969817                0.72633565                1.00517861                1.02759808               -3.83141363               -0.29315371                2.94019488                2.43006884
              16.55469933               -2.60427080               44.65417023                1.00000000                1.20774643                1.48431586               -4.53403306               -0.18536854                1.65304653               -2.32732757
               7.09097618                4.95631878               46.82943219                0.90478788               -0.48836772               -0.75882423                2.11795222               -0.08413351                0.36441594                3.12391149
               8.08609250                4.35806063               46.52431834                0.38626100               -0.43793854               -0.25417786                1.17418927               -0.11891649                1.90797548               -2.87356367
               9.08221741                3.75727885               46.25036848                0.01731820                0.22161800                0.39827664                0.47132027               -1.84322112                8.24237976               -9.38123630
              10.09052486                3.12454773               46.07219379                0.00010000                1.35359016               -0.83578471                0.04992580               -4.40068449               14.84858054               -5.35962446
              11.10928921                2.46531317               45.92966665                0.00010000                2.00591917               -1.41607080               -0.73489069               -6.12760875               16.71071566               -2.20436167
              12.13064325                1.79088019               45.78853222                0.00010000                2.06578052               -1.12247173               -1.36221751               -6.96255490               16.90650404                0.04656448
              13.15060482                1.10417801               45.64941799                0.00010000                2.02242296               -0.49446295               -1.94293469               -6.82152958               17.09817266                2.25766107
              14.17109170                0.41292570               45.51115010                0.00424783                2.10266013               -0.24571174               -2.50225458               -5.22391964               15.67251990                5.36139950
              15.19265802               -0.26699331               45.34245968                0.14708949                1.63762737               -0.91137207               -2.57033224               -2.41531756               10.21828655                9.94935124
              16.20384425               -0.93117599               45.09226292                0.37772294                1.10481676                0.36901700               -3.19624629               -0.75053504                3.60393375                4.09427575
              17.21475436               -1.58932794               44.79018097                0.78554498                1.09101078                1.80689724               -4.06468593               -0.56546827                1.05876285               -2.79179342
               7.68578635                5.94898081               46.72754885                0.88165529               -0.39231525               -0.68511328                1.84908433               -0.05874712                0.05568047                3.04482879
               8.68186319                5.35643172               46.39052879                0.35444855               -0.31064279               -0.11391566                0.77939848                0.01390855                0.64530214               -2.86518155
               9.67957349                4.76338312               46.06549316                0.00604017                0.63460099                0.60277939               -0.20192379               -2.54307753               13.13097808               -9.91301617
              10.69455521                4.11627168               45.97814088                0.00010000                1.84197403               -0.51944314               -0.62718211               -5.31844610               24.88914308               -5.34635748
              11.71641297                3.45455457               45.88795186                0.00010000                2.37664307               -0.90048979               -1.11057457               -6.29451651               25.03854465               -2.60742476
              12.74208807                2.77992541               45.80293005                0.00010000                2.66932570               -1.05590529               -1.60063455               -6.94064906               25.46690538                0.09043593
              13.76979948                2.09566678               45.72018717                0.00010000                2.78258344               -0.98188057               -2.02804331               -6.95275122               25.65670068                2.79661855
              14.79773974                1.40694346               45.63760167                0.00784373                3.02958092               -0.95136491               -2.34343941               -6.68315383               26.28623516                5.66967792
              15.83039110                0.71227002               45.56559641                0.14538891                2.61030254               -1.89395731               -2.61481676               -3.63619012               15.80076757               10.49953699
              16.84994579                0.06756548               45.27164497                0.35583828                1.46513744               -0.06256781               -2.74335599               -0.42493037                2.43048522                3.77363187
              17.85969385               -0.56813285               44.92957954                0.76485577                0.97480576                2.00968824               -3.71482194               -0.09362285                0.08602119               -2.72642882
               8.27489942                6.94261652               46.62469215                0.86808290               -0.29310603               -0.58903303                1.58687234               -0.05752261                0.05816726                3.01177572
               9.27196836                6.35578232               46.25896026                0.33703522               -0.16917601               -0.01697570                0.38964342                0.06065706                0.45679689               -2.72206716
              10.27151590                5.76933443               45.90133644                0.00297262                1.05080689                0.61344975               -0.72605421               -3.18562248               17.40547138               -8.57064577
              11.29298450                5.11415886               45.87438545                0.00010000                2.41146232               -0.06695791               -1.11728835               -6.53786169               33.88835294               -5.65238106
              12.31974514                4.44730338               45.84563800                0.00010000                2.88667775               -0.61042217               -1.48697656               -7.13992928               33.89669519               -2.62927630
              13.35071805                3.76976208               45.81790755                0.00010000                3.23933037               -0.99693815               -1.82472556               -7.54223526               34.14657690                0.16047948
              14.38453175                3.08454040               45.79283375                0.00010000                3.50536657               -1.22021589               -2.09893608               -7.63172845               34.59821257                2.94796156
              15.42082538                2.39389841               45.77248070                0.01284785                3.73902254               -1.41297206               -2.28793478               -7.68506927               35.34356172                5.94895144
              16.45931220                1.69512755               45.76048590                0.15246200                2.74615696               -1.51096729               -2.37106663               -4.23381739               20.36021753                8.73973826
              17.47574852                1.06757265               45.43812390                0.36468853                1.24831789                0.09053304               -2.38276278               -0.44977503                2.50665009                2.82309225
              18.48427856                0.45086583               45.06612980                0.77020994                0.85300392                1.75811478               -3.43862455               -0.01934205                0.08397185               -3.14692990
               8.85830429                7.93720015               46.52246525                0.85621309               -0.19458699               -0.49381042                1.32419023               -0.05691667                0.05776922                3.04627943
               9.85635842                7.35609220               46.12812600                0.32279012               -0.04098957                0.08082522               -0.00134970                0.07486634                0.51630147               -2.65676407
              10.85748450                6.77565212               45.74303578                0.00214647                1.47353075                0.67062842               -1.22235576               -3.74951246               21.76393510               -8.17754700
              11.88582903                6.11493252               45.77336654                0.00010000                3.02633347                0.18057083               -1.54597365               -7.65212211               42.56458993               -5.37197642
              12.91801117                5.44234612               45.80301723                0.00010000                3.40886574               -0.41500195               -1.81432917               -8.17890658               42.63841231               -2.53919748
              13.95400635                4.75998665               45.83340343                0.00010000                3.75087110               -0.97121806               -2.02440886               -8.49994780               42.89050932                0.25312315
              14.99302859                4.07126246               45.86641709                0.00010000                3.97224300               -1.37834742               -2.15628357               -8.57910423               43.34863323                3.02510682
              16.03345121                3.37868402               45.90405322                0.01806133                3.95059616               -1.52604337               -2.17925619               -8.70368244               43.99084005                5.77025225
              17.07204051                2.68205068               45.94774065                0.15994461                2.58804028               -1.15531254               -2.00135842               -4.83096577               24.77930653                8.26239973
              18.08521201                2.06937614               45.59825049                0.37448542                1.03400731                0.21794745               -2.03215234               -0.43303924                2.65596937                2.34514195
              19.09272066                1.46702944               45.19657850                0.77628140                0.75086440                1.49895069               -3.18890517               -0.01346701                0.10687044               -3.61509474
               9.43597697                8.93274031               46.42058290                0.84535184               -0.09632590               -0.39821920                1.06024433               -0.05652835                0.06031955                3.05333197
              10.43501372                8.35739882               45.99784038                0.31032910                0.08541801                0.18230586               -0.39352819                0.07619686                0.62413247               -2.61051090
              11.43768533                7.78274700               45.58639695                0.00178690                1.91171668                0.75532780               -1.71146200               -4.25057670               26.18126896               -8.02025976
              12.47324805                7.11777028               45.67442083                0.00010000                3.67137737                0.37182146               -1.94217071               -8.65953233               51.20670829               -5.12602413
              13.51111288                6.43900334               45.76165357                0.00010000                3.92773539               -0.28968802               -2.10392954               -9.20416344               51.29466083               -2.34258537
              14.55180276                5.75033772               45.84940140                0.00010000                4.15697095               -0.96504379               -2.19146448               -9.46269673               51.55759054                0.35566636
              15.59425230                5.05697345               45.93966301                0.00010000                4.20803799               -1.45013190               -2.18257161               -9.45053075               52.01974414                3.04095441
              16.63596352                4.36337754               46.03427469                0.02339036                3.88742330               -1.53149892               -2.03517085               -9.36390022               52.54185377                5.74466324
              17.67200077                3.67202130               46.13244096                0.16765044                2.30727283               -0.89372773               -1.56186734               -5.08290757               29.07787254                8.12202425
              18.68210897                3.07193160               45.75443854                0.38448155                0.83509213                0.25753294               -1.67453513               -0.37093831                2.73835468                2.09997690
              19.68870261                2.48084484               45.32303793                0.78232919                0.65936365                1.27843432               -2.94450246               -0.01113593                0.12989363               -3.86901323
              10.00785669                9.92923576               46.31875799                0.83533482                0.00189721               -0.30290386                0.79479692               -0.05641823                0.06181377                3.02829161
              11.00787566                9.35973832               45.86781060                0.29918651                0.21224081                0.28708871               -0.78672943                0.06779865                0.75995099               -2.58503576
              12.01210151                8.79075867               45.43079382                0.00157337                2.42531926                0.84303519               -2.18990689               -4.71843527               30.66651730               -7.87857316
              13.05638205                8.12236895               45.57750021                0.00010000                4.46294748                0.47349001               -2.31203010               -9.44499852               59.86745022               -4.79378657
              14.10136046                7.43655236               45.72196694                0.00010000                4.52001268               -0.31449747               -2.35823227               -9.89087214               59.86543241               -2.06805696
              15.14678230                6.74068577               45.86580032                0.00010000                4.48088478               -0.98651035               -2.32501822               -9.93330699               60.11427233                0.42894449
              16.19097815                6.04225982               46.01223796                0.00010000                4.21715273               -1.42003574               -2.18378101               -9.84728310               60.65849672                2.94600776
              17.23112536                5.34805404               46.16394919                0.02899105                3.54250740               -1.50238171               -1.87979057               -9.53848053               61.09550736                5.68193354
              18.26182830                4.66417612               46.31619651                0.17554940                1.89221734               -0.69464874               -1.06591589               -5.10435032               33.31292187                8.08041252
              19.26896970                4.07452680               45.90864232                0.39456157                0.64215782                0.23843793               -1.29932600               -0.30849301                2.76950855                2.03653871
              20.27467146                3.49259813               45.44745103                0.78828923                0.57017533                1.07998677               -2.69222329               -0.01312294                0.14998712               -3.92532668
              10.57384350               10.92668223               46.21660789                0.82621245                0.10032822               -0.20846919                0.52689200               -0.05681003                0.07626362                3.00228904
              11.57484678               10.36314060               45.73782341                0.28944218                0.34212531                0.39525212               -1.18048924                0.04173965                0.95032803               -2.61467675
              12.58068600                9.79960771               45.27643314                0.00135264                3.18538057                0.90418054               -2.65854317               -5.23903079               35.32099897               -7.50156101
              13.63855439                9.12724008               45.48444256                0.00010000                5.71463054                0.16144638               -2.64740242               -9.87096517               68.59819048               -4.05648621
              14.69497861                8.43271339               45.68517876                0.00010000                5.44373831               -0.78707773               -2.57182499               -9.43460735               68.23725383               -1.61483381
              15.74742916                7.73060751               45.88212441                0.00010000                4.74798809               -1.01877797               -2.42440780               -9.05891123               68.40302806                0.41268288
              16.78993837                7.02857273               46.08218365                0.00010000                3.79242246               -1.07899767               -2.17117634               -9.09600851               69.20812007                2.50785256
              17.82327760                6.33332990               46.29139151                0.03498778                2.67513139               -1.20648419               -1.74321097               -9.09699670               69.76609290                5.13304155
              18.84344100                5.65812832               46.49930767                0.18381606                1.21197514               -0.49398625               -0.52406134               -5.02998651               37.64436047                7.78190887
              19.84751711                5.07670036               46.06240179                0.40473890                0.44282410                0.18040751               -0.90030340               -0.28354547                2.81964148                2.16133513
              20.85229748                4.50244457               45.57162573                0.79410491                0.47803766                0.89288265               -2.42135579               -0.01967259                0.18805718               -3.83900460
              11.13380376               11.92506638               46.11446537                0.81704118                0.19812255               -0.11526628                0.25992910               -0.05691673               -0.03014752                2.60473903
              12.13578499               11.36764336               45.60690149                0.28024245                0.47088262                0.50442000               -1.57825151               -0.02404949                1.39919304               -2.35052272
              13.14322141               10.80884228               45.12778294                0.00088965                4.50360386                0.87086778               -3.09073399               -6.04101799               40.51579406               -5.57017123
              14.22585706               10.12559787               45.40175822                0.00010000                8.30397332               -1.76112179               -2.92327010               -7.96810017               77.31850750               -2.41965715
              15.30930088                9.42081081               45.65400801                0.00010000                7.19438356               -1.53559984               -2.73285649               -6.49377911               76.04311855               -0.90795388
              16.36974473                8.72031021               45.89740215                0.00010000                4.85173562               -1.01728932               -2.48615629               -5.67422051               76.04640583                0.26281183
              17.40633559                8.02067987               46.14478621                0.00010000                2.49425523               -0.42160361               -2.14530087               -6.07913480               77.30703553                1.50018512
              18.41962984                7.32392435               46.40858548                0.04149420                0.57612644                0.11335331               -1.66661214               -6.66837456               78.53330779                3.31249199
              19.41785812                6.65429640               46.67617809                0.19265090               -0.03236480               -0.11862871                0.02337892               -4.76891184               42.57346378                5.58944946
              20.41898254                6.07813495               46.21790901                0.41519935                0.24657260                0.09940356               -0.46890909               -0.33943092                3.20718128                2.06744472
              21.42278957                5.51045578               45.69646642                0.79961810                0.38070296                0.71914766               -2.12788839               -0.03907728                0.10849907               -3.15234710
              11.68755120               12.92437691               46.00453422                0.90595334                0.30386879               -0.06894726               -0.03721721                0.25995275                1.19643943                2.20875753
              12.69058988               12.37322900               45.48181212                0.63796289                0.71799672                0.55856363               -1.94617693                0.11289751                3.83189783               -2.03597250
              13.70191113               11.81702506               45.01159733                0.48280861                8.83169896                0.81827765               -3.38497304               -8.19159599               46.55864155               -3.95403065
              14.86722386               11.09201764               45.34150767                0.44583110               13.42397806               -3.35802310               -3.09917275               -6.61450339               84.89332629               -1.35115707
              15.97039069               10.40200139               45.63143526                0.43615256                8.34259103               -1.88094153               -2.82743767               -2.97881467               82.62866544               -0.50506848
              17.03407568                9.71026173               45.91048876                0.44549042                4.71754238               -1.00484885               -2.50922779               -2.65994154               82.57383100                0.13989434
              18.06474154                9.02014066               46.19398261                0.47331689                1.11089505               -0.05392076               -2.10132291               -2.89264298               84.10716105                0.82583432
              19.05629358                8.33559697               46.49828117                0.52301445               -3.54446827                1.16726168               -1.58822406               -4.55287118               86.00300909                1.93398263
              19.99385217                7.65575575               46.81406206                0.59960674               -3.58622390                0.14593472                0.38666270               -5.24602182               48.74653121                3.78841929
              20.98456911                7.07868843               46.36864876                0.71140719               -0.34889531                0.05534813               -0.03696727               -0.38775456                6.11861200                1.88148252
              21.98687427                6.51682753               45.83301530                0.90160560                0.23051606                0.63717449               -1.76108369                0.22237946                1.65834520               -2.49956244
               6.14098778                3.10779768               48.07002027                1.00000000               -0.75611589               -0.83243878                2.78220893               -0.16809700               -2.00895045                2.27343384
               7.13342662                2.47229339               47.79228986                0.84057212               -0.75161047               -0.52034741                2.01800477               -0.14907497               -2.69295604               -1.25331086
               8.12595557                1.83382679               47.50118186                0.60222004               -1.02577239               -0.27322089                1.16607920               -0.56198650               -2.52760085               -1.09362929
               9.11291118                1.17958421               47.22712300                0.49741407               -1.43098907               -0.09528844                0.37385210               -0.69010237               -0.45608371               -0.28984368
              10.09733579                0.49701423               46.97767438                0.45299293               -1.32893813                0.15514018               -0.46724136               -0.59416972                1.77677235               -0.22674847
              11.08633241               -0.21561849               46.74813076                0.45408576               -0.50200460                0.39616275               -1.35087074               -0.34028539                2.90391844               -0.01038578
              12.08729570               -0.94475779               46.52117914                0.49812725                0.60893514                0.62957598               -2.21483212               -0.30242539                2.14912097                0.19529677
              13.09851112               -1.67143584               46.27703320                0.59124628                1.31516970                0.85071117               -3.01175240               -0.37543236                0.22113527                0.33696852
              14.11359909               -2.38621850               46.01189292                0.75137658                1.51843800                1.05346175               -3.77573757               -0.33836989               -1.71342712                0.48043900
              15.12887988               -3.09014472               45.72860391                1.00000000                1.53528917                1.25750373               -4.56008237               -0.21370846               -2.22772410                1.07384054
              16.14430488               -3.78893629               45.45192472                1.00000000                1.54250012                1.55234247               -5.36998179               -0.22997119               -1.81431499               -1.73110476
               6.77481111                4.09947329               47.95517452                0.98897570               -0.58897862               -0.82178885                2.43641194               -0.06549501                0.56358395                2.78411486
               7.76892132                3.46708991               47.67271385                0.53143218               -0.40604072               -0.43696893                1.66357202               -0.11892770                1.72907175               -2.10998209
               8.76669029                2.83109458               47.41382948                0.11421466                0.27475530               -0.03287583                1.04395832               -0.94990621                4.09534119               -4.66876011
               9.77441643                2.17863133               47.17861167                0.00736373                1.11525752               -0.50058059                0.34861729               -2.07310326                6.12982078               -3.16557376
              10.78899544                1.49856564               46.96041316                0.00995169                1.46995725               -0.80425588               -0.37500743               -3.24261476                8.01944158               -1.26434072
              11.80381557                0.78834314               46.76332683                0.01272710                1.15923393               -0.39783618               -1.16334927               -3.95199747                9.19831422               -0.18188080
              12.81218012                0.06153797               46.56891228                0.01378578                0.58357859                0.20934122               -1.94237947               -3.69121261                8.50856446                0.87389395
              13.81548714               -0.66292873               46.35742833                0.09753445                0.36948560                0.46487060               -2.65297276               -2.49759079                6.69842605                2.76490650
              14.81956983               -1.37568388               46.12566054                0.32763398                0.63072701                0.65532949               -3.33944812               -0.97588908                5.06949246                4.38118349
              15.82810169               -2.07756968               45.88044116                0.70758045                1.06134486                1.07753028               -4.02413741               -0.30533287                3.07313755                2.51075209
              16.84079673               -2.77341286               45.60768697                1.00000000                1.26950469                1.55740927               -4.76552453               -0.20402279                1.75913051               -2.39097822
               7.40444465                5.09136190               47.85096751                0.89219028               -0.50178595               -0.78374390                2.18890441               -0.08536680                0.36186078                3.26786941
               8.39942679                4.46355401               47.53620151                0.37213808               -0.45143078               -0.26382374                1.20190622               -0.12092293                2.02991093               -3.03044851
               9.39541603                3.83316927               47.25507095                0.01363783                0.22756324                0.41914328                0.47041044               -1.91228152                8.62087450               -9.86537421
              10.40397805                3.16957260               47.07241083                0.00010000                1.36778267               -0.83829175               -0.00770982               -4.45986517               15.17460518               -5.84224088
              11.42277168                2.48092912               46.92199806                0.00010000                2.01710408               -1.42118647               -0.80066420               -6.13015799               16.92773974               -2.68950620
              12.44432013                1.77642479               46.77446748                0.00010000                2.09858165               -1.14998800               -1.45486866               -6.98169754               17.21017400               -0.39435252
              13.46474332                1.05942903               46.62941111                0.00010000                2.07305071               -0.54054829               -2.06511820               -6.83713255               17.43269274                1.89481857
              14.48578115                0.33786157               46.48543440                0.00061007                2.19894747               -0.28218581               -2.64988932               -5.26097678               16.28525799                5.10042385
              15.50872227               -0.37311191               46.31628142                0.13889554                1.73605257               -0.89159802               -2.67360244               -2.48994481               10.78836442                9.79566480
              16.52050220               -1.06859411               46.05966320                0.36153638                1.15942568                0.38038153               -3.32690906               -0.78072141                3.75586559                4.14918551
              17.53191078               -1.75778810               45.74867024                0.77397639                1.14085814                1.86302447               -4.24019180               -0.58270357                1.08726786               -2.96430522
               8.02871957                6.08379842               47.74634435                0.86946689               -0.40240677               -0.70534502                1.91214603               -0.06053574                0.05669757                3.17910867
               9.02469550                5.46181344               47.39837877                0.34085028               -0.31467493               -0.12267493                0.79219347                0.02271899                0.69208944               -2.99360454
              10.02242607                4.83947744               47.06332844                0.00579538                0.63818891                0.61878660               -0.22976365               -2.57577714               13.50322045              -10.38021181
              11.03745928                4.16186549               46.97155253                0.00010000                1.85570137               -0.46914421               -0.69125006               -5.38685524               25.49110384               -5.91325195
              12.05954010                3.47014191               46.87636426                0.00010000                2.41112153               -0.88856623               -1.20995341               -6.33111048               25.58825806               -3.08031687
              13.08568171                2.76534338               46.78628931                0.00010000                2.72302973               -1.05254552               -1.73352832               -6.97820936               26.02598779               -0.33500014
              14.11400069                2.05072700               46.69910633                0.00010000                2.85634205               -0.98332330               -2.19827600               -6.99854917               26.28890661                2.43702655
              15.14280855                1.33142756               46.61321116                0.00406360                3.11129675               -0.95767257               -2.55026967               -6.71175212               26.97640358                5.41584282
              16.17622662                0.60648416               46.53815002                0.13749503                2.71774500               -1.85259031               -2.89827132               -3.73785770               16.61295072               10.16560511
              17.19716345               -0.06996205               46.24357974                0.34074643                1.56520047               -0.05709331               -2.87804386               -0.48984117                2.90790296                3.68463908
              18.20753063               -0.73615237               45.89157025                0.75429508                1.03671859                2.04789996               -3.89496975               -0.09042761                0.09743789               -3.00013015
               8.64720389                7.07725500               47.64082174                0.85609129               -0.30017489               -0.60547563                1.64157279               -0.05880529                0.05988720                3.14743134
               9.64420214                6.46110051               47.26283578                0.32376590               -0.16777296               -0.01996277                0.38648614                0.07295106                0.50227463               -2.84969040
              10.64384843                5.84554500               46.89384699                0.00278808                1.06871714                0.62766038               -0.77191155               -3.20995938               17.85821584               -8.94845890
              11.66557648                5.16018972               46.86278765                0.00010000                2.44115786               -0.02380977               -1.20345032               -6.59440316               34.68844349               -6.09530872
              12.69267159                4.46315779               46.83015248                0.00010000                2.92971844               -0.57298217               -1.61427065               -7.18372629               34.69523418               -3.06906224
              13.72417085                3.75537388               46.79884972                0.00010000                3.30082864               -0.96235306               -1.99528449               -7.58666378               34.96447535               -0.23414530
              14.75868816                3.03976256               46.77082931                0.00010000                3.58090475               -1.18324185               -2.31646753               -7.67526470               35.46269424                2.61710979
              15.79578895                2.31870812               46.74834212                0.00898348                3.83332802               -1.36342921               -2.56272295               -7.70955795               36.27406548                5.69456426
              16.83535472                1.58983629               46.73516103                0.14449458                2.87764794               -1.46218811               -2.72896034               -4.30821664               21.41983721                8.67428533
              17.85334191                0.93026402               46.41358999                0.34944805                1.35640747                0.12484095               -2.53724848               -0.53097249                3.10255473                2.69993323
              18.86248287                0.28316990               46.03080936                0.75959302                0.91409638                1.79465142               -3.63947535               -0.01834823                0.10504059               -3.46247364
               9.25985245                8.07168890               47.53593465                0.84445841               -0.19879284               -0.50795144                1.37186179               -0.05790466                0.05967020                3.18037885
              10.25786452                7.46141418               47.12802613                0.30999733               -0.03573905                0.08395272               -0.01861294                0.08792362                0.57416040               -2.78597144
              11.25913767                6.85203065               46.73049726                0.00199489                1.50469498                0.69082803               -1.28419053               -3.76955125               22.32856283               -8.53761858
              12.28795842                6.16138930               46.75738473                0.00010000                3.07718680                0.22426995               -1.65242582               -7.70741680               43.57316102               -5.76090076
              13.32068141                5.45868226               46.78413560                0.00010000                3.46926179               -0.36204746               -1.96748735               -8.22502205               43.66773831               -2.92195237
              14.35734366                4.74609632               46.81220316                0.00010000                3.82398744               -0.91190677               -2.22677641               -8.53609314               43.95149377               -0.09211384
              15.39716116                4.02706216               46.84366917                0.00010000                4.06000053               -1.30932438               -2.41240941               -8.60488806               44.46823982                2.74493379
              16.43854367                3.30415897               46.88082834                0.01397757                4.06726190               -1.45107482               -2.49634616               -8.71162080               45.22965037                5.59940692
              17.47850639                2.57724040               46.92588372                0.15181639                2.73333580               -1.10761068               -2.40971933               -4.89764880               26.06208313                8.33537572
              18.49321039                1.93253477               46.57713563                0.35906614                1.14227597                0.27147929               -2.20643355               -0.51087883                3.30136047                2.24339059
              19.50135191                1.29974066               46.16366695                0.76548632                0.81415278                1.54521610               -3.41095435               -0.00986190                0.13226047               -3.93512183
               9.86659524                9.06709597               47.43138148                0.83388902               -0.09763730               -0.41078285                1.10113350               -0.05758973                0.06239221                3.18551270
              10.86561887                8.46277956               46.99375635                0.29789557                0.09435240                0.19063182               -0.42402354                0.08845156                0.70000199               -2.74074594
              11.86848229                7.85936156               46.56891302                0.00164944                1.95788341                0.78165152               -1.78414340               -4.27030592               26.87445370               -8.36860188
              12.90477653                7.16467512               46.65439325                0.00010000                3.74909187                0.41540330               -2.06591577               -8.71113321               52.43894809               -5.47576844
              13.94346412                6.45591684               46.73977917                0.00010000                4.01462772               -0.23316852               -2.27767601               -9.24340043               52.55721464               -2.66945088
              14.98506909                5.73713575               46.82642681                0.00010000                4.25318116               -0.89522981               -2.41715345               -9.48114038               52.86361120                0.07211804
              16.02852775                5.01357608               46.91655551                0.00010000                4.31546047               -1.36669174               -2.46245568               -9.45180771               53.40547627                2.82608014
              17.07137830                4.28968663               47.01242558                0.01917582                4.02491005               -1.44387790               -2.37134241               -9.36835719               54.11992452                5.63922139
              18.10902595                3.56768407               47.11485122                0.15922406                2.46228856               -0.84603320               -2.00255012               -5.14765637               30.57923879                8.29574974
              19.12062407                2.93569361               46.73682749                0.36882620                0.94239528                0.32077696               -1.86456176               -0.43654587                3.40377725                2.03421228
              20.12787385                2.31407422               46.29249206                0.77139922                0.72497852                1.33548912               -3.18375025               -0.00643856                0.15862113               -4.17483669
              10.46733348               10.06347325               47.32687082                0.82419033                0.00344866               -0.31401878                0.82895143               -0.05768909                0.06377576                3.15791575
              11.46736797                9.46522682               46.85973221                0.28717252                0.22512581                0.30021900               -0.83012110                0.07767492                0.85973024               -2.71536772
              12.47183600                8.86766368               46.40848224                0.00144228                2.49062546                0.87167662               -2.27435263               -4.74343529               31.50312285               -8.21700992
              13.51718048                8.16969737               46.55370885                0.00010000                4.57583858                0.51010669               -2.44805287               -9.49711120               61.33659611               -5.10056453
              14.56335277                7.45401889               46.69748434                0.00010000                4.64405693               -0.26769097               -2.54604587               -9.91952973               61.36683742               -2.33375075
              15.61006162                6.72819172               46.84143466                0.00010000                4.61106760               -0.92355540               -2.56387215               -9.92823218               61.66508563                0.21311235
              16.65557412                5.99972833               46.98909582                0.00010000                4.35034575               -1.33756087               -2.47172876               -9.81936020               62.30819442                2.79298093
              17.69706853                5.27528141               47.14370271                0.02457368                3.69860817               -1.41036270               -2.21180120               -9.54152019               63.03710431                5.61676439
              18.72954628                4.56031973               47.30351048                0.16685857                2.05103937               -0.64284096               -1.52177476               -5.16875625               35.04414966                8.33803593
              19.73808932                3.93895031               46.89474409                0.37863108                0.74578137                0.30490902               -1.49839690               -0.36155968                3.43872969                2.01381700
              20.74446191                3.32645044               46.41937836                0.77719227                0.63725939                1.14596263               -2.94235657               -0.00808994                0.18140148               -4.20378235
              11.06193431               11.06081560               47.22200889                0.81531665                0.10476172               -0.21807861                0.55429346               -0.05815150                0.07900955                3.13066546
              12.06298193               10.46878394               46.72574659                0.27798648                0.36043602                0.41296729               -1.23656882                0.04496678                1.07817585               -2.74621629
              13.06914303                9.87679509               46.24937710                0.00123105                3.27485838                0.92919197               -2.74875877               -5.28033479               36.31809697               -7.81537158
              14.12847910                9.17487725               46.45726075                0.00010000                5.87180685                0.17849882               -2.79133491               -9.92909903               70.31921515               -4.30302828
              15.18657917                8.45056302               46.65852515                0.00010000                5.61579554               -0.76311154               -2.76680273               -9.45364557               69.97565296               -1.80788423
              16.24079501                7.71866464               46.85675242                0.00010000                4.92358417               -0.97737930               -2.66694561               -9.03198659               70.18487376                0.26905971
              17.28505085                6.98682486               47.05921147                0.00010000                3.95807406               -1.01657377               -2.45291638               -9.03730447               71.09996805                2.41171947
              18.31995649                6.26147937               47.27265243                0.03031011                2.84655384               -1.11793227               -2.04969928               -9.08070152               72.09357631                5.07427074
              19.34198193                5.55482725               47.49206488                0.17488291                1.36528394               -0.42683078               -0.97899290               -5.10068044               39.63141085                8.09287849
              20.34726217                4.94179179               47.05249111                0.38844649                0.53649302                0.24552293               -1.10051215               -0.33147560                3.48367648                2.18713509
              21.35271179                4.33699347               46.54624654                0.78278134                0.54496226                0.96409938               -2.67508411               -0.01534176                0.22321275               -4.08216134
              11.65023376               12.05911167               47.11716530                0.80638257                0.20540445               -0.12303522                0.28076912               -0.05831772               -0.03335496                2.71783371
              12.65228781               11.47348616               46.59078631                0.26911629                0.49511144                0.52624486               -1.64715767               -0.03420168                1.57361138               -2.46751876
              13.66013599               10.88624752               46.09639622                0.00082074                4.62713790                0.87709588               -3.18490773               -6.09349928               41.70534651               -5.79521651
              14.74483057               10.17326734               46.37179668                0.00010000                8.51782389               -1.77768732               -3.06990515               -8.02101486               79.29536134               -2.57082345
              15.83049247                9.43875666               46.62573675                0.00010000                7.41647398               -1.53686129               -2.92879078               -6.50356488               77.99450704               -1.01011205
              16.89316005                8.70864414               46.87142920                0.00010000                5.07604135               -1.00279046               -2.72533283               -5.64546532               78.02700289                0.19306168
              17.93201330                7.97939685               47.12214496                0.00010000                2.71460304               -0.39313893               -2.41309909               -6.01286287               79.38557171                1.45663709
              18.94745211                7.25292277               47.39083073                0.03659725                0.76034811                0.15943960               -1.93116843               -6.63134167               81.24408190                3.26489789
              19.94722026                6.55178312               47.67447763                0.18338011                0.09207387                0.00286313               -0.41825887               -4.79106152               44.86829387                5.83597878
              20.94929359                5.94386077               47.21235292                0.39861062                0.32657213                0.16008504               -0.66106955               -0.39811524                3.87854629                2.12838768
              21.95375170                5.34573243               46.67404181                0.78803095                0.44581180                0.79174544               -2.37688642               -0.03799206                0.14065613               -3.33175007
              12.23201898               13.05835489               47.00422570                0.90072632                0.31430719               -0.07567784               -0.02425727                0.27391577                1.24665909                2.30613460
              13.23516205               12.47930884               46.46196392                0.63261245                0.77364454                0.58226764               -2.02639839                0.08652985                4.13596257               -2.13610458
              14.24749187               11.89433701               45.97726989                0.48170036                9.01938041                0.80894918               -3.48048152               -8.26367926               47.98706820               -4.11963033
              15.41554966               11.13932350               46.30978620                0.44578256               13.68196031               -3.39438374               -3.24381774               -6.65365164               87.05447982               -1.41483228
              16.52113107               10.41982580               46.60223441                0.43622888                8.58479258               -1.89308641               -3.01870052               -2.97187346               84.73186612               -0.54144369
              17.58724551                9.69860883               46.88431505                0.44527447                4.96919454               -1.00353107               -2.74064020               -2.63463953               84.69904225                0.12195968
              18.62051497                8.97896208               47.17183246                0.47230691                1.38489411               -0.04347717               -2.35687889               -2.84686651               86.32176978                0.82221660
              19.61494339                8.26466816               47.48145334                0.52049268               -3.26461316                1.17453941               -1.82374939               -4.45474991               88.97075981                1.90909754
              20.55522270                7.55488452               47.81605430                0.59488476               -3.47964194                0.31013982               -0.04248998               -5.18348958               51.38052973                3.97911523
              21.54535055                6.94499349               47.36749849                0.70299451               -0.35070377                0.11327215               -0.21139561               -0.49710986                6.93159243                1.95737884
              22.54820863                6.35282838               46.81433253                0.89572793                0.28580743                0.70959553               -1.99399855                0.22918189                1.76206641               -2.62811018
               6.40218963                3.24741484               49.09817918                1.00000000               -0.76980288               -0.85224941                2.84463981               -0.17594967               -2.05723738                2.33646259
               7.39449160                2.58069925               48.81264991                0.83071575               -0.76772651               -0.52952646                2.05247206               -0.16021245               -2.78624806               -1.33243471
               8.38683510                1.91093768               48.51288454                0.59793452               -1.04035775               -0.27843851                1.17804377               -0.56258826               -2.63845738               -1.07581980
               9.37368445                1.22524966               48.23075533                0.49597582               -1.43052610               -0.08615912                0.35276648               -0.67815436               -0.55943424               -0.30471518
              10.35822458                0.51151155               47.97272883                0.45269245               -1.31933739                0.17539426               -0.52345133               -0.58170943                1.63692455               -0.23434857
              11.34729770               -0.23187793               47.73418196                0.45392009               -0.50838441                0.42784435               -1.44262840               -0.33350090                2.76409826               -0.01477858
              12.34805689               -0.99190541               47.49840114                0.49693305                0.59046659                0.67073563               -2.34594434               -0.28917849                2.06073143                0.19378945
              13.35910703               -1.75023848               47.24608139                0.58816796                1.31878911                0.89931117               -3.18530595               -0.35868641                0.18655763                0.33972884
              14.37443267               -2.49739924               46.97308100                0.74542085                1.56228751                1.11318693               -3.99313442               -0.33034786               -1.73958384                0.47246315
              15.39035278               -3.23392564               46.68173917                1.00000000                1.60946425                1.32665335               -4.81880384               -0.21753960               -2.27361815                1.07157908
              16.40662196               -3.96516085               46.39675631                1.00000000                1.62691766                1.63249713               -5.66906599               -0.24668354               -1.86933005               -1.75841023
               7.06714573                4.23889234               48.97987040                0.97526695               -0.60176711               -0.84542503                2.50236024               -0.07104725                0.64038383                2.89892073
               8.06112805                3.57540398               48.68952384                0.51437641               -0.41058567               -0.44562486                1.69793527               -0.13216830                1.88446471               -2.24529618
               9.05893401                2.90815330               48.42434911                0.10811645                0.27439569               -0.02326406                1.06226513               -0.97127197                4.29084971               -4.88336542
              10.06661597                2.22438807               48.18205900                0.00746507                1.10186317               -0.52438057                0.34124938               -2.07411935                6.26421696               -3.36194560
              11.08097128                1.51326549               47.95650648                0.00997206                1.45276021               -0.79698021               -0.40731097               -3.22123845                8.10031792               -1.54582703
              12.09567117                0.77240052               47.75142648                0.01280710                1.16870540               -0.40457071               -1.22067251               -3.91637887                9.24663090               -0.44468553
              13.10434538                0.01480194               47.54907359                0.01419842                0.62979537                0.18928756               -2.02970733               -3.67055106                8.59575677                0.65376838
              14.10826708               -0.74124537               47.33031595                0.09258064                0.43136952                0.46949192               -2.77490721               -2.51248965                6.83734814                2.56959705
              15.11297277               -1.48626737               47.09148297                0.31728962                0.68955553                0.69148773               -3.50006442               -0.98249513                5.22738442                4.48855291
              16.12205819               -2.22065911               46.83921542                0.68896693                1.12087778                1.12973928               -4.22400883               -0.31742695                3.20859652                2.59392207
              17.13539033               -2.94883588               46.55885974                1.00000000                1.33321391                1.63317604               -5.00239000               -0.22449232                1.86878002               -2.45616018
               7.72774541                5.23050634               48.87321028                0.87971192               -0.51581288               -0.80917932                2.26207433               -0.08667175                0.35785352                3.41845528
               8.72258728                4.57178675               48.54835646                0.35799374               -0.46599168               -0.27393139                1.22959289               -0.12205491                2.15636860               -3.19789081
               9.71842558                3.91047240               48.25977668                0.01343072                0.22512906                0.44247755                0.47165667               -1.97472908                8.99766814              -10.37756442
              10.72708986                3.21476205               48.07203959                0.00010000                1.36808905               -0.83791254               -0.06795054               -4.50874771               15.50885172               -6.36588192
              11.74578736                2.49557195               47.91365337                0.00010000                2.01719053               -1.42358423               -0.87095862               -6.11306534               17.17123355               -3.23434765
              12.76743367                1.76003066               47.75943485                0.00010000                2.12521999               -1.17786749               -1.55608132               -6.97485068               17.53089267               -0.91153257
              13.78829176                1.01188034               47.60811562                0.00010000                2.12464391               -0.59064171               -2.20089652               -6.82844610               17.78649467                1.44081024
              14.80992655                0.25915135               47.45815231                0.00010000                2.29523754               -0.32010176               -2.81666227               -5.27463906               16.95806954                4.73666784
              15.83419651               -0.48356949               47.28898763                0.13074312                1.83230999               -0.85150534               -2.78844425               -2.55867240               11.41795531                9.51371397
              16.84657275               -1.21133086               47.02572474                0.34537584                1.21445711                0.39952919               -3.46215374               -0.81512094                3.91985098                4.17433236
              17.85848565               -1.93249733               46.70537713                0.76257040                1.19128993                1.92806531               -4.41978576               -0.60308494                1.11521074               -3.17384664
               8.38285147                6.22270876               48.76579177                0.85733612               -0.41305762               -0.72657431                1.97917552               -0.06215684                0.05754716                3.31637656
               9.37872089                5.56992535               48.40637266                0.32715524               -0.31936670               -0.13228018                0.80636768                0.03477039                0.74335870               -3.13506609
              10.37646413                4.91700285               48.06089789                0.00553022                0.63102881                0.63620161               -0.25679924               -2.59963864               13.88625279              -10.87561588
              11.39134147                4.20762981               47.96431588                0.00010000                1.84886104               -0.41707764               -0.75691546               -5.44255100               26.10700971               -6.50791714
              12.41344135                3.48479381               47.86375279                0.00010000                2.42621504               -0.87105743               -1.31551790               -6.34931228               26.15326963               -3.60842247
              13.43986577                2.74884317               47.76825948                0.00010000                2.76072054               -1.04326675               -1.87872901               -6.99538261               26.59895873               -0.83410343
              14.46865577                2.00298911               47.67622165                0.00010000                2.91791766               -0.97802942               -2.38914317               -7.02445465               26.93295408                1.98488264
              15.49822412                1.25235259               47.58659627                0.00032941                3.18128869               -0.94894228               -2.78822411               -6.71190809               27.65682060                5.04439434
              16.53228154                0.49670252               47.50763098                0.12962752                2.82297474               -1.77754825               -3.22656266               -3.83782748               17.51756432                9.63897898
              17.55468362               -0.21266853               47.21408409                0.32575647                1.66900180               -0.03268592               -3.02960755               -0.56992793                3.49459700                3.52560056
              18.56566158               -0.91027457               46.85168014                0.74384487                1.09779585                2.10084936               -4.09210732               -0.08785534                0.11156143               -3.34950979
               9.03206908                7.21597485               48.65752360                0.84419624               -0.30804830               -0.62303868                1.70094334               -0.06020815                0.06191896                3.28763544
              10.02898860                6.56914115               48.26668998                0.31055190               -0.16703689               -0.02365731                0.38431229                0.08898501                0.55563186               -2.98877838
              11.02872834                5.92319643               47.88589821                0.00259172                1.07296418                0.64154332               -0.81789994               -3.22438131               18.32774591               -9.34684566
              12.05044788                5.20642049               47.85031645                0.00010000                2.44297083                0.02395440               -1.29189156               -6.63665914               35.50404878               -6.57296952
              13.07758776                4.47815080               47.81335259                0.00010000                2.94414206               -0.52567140               -1.74977218               -7.20745108               35.50543890               -3.55948258
              14.10933072                3.73916532               47.77800186                0.00010000                3.33527396               -0.91379420               -2.18287062               -7.60970831               35.78882713               -0.69751746
              15.14429324                2.99231975               47.74650440                0.00010000                3.63221267               -1.12770823               -2.56338750               -7.69401893               36.32382535                2.19968427
              16.18197498                2.24017251               47.72122624                0.00509206                3.90839199               -1.28819482               -2.88468086               -7.69173291               37.17958732                5.33274334
              17.22246108                1.48087955               47.70590669                0.13653060                3.00881566               -1.38172621               -3.15762164               -4.37318688               22.59950524                8.49171043
              18.24215129                0.78801542               47.38737893                0.33437911                1.47397799                0.18374865               -2.71916603               -0.62937576                3.84076329                2.50481655
              19.25194064                0.10951966               46.99334029                0.74908224                0.97893493                1.84594388               -3.87011896               -0.01749430                0.13174309               -3.85578588
               9.67531472                8.21024798               48.54990248                0.83281782               -0.20357079               -0.52302303                1.42340598               -0.05927749                0.06170553                3.32007758
              10.67327901                7.56945221               48.12775374                0.29712131               -0.03087784                0.08683415               -0.03617490                0.10396724                0.64398398               -2.92392754
              11.67469716                6.92983372               47.71735197                0.00182961                1.51874552                0.70967776               -1.34435600               -3.77670732               22.91427684               -8.91267869
              12.70365392                6.20810890               47.74031803                0.00010000                3.09251706                0.27551454               -1.76219286               -7.74201758               44.59705850               -6.18144814
              13.73654750                5.47428038               47.76366748                0.00010000                3.49243663               -0.29426113               -2.13130013               -8.24528815               44.70623450               -3.35079271
              14.77350265                4.73056728               47.78886790                0.00010000                3.86103500               -0.83083704               -2.45146108               -8.54387582               45.01346515               -0.49755880
              15.81376820                3.98043494               47.81816891                0.00010000                4.11635057               -1.21256724               -2.70766390               -8.59543834               45.57768977                2.39212199
              16.85582966                3.22658870               47.85412630                0.00996108                4.16033433               -1.34424556               -2.87614134               -8.66378169               46.43665917                5.34973783
              17.89697489                2.46906800               47.89954626                0.14361746                2.88131656               -1.02850080               -2.90699116               -4.94298503               27.47878833                8.31955371
              18.91345599                1.79100645               47.55412182                0.34378771                1.26641674                0.34959779               -2.41491966               -0.60156507                4.10684751                2.07863465
              19.92230322                1.12664430               47.12835942                0.75494532                0.88472280                1.60585219               -3.67130092               -0.00595132                0.16446349               -4.32305967
              10.31247508                9.20551439               48.44260557                0.82246594               -0.09928726               -0.42406593                1.14514240               -0.05892097                0.06460472                3.32346317
              11.31148221                8.57087783               47.98935991                0.28545115                0.10312090                0.19942569               -0.45607425                0.10277195                0.79278645               -2.87817579
              12.31453750                7.93738999               47.55071408                0.00149787                1.98393259                0.80603409               -1.85708930               -4.27284416               27.59426743               -8.73249696
              13.35116086                7.21193078               47.63310251                0.00010000                3.78430571                0.46906295               -2.19312140               -8.73332325               53.68632342               -5.85112295
              14.39022362                6.47226558               47.71610004                0.00010000                4.05688908               -0.15745086               -2.46441418               -9.24791480               53.82839530               -3.03509591
              15.43229864                5.72254858               47.80105833                0.00010000                4.30697213               -0.79724338               -2.67039403               -9.46136420               54.16912090               -0.25996924
              16.47636306                4.96806840               47.89041390                0.00010000                4.38838218               -1.24857310               -2.79083038               -9.40776004               54.78141756                2.55751127
              17.52006629                4.21328760               47.98684784                0.01494394                4.14102849               -1.32131124               -2.78475539               -9.30678765               55.65983038                5.48389705
              18.55918363                3.46030953               48.09238996                0.15086549                2.62386971               -0.76724075               -2.54562702               -5.17925981               32.21866599                8.40387381
              19.57254368                2.79500738               47.71714731                0.35334165                1.06811346                0.40665363               -2.09269281               -0.51262035                4.24128435                1.91657700
              20.58054590                2.14163670               47.25936292                0.76067973                0.80022151                1.40618515               -3.46608977               -0.00068091                0.19509861               -4.53632264
              10.94340942               10.20176667               48.33533702                0.81303165                0.00494270               -0.32566634                0.86562920               -0.05893413                0.06607461                3.29349753
              11.94345885                9.57344072               47.85120818                0.27532129                0.23889497                0.31421720               -0.87610777                0.08738032                0.97889837               -2.85226876
              12.94818732                8.94595440               47.38530677                0.00129758                2.53265087                0.89981509               -2.35652271               -4.74771390               32.37247686               -8.56295373
              13.99411187                8.21749016               47.52853915                0.00010000                4.63920416                0.55804540               -2.58761842               -9.50966275               62.82511293               -5.42768764
              15.04097141                7.47113137               47.67104602                0.00010000                4.71803367               -0.19811382               -2.74842615               -9.90456796               62.87822542               -2.62917877
              16.08847254                6.71462242               47.81452288                0.00010000                4.69512903               -0.82772115               -2.83465635               -9.87631056               63.21845725               -0.03788005
              17.13487399                5.95546348               47.96280338                0.00010000                4.44901207               -1.21552122               -2.81620199               -9.73926421               63.95496774                2.60629589
              18.17745278                5.20016247               48.11971316                0.02016150                3.83979628               -1.28001498               -2.63393357               -9.47554376               64.93650053                5.53134655
              19.21166991                4.45372318               48.28576102                0.15826635                2.22118196               -0.56453984               -2.08886691               -5.19880203               36.90832035                8.55352393
              20.22187642                3.79913952               47.87867438                0.36288488                0.86805253                0.39134283               -1.73814605               -0.42449369                4.28532454                1.95178233
              21.22903096                3.15476801               47.38860390                0.76625615                0.71545409                1.22505997               -3.23786852               -0.00190172                0.22127497               -4.52565814
              11.56794829               11.19900106               48.22769376                0.80447739                0.10937966               -0.22802093                0.58363311               -0.05962886                0.08199246                3.26520584
              12.56904209               10.57716217               47.71309203                0.26638527                0.37927473                0.43174657               -1.29617448                0.04763326                1.23509379               -2.88428143
              13.57553378                9.95538629               47.22145797                0.00109902                3.33742771                0.95453812               -2.83330534               -5.29699132               37.35680811               -8.13105666
              14.63579064                9.22309169               47.42861587                0.00010000                5.97331095                0.20828934               -2.93786694               -9.93855480               72.06140630               -4.56384363
              15.69500000                8.46830330               47.62984271                0.00010000                5.73248382               -0.71160265               -2.97670794               -9.42552209               71.72879585               -2.02102250
              16.75044032                7.70599416               47.82878550                0.00010000                5.05188577               -0.90068025               -2.94403455               -8.95706424               71.97623558                0.10327225
              17.79603772                6.94375798               48.03312532                0.00010000                4.09276977               -0.91359342               -2.79707269               -8.92676771               73.00308665                2.29977226
              18.83229571                6.18768730               48.25039752                0.02567606                3.00964114               -0.98705321               -2.45430236               -9.00066113               74.37543379                5.02228427
              19.85623054                5.44901874               48.47972781                0.16595482                1.53566367               -0.33483109               -1.55505302               -5.14105819               41.74109681                8.38439207
              20.86300899                4.80283423               48.04039154                0.37239443                0.65101733                0.32779019               -1.34275435               -0.38839812                4.32672134                2.18701525
              21.86925089                4.16613790               47.51812405                0.77163013                0.62419024                1.04833925               -2.97525166               -0.00993579                0.26704383               -4.35590027
              12.18589463               12.19720625               48.12008076                0.79576541                0.21316591               -0.13111343                0.30299940               -0.06007766               -0.03682674                2.83645127
              13.18802629               11.58207565               47.57395833                0.25821884                0.52116738                0.54947549               -1.72072539               -0.04691179                1.78361496               -2.59030565
              14.19631798               10.96504516               47.06408478                0.00075196                4.71987369                0.87494076               -3.27266166               -6.10616377               42.94913415               -6.02509055
              15.28242376               10.22165595               47.34036012                0.00010000                8.66202589               -1.76748742               -3.21644459               -8.02937706               81.30066935               -2.72815324
              16.36955849                9.45689931               47.59543220                0.00010000                7.57264070               -1.50630505               -3.13839904               -6.47739882               79.96606645               -1.12280423
              17.43387658                8.69660881               47.84289549                0.00010000                5.25434994               -0.95324725               -2.99895654               -5.58447724               80.02569044                0.11252626
              18.47464549                7.93719161               48.09652423                0.00010000                2.91511136               -0.32739953               -2.74501334               -5.90932359               81.49484773                1.40862540
              19.49217880                7.18042141               48.36996211                0.03170201                0.95281589                0.24232066               -2.29922650               -6.54869097               83.91122036                3.23501736
              20.49370181                6.44702656               48.66781292                0.17424035                0.24052464                0.15829928               -0.98330280               -4.77695053               47.27278876                6.07735278
              21.49698930                5.80569532               48.20468762                0.38226480                0.42615537                0.23553139               -0.89560268               -0.46890142                4.72764973                2.17688680
              22.50222492                5.17573479               47.64892870                0.77661074                0.52356225                0.87729913               -2.67091880               -0.03622153                0.18168696               -3.52732307
              12.79700792               13.19637880               48.00404907                0.89554742                0.32570135               -0.08274513               -0.01092663                0.28861815                1.29939812                2.40838077
              13.80026494               12.58815168               47.44128416                0.62729907                0.84111444                0.60760293               -2.11236842                0.04918047                4.48452666               -2.24121980
              14.81383021               11.97288511               46.94198770                0.48059010                9.15420043                0.78399469               -3.56327491               -8.26926334               49.48188099               -4.28903061
              15.98334895               11.18774194               47.27663132                0.44573137               13.83344756               -3.39140052               -3.38609649               -6.64287694               89.25322690               -1.47991894
              17.09049916               10.43817720               47.57106125                0.43630616                8.75547620               -1.87221127               -3.21994993               -2.94656944               86.86127756               -0.58176394
              18.15845847                9.68692922               47.85567595                0.44501494                5.17697426               -0.96795952               -3.00260142               -2.59017110               86.84786913                0.10077508
              19.19403865                8.93720999               48.14684503                0.47130710                1.65142375                0.00183760               -2.67272924               -2.78045959               88.57717132                0.82024734
              20.19148695                8.19253371               48.46180618                0.51792757               -2.93105168                1.21123043               -2.16212328               -4.32044920               91.89706307                1.90419279
              21.13541762                7.45218472               48.81321226                0.59021646               -3.32821092                0.51581610               -0.59325108               -5.07786199               54.12343785                4.17189608
              22.12492273                6.80754486               48.36442085                0.69472826               -0.34850483                0.18495410               -0.42723482               -0.63169895                7.92662355                2.02903691
              23.12844752                6.18368388               47.79313533                0.88994597                0.35247925                0.79490907               -2.26999143                0.23616192                1.87604672               -2.76340729
               6.67090157                3.39114449               50.12691307                1.00000000               -0.79052641               -0.87238871                2.92431485               -0.18373427               -2.10252622                2.42495589
               7.66299630                2.69189682               49.83333930                0.82097154               -0.79102784               -0.54193864                2.09821676               -0.17460296               -2.87986031               -1.40538779
               8.65508101                1.98938124               49.52474274                0.59356197               -1.05590523               -0.28461169                1.19490464               -0.56160133               -2.75432588               -1.05897970
               9.64187820                1.27088256               49.23417833                0.49445443               -1.42166828               -0.07744058                0.33150561               -0.66394415               -0.67212975               -0.31969478
              10.62664765                0.52477196               48.96720536                0.45246566               -1.29680650                0.19526010               -0.58345376               -0.56561550                1.49019124               -0.24146593
              11.61594207               -0.25040310               48.71927820                0.45366098               -0.50183715                0.45996431               -1.54207822               -0.32604121                2.61813981               -0.01921791
              12.61661090               -1.04222690               48.47426025                0.49579347                0.58101684                0.71257505               -2.48761692               -0.27587507                1.96558530                0.19193507
              13.62756241               -1.83311038               48.21332708                0.58519743                1.32693661                0.95026760               -3.37129942               -0.34108202                0.14498206                0.34237342
              14.64314963               -2.61357318               47.93203023                0.73967629                1.60848980                1.17537201               -4.22292169               -0.32092087               -1.77101066                0.46510389
              15.65973220               -3.38366564               47.63222784                0.99754479                1.68671806                1.39888234               -5.09071270               -0.22044409               -2.32293863                1.06795955
              16.67688400               -4.14831135               47.33854340                1.00000000                1.71517939                1.71544593               -5.98153397               -0.26460145               -1.92662001               -1.78785140
               7.36831189                4.38242060               50.00522172                0.96165065               -0.61799904               -0.86674248                2.58172345               -0.07392715                0.72350548                3.03304674
               8.36213190                3.68647744               49.70667256                0.49767702               -0.41698806               -0.45747243                1.73896868               -0.14470167                2.05095886               -2.38180365
               9.35997213                2.98653512               49.43507479                0.10189738                0.27057483               -0.01560144                1.08340306               -0.98820167                4.49827344               -5.11113607
              10.36754340                2.27010815               49.18543666                0.00757249                1.08310944               -0.54422341                0.33326828               -2.07051793                6.40844271               -3.59393861
              11.38163432                1.52672456               48.95226694                0.01001966                1.43188439               -0.78880490               -0.44368529               -3.18790803                8.19475926               -1.85927946
              12.39618109                0.75419654               48.73891338                0.01293817                1.17857369               -0.41178774               -1.28573263               -3.86460240                9.30889892               -0.74769891
              13.40520579               -0.03510115               48.52831814                0.01467876                0.68218184                0.16620383               -2.12538963               -3.63297003                8.69503794                0.38483984
              14.40982472               -0.82360771               48.30193019                0.08779552                0.50061293                0.47124949               -2.90603667               -2.51050919                6.98336824                2.32256266
              15.41521805               -1.60181946               48.05565925                0.30710314                0.75360617                0.72937674               -3.66754186               -0.98549004                5.38910576                4.58964795
              16.42489685               -2.36967681               47.79596099                0.67062393                1.18328204                1.18447482               -4.42957848               -0.32799580                3.34777621                2.67797771
              17.43888369               -3.13115689               47.50763917                0.98893062                1.39868467                1.71129568               -5.24473056               -0.24669680                1.98293723               -2.52623468
               8.06130936                5.37380964               49.89620900                0.86732322               -0.53216023               -0.83039891                2.34048388               -0.08638504                0.35331857                3.58069119
               9.05598776                4.68274738               49.56079336                0.34383575               -0.48115471               -0.28494215                1.25829178               -0.12078911                2.29181685               -3.37437173
              10.05168626                3.98906921               49.26450409                0.01316375                0.21453243                0.46542402                0.47205127               -2.02567545                9.37381496              -10.92022588
              11.06027840                3.25999809               49.07105182                0.00010000                1.35574155               -0.83389277               -0.13118485               -4.54360896               15.85386822               -6.93380814
              12.07880109                2.50899586               48.90457888                0.00010000                2.00986629               -1.42251617               -0.94649269               -6.08046903               17.44212233               -3.84043016
              13.10047573                1.74136114               48.74334585                0.00010000                2.14773291               -1.20511200               -1.66619166               -6.94438739               17.86787306               -1.50786219
              14.12175575                0.96109717               48.58539318                0.00010000                2.17973987               -0.64314853               -2.35028389               -6.79646768               18.15627320                0.88855904
              15.14407053                0.17631461               48.42910115                0.00010000                2.38765933               -0.35753886               -3.00012564               -5.26859574               17.69337582                4.25844679
              16.16950894               -0.59898564               48.26051254                0.12258282                1.92195953               -0.79179319               -2.91015418               -2.62093540               12.11155883                9.07679072
              17.18250972               -1.35997614               47.99042013                0.32929380                1.27006363                0.42862911               -3.59597536               -0.84952033                4.09764127                4.15711109
              18.19491021               -2.11408543               47.66027452                0.75116539                1.24004941                2.00255809               -4.59884485               -0.62662568                1.14245805               -3.43350095
               8.74870872                6.36581263               49.78592786                0.84524550               -0.42521696               -0.74563235                2.05044717               -0.06339546                0.05921587                3.45864640
               9.74445655                5.68077859               49.41450612                0.31364778               -0.32504078               -0.14017569                0.81952758                0.04916942                0.80142652               -3.28836287
              10.74220791                4.99584360               49.05819246                0.00524229                0.61440078                0.65423958               -0.28423263               -2.61288395               14.28435452              -11.40208757
              11.75674457                4.25343030               48.95641422                0.00010000                1.82269882               -0.36349575               -0.82468826               -5.48223470               26.73796083               -7.12943879
              12.77866188                3.49827423               48.85005391                0.00010000                2.42237263               -0.84712060               -1.42739667               -6.35210702               26.73275427               -4.19294611
              13.80519202                2.73009430               48.74871473                0.00010000                2.78305472               -1.02730186               -2.03629899               -6.99592501               27.18359281               -1.41144741
              14.83432298                1.95203588               48.65132346                0.00010000                2.96718014               -0.96440914               -2.60037430               -7.03341245               27.58455248                1.43127836
              15.86453562                1.16924152               48.55744668                0.00010000                3.23835559               -0.92408237               -3.05612525               -6.68916631               28.32155187                4.53900365
              16.89909009                0.38234468               48.47361876                0.12180017                2.92353036               -1.66295723               -3.59662866               -3.93312783               18.52627909                8.88107567
              17.92300623               -0.36110423               48.18298759                0.31085283                1.77398391                0.01493806               -3.19848485               -0.66182765                4.20425882                3.27875350
              18.93456977               -1.09110573               47.80972811                0.73352468                1.15635368                2.17301689               -4.30886948               -0.08590964                0.12976680               -3.79543436
               9.43010951                7.35889699               49.67484060                0.83241541               -0.31693408               -0.64020703                1.76420687               -0.06154673                0.06408872                3.43326494
              10.42694017                6.67994386               49.27052202                0.29745390               -0.16663140               -0.02564469                0.38143517                0.10475820                0.61892655               -3.13843275
              11.42677688                6.00215400               48.87748899                0.00238292                1.06314536                0.65588018               -0.86376586               -3.22823384               18.81667757               -9.76500933
              12.44820308                5.25272817               48.83694982                0.00010000                2.41590328                0.07719870               -1.38230159               -6.66305191               36.33570257               -7.08529434
              13.47509495                4.49205345               48.79515703                0.00010000                2.92962542               -0.46776399               -1.89309043               -7.21593651               36.32554666               -4.10268808
              14.50679559                3.72081511               48.75519231                0.00010000                3.34226716               -0.85028147               -2.38720796               -7.61624699               36.61551132               -1.23540862
              15.54194029                2.94180899               48.71956156                0.00010000                3.65914067               -1.05203866               -2.83962374               -7.69242876               37.17350677                1.68435471
              16.57997840                2.15783296               48.69064850                0.00114210                3.96259186               -1.18546933               -3.25382516               -7.63449538               38.04722518                4.84364095
              17.62119213                1.36775521               48.67200860                0.12857287                3.13725859               -1.25982370               -3.65763168               -4.42568946               23.91526324                8.15769124
              18.64272357                0.64032262               48.35920667                0.31945747                1.60014414                0.27216588               -2.93265278               -0.74261798                4.74539933                2.22406630
              19.65319501               -0.07062510               47.95340698                0.73874388                1.04714407                1.91812802               -4.13667251               -0.01496057                0.16578692               -4.34380223
              10.10538405                8.35300849               49.56440277                0.82123057               -0.20893408               -0.53831467                1.47819827               -0.06082122                0.06415016                3.46559357
              11.10329471                7.68026570               49.12730264                0.28442176               -0.02625681                0.09088738               -0.05477052                0.11893162                0.72877760               -3.07039738
              12.10485892                7.00896120               48.70361014                0.00165132                1.51446858                0.73014138               -1.40302095               -3.77216396               23.52432877               -9.30289329
              13.13358408                6.25497427               48.72214087                0.00010000                3.06986518                0.33516807               -1.87386661               -7.75641451               45.63572401               -6.63319479
              14.16625622                5.48891895               48.74150960                0.00010000                3.47637258               -0.21085289               -2.30468924               -8.24521691               45.75058179               -3.82866145
              15.20311154                4.71308867               48.76317394                0.00010000                3.86001654               -0.72668602               -2.69800609               -8.52908905               46.06939845               -0.97018208
              16.24345655                3.93099510               48.78951589                0.00010000                4.13939793               -1.08585813               -3.04245778               -8.55651210               46.66507347                1.95363053
              17.28589949                3.14553213               48.82330552                0.00588333                4.23150432               -1.20276266               -3.32102714               -8.56132266               47.59211426                5.00047259
              18.32808664                2.35714821               48.86774390                0.13553180                3.03173432               -0.91042082               -3.50122766               -4.96426862               29.04986420                8.18812154
              19.34653418                1.64433909               48.52883724                0.32869401                1.40396772                0.45749831               -2.66437169               -0.70690758                5.10707116                1.84028514
              20.35616599                0.94725683               48.09024093                0.74443818                0.96318114                1.68641906               -3.97857989               -0.00074616                0.20583622               -4.79205727
              10.77437865                9.34813070               49.45428433                0.81111921               -0.10125705               -0.43767382                1.19212152               -0.06047862                0.06711176                3.46794758
              11.77336608                8.68176161               48.98463486                0.27313024                0.11231895                0.20918079               -0.49001093                0.11537999                0.90423031               -3.02294309
              12.77662503                8.01675683               48.53177124                0.00133263                1.98754767                0.83497572               -1.92793286               -4.26172148               28.34410555               -9.10436713
              13.81311704                7.25943154               48.61053082                0.00010000                3.77255869                0.53279925               -2.32159895               -8.72805185               54.94954282               -6.25344850
              14.85207621                6.48783639               48.69049089                0.00010000                4.05103080               -0.06131498               -2.66238523               -9.22364098               55.10232738               -3.44258989
              15.89413765                5.70628139               48.77301893                0.00010000                4.31451935               -0.66908559               -2.95074913               -9.40913486               55.46370882               -0.64832876
              16.93836659                4.92009183               48.86073890                0.00010000                4.42305955               -1.09261404               -3.16928999               -9.32385216               56.13020283                2.22162953
              17.98259884                4.13377771               48.95673047                0.01071924                4.23666018               -1.15867337               -3.28098606               -9.18018100               57.13988527                5.25758277
              19.02309980                3.34954680               49.06393868                0.14258091                2.79389730               -0.65479255               -3.20629192               -5.18201422               34.02154177                8.42814623
              20.03847679                2.64947259               48.69497364                0.33805119                1.21223984                0.52013149               -2.36791649               -0.60123848                5.28990715                1.73931321
              21.04734459                1.96310328               48.22317026                0.75010444                0.88678042                1.49596567               -3.80207839                0.00618872                0.24161162               -4.96261537
              11.43691267               10.34425501               49.34418340                0.80197046                0.00635226               -0.33773605                0.90472867               -0.06062161                0.06835616                3.43579403
              12.43697619                9.68444932               48.84221006                0.26326165                0.25209480                0.32932725               -0.92481580                0.09796098                1.12548851               -2.99579996
              13.44195456                9.02566072               48.36135178                0.00114060                2.54836496                0.93195592               -2.43288682               -4.73443659               33.28018919               -8.91424368
              14.48794349                8.26563026               48.50195649                0.00010000                4.64894949                0.61739354               -2.72771211               -9.48813098               64.32886397               -5.77542453
              15.53493355                7.48769265               48.64251582                0.00010000                4.73649556               -0.10399967               -2.96304463               -9.85070216               64.39223151               -2.95747982
              16.58267340                6.69970696               48.78474153                0.00010000                4.72748198               -0.69619617               -3.13716752               -9.78251879               64.75998614               -0.33167664
              17.62948319                5.90914282               48.93277178                0.00010000                4.50837544               -1.04961873               -3.22055292               -9.61071671               65.57595886                2.37289494
              18.67284091                5.12235866               49.09102404                0.01575525                3.96341409               -1.10507997               -3.15497952               -9.34133215               66.77035765                5.40715928
              19.70875147                4.34405235               49.26173314                0.14976272                2.40560083               -0.45418022               -2.78917916               -5.19534496               38.93718952                8.71021969
              20.72095292                3.65474172               48.85998117                0.34732262                1.01384502                0.50231337               -2.02856633               -0.49763201                5.35192437                1.84465684
              21.72902837                2.97717615               48.35462099                0.75543805                0.80754491                1.32236939               -3.59088181                0.00559587                0.27223844               -4.89643808
              12.09277761               11.34137598               49.23368155                0.79360790                0.11419881               -0.23848138                0.61493335               -0.06131210                0.08529723                3.40653419
              13.09391959               10.68834815               48.69982310                0.25493961                0.39888779                0.45193053               -1.35960805                0.04999294                1.42755209               -3.02877930
              14.10075536               10.03539594               48.19271099                0.00096056                3.37014438                0.97776307               -2.91298638               -5.29032084               38.44530653               -8.45167682
              15.16132248                9.27177941               48.39850341                0.00010000                6.01150480                0.25292854               -3.08208387               -9.90432480               73.82210125               -4.83755999
              16.22098546                8.48575639               48.59899099                0.00010000                5.78573126               -0.63053100               -3.19883900               -9.35385344               73.48659919               -2.25718212
              17.27703711                7.69235746               48.79787172                0.00010000                5.12575510               -0.78513781               -3.25578895               -8.83742589               73.75930392               -0.09108508
              18.32350056                6.89909945               49.00327001                0.00010000                4.19127814               -0.76465861               -3.20840334               -8.76604562               74.88986685                2.16124199
              19.36086267                6.11167611               49.22356639                0.02105905                3.16546414               -0.80721032               -2.97168259               -8.85446692               76.58517564                4.96179034
              20.38680984                5.34046319               49.46096382                0.15720580                1.72688434               -0.21033133               -2.27447879               -5.14790969               44.00997494                8.64292852
              21.39540036                4.65951886               49.02563602                0.35657077                0.78889040                0.43137417               -1.63752623               -0.45673213                5.39627825                2.15671749
              22.40258765                3.98955067               48.48674150                0.76062839                0.71872940                1.14992727               -3.33407884               -0.00307258                0.32192941               -4.66309067
              12.74174207               12.33948538               49.12322528                0.78525609                0.22140071               -0.13950523                0.32654753               -0.06178701               -0.04045934                2.96094770
              13.74395608               11.69348793               48.55637180                0.24716716                0.54874085                0.57423221               -1.79902978               -0.06375180                2.03926321               -2.71880157
              14.75271689               11.04521598               48.03094299                0.00068714                4.77702302                0.86773145               -3.34652734               -6.08860671               44.25624426               -6.25089327
              15.83949654               10.27068883               48.30746778                0.00010000                8.72807672               -1.72983380               -3.35842739               -7.99578938               83.33071774               -2.89343454
              16.92727843                9.47508203               48.56296877                0.00010000                7.65426392               -1.44119929               -3.35826961               -6.41790454               81.94689174               -1.24749553
              17.99258182                8.68400421               48.81145007                0.00010000                5.37826050               -0.86470265               -3.30715970               -5.49251880               82.02264256                0.01729319
              19.03484364                7.89384965               49.06724469                0.00010000                3.09030048               -0.21870112               -3.14709278               -5.76810735               83.60302299                1.34969130
              20.05438783                7.10621445               49.34484620                0.02685078                1.15534471                0.36938857               -2.78793569               -6.41745852               86.50487567                3.21256601
              21.05795053                6.33984573               49.65481158                0.16530092                0.41714851                0.35302793               -1.70075897               -4.72891510               49.82205892                6.30651887
              22.06273080                5.66336920               49.19444086                0.36612892                0.54763780                0.32944569               -1.18321508               -0.55557172                5.80333414                2.21058338
              23.06890329                5.00017469               48.62062343                0.76538995                0.61724853                0.97981523               -3.02284744               -0.03380320                0.23482714               -3.74024151
              13.38353677               13.33858588               49.00400716                0.89033225                0.33771865               -0.08995060                0.00278438                0.30416229                1.35464230                2.51534771
              14.38691396               12.69983280               48.41971656                0.62194816                0.91227773                0.63448710               -2.20383527                0.00402285                4.89604338               -2.35112807
              15.40178233               12.05275057               47.90600440                0.47948172                9.23133400                0.75345946               -3.63023863               -8.22595960               51.06002249               -4.45111826
              16.57154064               11.23718273               48.24206427                0.44561150               13.87648300               -3.35060955               -3.52004665               -6.58649841               91.48234180               -1.54955158
              17.67931199               10.45693241               48.53783541                0.43637131                8.84392364               -1.81496251               -3.42709557               -2.90260970               89.00904717               -0.62707404
              18.74841911                9.67506341               48.82426302                0.44479460                5.33080873               -0.89407946               -3.29437710               -2.52661952               89.00071313                0.07362329
              19.78592816                8.89472543               49.11837788                0.47033047                1.90491549                0.08757802               -3.05471968               -2.69152385               90.83953703                0.81594063
              20.78651742                8.11906388               49.43821087                0.51537813               -2.54256838                1.28494228               -2.61962674               -4.14712469               94.74846567                1.91341339
              21.73507680                7.34752375               49.80418928                0.58566302               -3.12787328                0.76780231               -1.29656343               -4.93517883               57.00318286                4.36137935
              22.72395996                6.66610777               49.35895379                0.68658980               -0.33880966                0.27385687               -0.69527716               -0.79592291                9.15101718                2.09545967
              23.72830060                6.00914698               48.76893270                0.88422615                0.43406448                0.89722849               -2.60305062                0.24365254                2.00329845               -2.90579248
               6.94728664                3.53929664               51.15666547                1.00000000               -0.82219210               -0.90392965                3.04426735               -0.19441488               -2.16929807                2.53280958
               7.93906472                2.80592497               50.85461425                0.81151671               -0.81885455               -0.56111267                2.16788106               -0.18718743               -2.99098140               -1.48268290
               8.93090955                2.06909400               50.53678263                0.58934884               -1.06427438               -0.29247666                1.21429991               -0.55670998               -2.87994965               -1.04230252
               9.91777923                1.31633911               50.23738544                0.49297638               -1.39905074               -0.07033012                0.30934328               -0.64540340               -0.79203321               -0.33447565
              10.90292854                0.53655906               49.96105975                0.45210307               -1.25868145                0.21473158               -0.64825604               -0.54746808                1.33714942               -0.24814000
              11.89260560               -0.27153266               49.70334040                0.45344261               -0.48044142                0.49115395               -1.64947337               -0.31784210                2.46474506               -0.02384043
              12.89331971               -1.09618249               49.44864880                0.49476510                0.58155442                0.75482953               -2.63895508               -0.26226562                1.86153679                0.19021914
              13.90423669               -1.92059722               49.17865540                0.58232390                1.33959995                1.00290374               -3.56835898               -0.32297326                0.09476075                0.34487855
              14.92011171               -2.73535522               48.88862257                0.73412821                1.65720729                1.23984949               -4.46486110               -0.31053796               -1.80987981                0.45827509
              15.93738084               -3.54003275               48.57992492                0.98878654                1.76733647                1.47409048               -5.37682375               -0.22241367               -2.37815955                1.06385969
              16.95545844               -4.33910942               48.27712563                1.00000000                1.80775975                1.80177213               -6.30953699               -0.28423898               -1.98851205               -1.81968607
               7.67871416                4.53025734               51.03150487                0.94862127               -0.64199963               -0.89413090                2.68534073               -0.07652959                0.80458232                3.18170785
               8.67229417                3.80031384               50.72430322                0.48127704               -0.42893913               -0.47296079                1.79383152               -0.15121516                2.22493175               -2.52640468
               9.67013538                3.06616923               50.44601717                0.09584683                0.26492485               -0.00718914                1.10479407               -0.99720828                4.71807694               -5.35295034
              10.67759267                2.31563580               50.18872437                0.00769862                1.06271768               -0.56153942                0.32155239               -2.05748272                6.56436760               -3.86028057
              11.69138974                1.53870638               49.94763278                0.01010378                1.41026462               -0.77913406               -0.48641969               -3.14248430                8.30438437               -2.20372304
              12.70579796                0.73337888               49.72571183                0.01312540                1.19197996               -0.41976374               -1.35763951               -3.79846674                9.38919878               -1.09164903
              13.71522933               -0.08863419               49.50656579                0.01523014                0.73976836                0.14143397               -2.22826431               -3.58024284                8.80729502                0.06409551
              14.72059332               -0.91056819               49.27219522                0.08300729                0.57473780                0.47005131               -3.04348344               -2.49422573                7.13802632                2.01897639
              15.72672409               -1.72295672               49.01813213                0.29700010                0.82202387                0.76810182               -3.84031234               -0.98633293                5.55733840                4.68091979
              16.73703380               -2.52529185               48.75062385                0.65233607                1.24843107                1.24087580               -4.63991169               -0.33761102                3.49216517                2.76461818
              17.75169271               -3.32109170               48.45396513                0.97636420                1.46589101                1.79265643               -5.49261151               -0.27160554                2.10255839               -2.60209658
               8.40564305                5.52141402               50.92001996                0.85507868               -0.55145224               -0.85036307                2.42546825               -0.08657171                0.35049310                3.75239223
               9.40012853                4.79646575               50.57352230                0.33000319               -0.49998161               -0.29422023                1.28826480               -0.11365753                2.44000502               -3.56004380
              10.39564342                4.06895021               50.26921771                0.01283434                0.19819486                0.49034817                0.46988390               -2.06248476                9.75489222              -11.48840369
              11.40409243                3.30510832               50.06941589                0.00010000                1.33461743               -0.82463836               -0.19741745               -4.56636305               16.21279399               -7.54224963
              12.42233577                2.52097638               49.89472351                0.00010000                1.99422052               -1.41748191               -1.02701270               -6.03150250               17.74208433               -4.50703850
              13.44397684                1.72007207               49.72611102                0.00010000                2.16630749               -1.23055605               -1.78508171               -6.89300389               18.22097238               -2.18548163
              14.46566192                0.90664619               49.56110994                0.00010000                2.23489347               -0.69597575               -2.51171372               -6.74413680               18.54364201                0.23121265
              15.48867471                0.08880380               49.39814980                0.00010000                2.47233943               -0.39232485               -3.19678519               -5.24364211               18.49677269                3.65192885
              16.51510871               -0.71999318               49.23078455                0.11443153                2.00444424               -0.71076494               -3.04019787               -2.67384590               12.88395667                8.46508687
              17.52876359               -1.51521524               48.95380524                0.31317583                1.32586581                0.47059258               -3.72560219               -0.88187313                4.29781903                4.08362649
              18.54162603               -2.30325629               48.61340024                0.73980258                1.28624317                2.08879908               -4.77707405               -0.64994766                1.17169557               -3.76122314
               9.12687927                6.51325008               50.80680071                0.83328549               -0.43944430               -0.76243870                2.12639123               -0.06481649                0.06099214                3.60935146
              10.12248483                5.79442944               50.42276321                0.30012862               -0.33180738               -0.14448884                0.83183377                0.06581597                0.87043182               -3.44936834
              11.12024312                5.07597619               50.05521323                0.00492503                0.58772044                0.67641745               -0.31176145               -2.61478617               14.70173813              -11.94813503
              12.13423924                4.29914304               49.94782211                0.00010000                1.77764058               -0.30601793               -0.89455445               -5.51089943               27.38619291               -7.77547788
              13.15579593                3.51035674               49.83520485                0.00010000                2.40144167               -0.81675163               -1.54522456               -6.34274206               27.32748004               -4.83396423
              14.18226807                2.70876776               49.72753350                0.00010000                2.79094659               -1.00370628               -2.20559363               -6.98254335               27.77912150               -2.07054673
              15.21161487                1.89744629               49.62421416                0.00010000                3.00458937               -0.94158893               -2.83028795               -7.02685932               28.24171420                0.76762926
              16.24235986                1.08158532               49.52547377                0.00010000                3.28256731               -0.88086556               -3.35070961               -6.64102891               28.96581519                3.88069772
              17.27726621                0.26282798               49.43569841                0.11404746                3.01497967               -1.50492893               -4.00410011               -4.01829221               19.64989029                7.85504179
              18.30265945               -0.51588000               49.15011440                0.29602387                1.87548278                0.09311684               -3.38808254               -0.76231972                5.05283241                2.91802891
              19.31477587               -1.27931572               48.76550275                0.72334001                1.21164177                2.26935390               -4.55159866               -0.08208532                0.15378700               -4.36878716
               9.84198802                7.50616525               50.69280774                0.82063542               -0.32692743               -0.65669738                1.83106351               -0.06299180                0.06650747                3.58623395
              10.83871874                6.79357598               50.27431868                0.28442297               -0.16769583               -0.02490061                0.37729422                0.12378349                0.69566918               -3.29555121
              11.83863410                6.08247856               49.86862289                0.00215638                1.03875759                0.67587070               -0.90758485               -3.22428191               19.32960098              -10.19508450
              12.85949389                5.29898796               49.82267041                0.00010000                2.36110529                0.13604833               -1.47400289               -6.68037505               37.18529818               -7.63045432
              13.88585620                4.50464135               49.77549078                0.00010000                2.88712634               -0.39917202               -2.04328063               -7.21299396               37.15484646               -4.69921309
              14.91723642                3.69999794               49.73025770                0.00010000                3.32254879               -0.77153710               -2.60721199               -7.61053397               37.44164560               -1.85255334
              15.95230718                2.88781441               49.68971192                0.00010000                3.66180132               -0.95580374               -3.14349179               -7.67441129               38.00617200                1.06020140
              16.99047245                2.07118649               49.65614973                0.00010000                3.99504987               -1.05345679               -3.66711434               -7.54110442               38.86614101                4.20572313
              18.03220818                1.24990824               49.63275406                0.12059009                3.25942244               -1.09638189               -4.22294219               -4.46825757               25.38355005                7.63794480
              19.05566089                0.48664710               49.32872588                0.30473250                1.73237909                0.39625886               -3.18472423               -0.86682596                5.83948648                1.83921808
              20.06685576               -0.25786921               48.91060684                0.72860100                1.11948648                2.01777936               -4.44800582               -0.00979703                0.20950015               -4.94994876
              10.55079798                8.50011613               50.57946645                0.80960112               -0.21507966               -0.55362713                1.53661943               -0.06205922                0.06719846                3.61897596
              11.54864718                7.79393142               50.12665833                0.27164055               -0.02262392                0.09677858               -0.07502652                0.13693193                0.83280052               -3.22431140
              12.55034550                7.08949361               49.68929155                0.00145741                1.49108825                0.75412223               -1.45964508               -3.75889353               24.16346187               -9.70106393
              13.57846895                6.30186400               49.70284070                0.00010000                3.00902845                0.40291198               -1.98543971               -7.75910648               46.69001488               -7.11498431
              14.61052607                5.50237330               49.71757370                0.00010000                3.42076885               -0.11168969               -2.48587050               -8.23005652               46.79810466               -4.35662825
              15.64688432                4.69333702               49.73490778                0.00010000                3.82060112               -0.59917629               -2.96486925               -8.49773461               47.11348540               -1.51606863
              16.68693809                3.87833022               49.75731975                0.00010000                4.12798085               -0.92846522               -3.41541305               -8.49362229               47.71943724                1.41642534
              17.72944394                3.06051618               49.78770576                0.00181201                4.27511796               -1.02328807               -3.82932023               -8.41190583               48.68157409                4.52800782
              18.77244045                2.24090034               49.82952171                0.12741290                3.18282211               -0.75125123               -4.19460715               -4.96539398               30.80087626                7.90835349
              19.79310038                1.49204518               49.50083439                0.31386631                1.55860506                0.60013028               -2.96324703               -0.82055600                6.33266132                1.51581303
              20.80361255                0.76103987               49.04878782                0.73423866                1.05121688                1.79367760               -4.34324585                0.00592471                0.25855798               -5.35641313
              11.25311625                9.49509271               50.46644800                0.79980555               -0.10363428               -0.45154075                1.24212852               -0.06185280                0.06979088                3.62035007
              12.25207991                8.79551155               49.97955969                0.26079588                0.12036995                0.22025291               -0.52611805                0.13106785                1.04144724               -3.17449325
              13.25552365                8.09756101               49.51215542                0.00115421                1.96760809                0.86180802               -1.99233170               -4.23830875               29.13007956               -9.48366361
              14.29143207                7.30704620               49.58667053                0.00010000                3.71292041                0.60725417               -2.44840708               -8.70486442               56.22633105               -6.68031780
              15.32978206                6.50240756               49.66285234                0.00010000                3.99463697                0.05541808               -2.86886005               -9.17634288               56.37403843               -3.89382114
              16.37132481                5.68801442               49.74204335                0.00010000                4.27367586               -0.51004660               -3.25631638               -9.33152329               56.73741371               -1.10006445
              17.41525557                4.86924511               49.82702810                0.00010000                4.41696994               -0.89699760               -3.59717224               -9.20605646               57.43517345                1.80368282
              18.45966421                4.05072073               49.92122812                0.00654973                4.30578617               -0.95232190               -3.86143558               -8.99536322               58.53832834                4.93631196
              19.50137130                3.23488322               50.02826412                0.13429799                2.97230187               -0.49989521               -3.99494221               -5.15274537               36.02150851                8.33861816
              20.51911025                2.49864970               49.66978898                0.32297159                1.38067881                0.66625437               -2.70097978               -0.69760986                6.59174931                1.49343599
              21.52898487                1.77800434               49.18332136                0.73965773                0.98746291                1.61140677               -4.20456244                0.01464092                0.30126446               -5.46330836
              11.94872324               10.49108532               50.35343159                0.79084424                0.00769984               -0.35014194                0.94633432               -0.06213919                0.07126154                3.58584433
              12.94880024                9.79833648               49.83271186                0.25146367                0.26607176                0.34566457               -0.97653947                0.10641138                1.30542797               -3.14575976
              13.95404468                9.10672977               49.33664903                0.00097455                2.53624361                0.96002725               -2.50162621               -4.70457195               34.23358154               -9.26945910
              14.99952511                8.31400909               49.47398491                0.00010000                4.59931588                0.68914974               -2.86313760               -9.43637548               65.84660735               -6.14126659
              16.04603099                7.50348166               49.61178513                0.00010000                4.69455970                0.01495782               -3.18636724               -9.76456931               65.90036560               -3.32097531
              17.09341630                6.68313609               49.75177953                0.00010000                4.70398292               -0.52752503               -3.46931896               -9.65344140               66.27512926               -0.67584188
              18.14011065                5.86039027               49.89839232                0.00010000                4.52411334               -0.83676031               -3.68528250               -9.43907632               67.14791752                2.07812363
              19.18389857                5.04146974               50.05661357                0.01134068                4.06729584               -0.88098932               -3.78008024               -9.14233128               68.51023711                5.21940166
              20.22145657                4.23090244               50.22997743                0.14137323                2.60642460               -0.30421724               -3.64124786               -5.15551852               41.16908575                8.78801797
              21.23602706                3.50537027               49.83810305                0.33204242                1.18697681                0.64295945               -2.38178706               -0.57939021                6.68916576                1.68606489
              22.24519610                2.79326801               49.31678626                0.74485740                0.91690409                1.44346521               -4.01583939                0.01445591                0.33684830               -5.32208996
              12.63737114               11.48808987               50.23999242                0.78283941                0.11925480               -0.24928650                0.64826434               -0.06304470                0.08875915                3.55569396
              13.63856369               10.80242484               49.68589987                0.24346904                0.41942333                0.47348417               -1.42706843                0.04826477                1.66348525               -3.17985855
              14.64575961               10.11676155               49.16319824                0.00081848                3.36944886                1.00020621               -2.97871419               -5.26467203               39.59236644               -8.76742082
              15.70595266                9.32082919               49.36697419                0.00010000                5.98020318                0.31086521               -3.21867310               -9.82838066               75.59911903               -5.12346268
              16.76536367                8.50270671               49.56586593                0.00010000                5.76973555               -0.51883375               -3.42861729               -9.24411125               75.23793249               -2.51844647
              17.82134738                7.67746392               49.76366972                0.00010000                5.13883621               -0.62863569               -3.60006248               -8.67798074               75.51516998               -0.32092981
              18.86814039                6.85250990               49.96895725                0.00010000                4.24790183               -0.56563471               -3.68886897               -8.55819022               76.72954111                1.98335259
              19.90630541                6.03310094               50.19096387                0.01648332                3.31100039               -0.57207503               -3.61098835               -8.64500854               78.69175937                4.87275318
              20.93436040                5.22879887               50.43423824                0.14859197                1.94257295               -0.04854755               -3.16147623               -5.12501446               46.47504735                8.85065236
              21.94515687                4.51150889               50.00764102                0.34107959                0.95590574                0.56094764               -1.99694978               -0.53540819                6.74541503                2.09199653
              22.95347852                3.80687364               49.45144248                0.74980582                0.83216453                1.27353801               -3.76534429                0.00448617                0.39055878               -5.00571993
              13.31879240               12.48609959               50.12661171                0.77472450                0.23014463               -0.14839392                0.35131359               -0.06379986               -0.04426226                3.09196236
              14.32109385               11.80780617               49.53797774                0.23627812                0.57772387                0.60073894               -1.88220126               -0.08704060                2.35531187               -2.85280178
              15.33034688               11.12673389               48.99715424                0.00063269                4.79592442                0.84891859               -3.40086521               -6.03282190               45.63917171               -6.47236871
              16.41701234               10.32022639               49.27319157                0.00010000                8.70835818               -1.66356303               -3.48838292               -7.92083995               85.37985991               -3.06475200
              17.50451404                9.49310499               49.52826680                0.00010000                7.65205803               -1.34021383               -3.58309205               -6.32726644               83.92534699               -1.38588927
              18.57005350                8.67056337               49.77675230                0.00010000                5.43978885               -0.73440722               -3.64755050               -5.37222644               83.99593306               -0.09704608
              19.61330982                7.84907757               50.03358238                0.00010000                3.23279675               -0.06237350               -3.62235237               -5.58969921               85.67402010                1.27154380
              20.63470943                7.03002824               50.31420340                0.02193702                1.36192533                0.54858489               -3.40928289               -6.24033195               88.98910675                3.18694444
              21.64054833                6.22993148               50.63379774                0.15643668                0.62673470                0.59290200               -2.60152192               -4.65305353               52.56141469                6.51167768
              22.64724413                5.51658922               50.18102332                0.35033094                0.70040015                0.44596528               -1.53644691               -0.65749706                7.16508501                2.22733826
              23.65455633                4.81873877               49.58847175                0.75432378                0.73122034                1.10379261               -3.44734795               -0.03118745                0.30250998               -3.97079425
              13.99268199               13.48512199               50.00410476                0.88516923                0.35065852               -0.09776010                0.01703903                0.32072146                1.41320604                2.62768639
              14.99618857               12.81443962               49.39720745                0.61672428                1.00004773                0.66334512               -2.30151455               -0.05963079                5.38030433               -2.46537979
              16.01268294               12.13373992               48.86938292                0.47835700                9.24880981                0.70060324               -3.67521173               -8.11047797               52.73920616               -4.61973545
              17.18116477               11.28755793               49.20623038                0.44548683               13.78992070               -3.26684588               -3.63698457               -6.47663119               93.74534726               -1.62052744
              18.28848136               10.47590243               49.50251934                0.43646947                8.83827455               -1.72025517               -3.63402210               -2.84237665               91.16411872               -0.67964231
              19.35793026                9.66277577               49.78978841                0.44454698                5.42000926               -0.77876020               -3.61271100               -2.44432382               91.13665888                0.03736008
              20.39688154                8.85126243               50.08575064                0.46928458                2.13572997                0.21848609               -3.50510283               -2.57798444               93.07107882                0.80373893
              21.40064486                8.04407264               50.40941365                0.51289188               -2.10715953                1.40443991               -3.20770090               -3.93673344               97.48435856                1.92897918
              22.35473835                7.24065691               50.78728099                0.58124611               -2.87226055                1.07254252               -2.18655724               -4.76321960               60.06982533                4.54429566
              23.34319965                6.52042820               50.35051530                0.67864805               -0.30913375                0.38389793               -1.02910704               -0.98981856               10.66540476                2.15620406
              24.34855568                5.82894949               49.74107431                0.87863059                0.53560277                1.02107291               -3.00829346                0.25206415                2.14492278               -3.05524230
               7.23161806                3.69212190               52.18779841                1.00000000               -0.85585418               -0.94216206                3.18087458               -0.20679010               -2.25441005                2.63609310
               8.22305952                2.92286522               51.87669692                0.80231115               -0.84536181               -0.58239284                2.24936437               -0.19691917               -3.11571475               -1.56750894
               9.21471083                2.15006610               51.54902874                0.58503482               -1.06495549               -0.30250647                1.23766349               -0.54733244               -3.01321747               -1.02252182
              10.20176041                1.36151519               51.24036519                0.49147699               -1.36375767               -0.06431011                0.28647002               -0.62467560               -0.91583222               -0.34977314
              11.18743567                0.54666311               50.95424024                0.45186995               -1.20562435                0.23232256               -0.71714664               -0.52701115                1.17708701               -0.25456347
              12.17764792               -0.29562278               50.68628873                0.45331569               -0.44545182                0.52157180               -1.76329938               -0.30756901                2.30234974               -0.02771336
              13.17852664               -1.15425651               50.42148115                0.49372499                0.59179647                0.79761206               -2.79917973               -0.24931609                1.74690850                0.18836049
              14.18948385               -2.01329244               50.14195990                0.57958689                1.35779425                1.05698674               -3.77640333               -0.30500947                0.03397501                0.34756119
              15.20568252               -2.86342681               49.84273301                0.72875910                1.70910459                1.30637643               -4.71920995               -0.29932691               -1.85771809                0.45198304
              16.22366595               -3.70378631               49.52469136                0.98031966                1.85149018                1.55215412               -5.67720952               -0.22374173               -2.44029639                1.05941155
              17.24271233               -4.53838406               49.21235266                1.00000000                1.90463797                1.89106366               -6.65294316               -0.30577739               -2.05625528               -1.85547526
               7.99880684                4.68270028               52.05892854                0.93580916               -0.66886066               -0.92801268                2.79985790               -0.08107419                0.88158085                3.33123162
               8.99211823                3.91704129               51.74254919                0.46519408               -0.44471580               -0.48893580                1.85669618               -0.15643311                2.40486622               -2.68081631
               9.98991252                3.14704103               51.45717067                0.08980640                0.25484593                0.00194892                1.12680323               -0.99947630                4.95313159               -5.60372619
              10.99721515                2.36087208               51.19186770                0.00786582                1.04110110               -0.57299158                0.30626973               -2.03933134                6.73830210               -4.15736828
              12.01073454                1.54898634               50.94253855                0.01024017                1.39084476               -0.76900505               -0.53418573               -3.08835796                8.43416690               -2.57714701
              13.02503204                0.70959294               50.71176059                0.01337706                1.20668838               -0.42736898               -1.43503779               -3.72029518                9.48811080               -1.47712479
              14.03486831               -0.14628039               50.48375285                0.01585911                0.79934329                0.11647840               -2.33647806               -3.51261708                8.93521981               -0.31249654
              15.04101891               -1.00272258               50.24106052                0.07843940                0.65339377                0.46835377               -3.18580501               -2.46175677                7.30506217                1.65230973
              16.04793619               -1.85036305               49.97885301                0.28702218                0.89441226                0.80883140               -4.01711670               -0.98460402                5.73486901                4.75634090
              17.05890715               -2.68826477               49.70316275                0.63413963                1.31580596                1.29960768               -4.85370183               -0.34629577                3.64402989                2.85243494
              18.07425230               -3.51947343               49.39778694                0.96381598                1.53451500                1.87682718               -5.74506095               -0.29877609                2.22874388               -2.68941623
               8.76131454                5.67356164               51.94471837                0.84309824               -0.57244400               -0.87442009                2.51848010               -0.08767738                0.34817479                3.93033670
               9.75559010                4.91308651               51.58655866                0.31618494               -0.52120171               -0.30232268                1.32099514               -0.10610662                2.60172155               -3.75501556
              10.75089051                4.15010507               51.27390177                0.01243762                0.17191883                0.52173430                0.46809009               -2.08799509               10.14761224              -12.07975167
              11.75902848                3.35005535               51.06710347                0.00010000                1.30285733               -0.81029328               -0.26374112               -4.57802041               16.58875333               -8.18536139
              12.77694766                2.53128301               50.88403863                0.00010000                1.97401319               -1.40793280               -1.11236378               -5.97299784               18.07301474               -5.23218674
              13.79850874                1.69582984               50.70764422                0.00010000                2.18210788               -1.25281294               -1.91200162               -6.82384250               18.59228644               -2.94685286
              14.82058981                0.84807306               50.53515891                0.00010000                2.29113154               -0.74665639               -2.68377990               -6.67032645               18.95070222               -0.53912747
              15.84433138               -0.00392537               50.36516545                0.00010000                2.54714096               -0.42109457               -3.40443034               -5.19872356               19.37395295                2.90447753
              16.87153263               -0.84725018               50.19970858                0.10625786                2.07595177               -0.60804741               -3.18082678               -2.71788531               13.74896321                7.65751027
              17.88585041               -1.67779416               49.91590808                0.29722213                1.38107431                0.53002368               -3.85128139               -0.91229764                4.53033630                3.93535087
              18.89915412               -2.50084752               49.56473304                0.72856092                1.33037086                2.18926754               -4.95538359               -0.67451161                1.20339213               -4.18278476
               9.51800356                6.66521187               51.82845569                0.82135574               -0.45508964               -0.78028552                2.20716806               -0.06654215                0.06288600                3.77045412
              10.51345267                5.91099484               51.43114280                0.28671054               -0.34098960               -0.14743930                0.84487251                0.08560695                0.95316395               -3.61531384
              11.51118377                5.15747572               51.05195723                0.00457730                0.55120698                0.70344562               -0.33890622               -2.61009798               15.14367391              -12.51210900
              12.52447681                4.34466622               50.93852313                0.00010000                1.71581622               -0.24774256               -0.96484277               -5.53176844               28.05506680               -8.44246618
              13.54550010                3.52082768               50.81914942                0.00010000                2.36441688               -0.77913342               -1.66810540               -6.32363023               27.93833014               -5.53090440
              14.57176514                2.68453668               50.70460286                0.00010000                2.78584494               -0.97200428               -2.38583713               -6.95712930               28.38575106               -2.81441357
              15.60121699                1.83878648               50.59471770                0.00010000                3.03012676               -0.90828147               -3.07722834               -7.00496329               28.90515259               -0.01506241
              16.63236768                0.98885553               50.49043249                0.00010000                3.31151363               -0.81796009               -3.66706256               -6.56913849               29.59143611                3.05129598
              17.66744727                0.13747601               50.39353676                0.10621728                3.09454301               -1.30295047               -4.44294414               -4.08827375               20.90126242                6.52897439
              18.69425854               -0.67766429               50.11522594                0.28151005                1.97107662                0.20905731               -3.60028683               -0.86769883                6.05008610                2.41271693
              19.70686880               -1.47568808               49.71869613                0.71332365                1.26102600                2.39691892               -4.82247874               -0.07892988                0.18432955               -5.10209753
              10.26841777                7.65795593               51.71146187                0.80899851               -0.33793693               -0.67320660                1.90186819               -0.06478609                0.06917714                3.74904037
              11.26503840                6.91013772               51.27806791                0.27125673               -0.17002990               -0.02281872                0.37261727                0.14455028                0.79090657               -3.45823165
              12.26501717                6.16417399               50.85933730                0.00191187                1.00013749                0.69658376               -0.94678637               -3.21376007               19.87270957              -10.64020574
              13.28504115                5.34510050               50.80746976                0.00010000                2.27937080                0.20041236               -1.56532419               -6.69241066               38.05391114               -8.20469405
              14.31060459                4.51570034               50.75429142                0.00010000                2.81831021               -0.32014253               -2.19904044               -7.20298055               37.99285188               -5.34855044
              15.34140735                3.67638976               50.70304807                0.00010000                3.27835559               -0.67775152               -2.84164729               -7.59614326               38.26537703               -2.55285096
              16.37617170                2.82990743               50.65669173                0.00010000                3.64258644               -0.83895233               -3.47251335               -7.64220023               38.81846040                0.31598450
              17.41425908                1.97971543               50.61730622                0.00010000                4.00576426               -0.89208146               -4.11887010               -7.41276417               39.63173353                3.39668272
              18.45628699                1.12669081               50.58754975                0.11273644                3.37007163               -0.88353956               -4.84157711               -4.49000866               27.01575649                6.88682426
              19.48166052                0.32638699               50.29551218                0.29012263                1.86680493                0.56282713               -3.48414064               -0.99685952                7.13798516                1.32882149
              20.49362308               -0.45290914               49.86444686                0.71859380                1.19625677                2.15510674               -4.81447816               -0.00153857                0.26636008               -5.69838887
              11.01234427                8.65174774               51.59513515                0.79817327               -0.22186482               -0.56916878                1.59848238               -0.06426159                0.06983954                3.78163503
              12.01012562                7.91053847               51.12580211                0.25901642               -0.01992397                0.10402460               -0.09681134                0.15544276                0.96021105               -3.38403815
              13.01194579                7.17140739               50.67441724                0.00124928                1.44883107                0.77760446               -1.51204334               -3.73826941               24.83890917              -10.11063140
              14.03910224                6.34867447               50.68243208                0.00010000                2.91027208                0.47902328               -2.09389182               -7.75384867               47.76082775               -7.62269045
              15.07015123                5.51442483               50.69179219                0.00010000                3.32664750                0.00240978               -2.67279152               -8.20566224               47.84606995               -4.93462305
              16.10563519                4.67098165               50.70387655                0.00010000                3.74480451               -0.44907028               -3.25004736               -8.45572885               48.14061026               -2.14023126
              17.14504732                3.82200744               50.72120763                0.00010000                4.08469134               -0.74072578               -3.82355569               -8.41270763               48.73283018                0.76731856
              18.18732902                2.97101390               50.74671911                0.00010000                4.29641071               -0.80596488               -4.39638553               -8.21659581               49.68662298                3.90630942
              19.23097553                2.11980521               50.78385176                0.11942368                3.32961410               -0.54136850               -4.97778061               -4.93697670               32.74840766                7.43305526
              20.25392130                1.33359225               50.46957230                0.29924346                1.72273786                0.78428258               -3.32536663               -0.93985656                7.81550395                1.08963119
              21.26543029                0.56741406               50.00337602                0.72410941                1.15089918                1.93739070               -4.78100893                0.01628336                0.32711334               -6.03555395
              11.74955109                9.64657256               51.47912690                0.78848634               -0.10634858               -0.46601354                1.29514900               -0.06377955                0.07262471                3.78186310
              12.74848761                8.91221821               50.97411250                0.24855193                0.12823458                0.23277364               -0.56439521                0.14476045                1.21110968               -3.33225274
              13.75211578                8.17972608               50.49192460                0.00096455                1.92295676                0.89106631               -2.04646419               -4.20649434               29.96019782               -9.86653436
              14.78694674                7.35468097               50.56156268                0.00010000                3.60341868                0.69133999               -2.56936504               -8.66701197               57.51602397               -7.12840647
              15.82418416                6.51574854               50.63311368                0.00010000                3.88817144                0.19173650               -3.08062458               -9.11388002               57.63803048               -4.38918749
              16.86471017                5.66740835               50.70789260                0.00010000                4.18505704               -0.32089474               -3.58426884               -9.23610130               57.98107490               -1.62140255
              17.90788530                4.81509291               50.78879545                0.00010000                4.37096097               -0.66156483               -4.07141883               -9.06260227               58.68109510                1.28893415
              18.95212939                3.96359613               50.87950176                0.00221120                4.35419043               -0.70014808               -4.52363679               -8.75489765               59.82899377                4.49168525
              19.99496911                3.11586344               50.98403984                0.12621143                3.15625757               -0.29833103               -4.90845989               -5.09276601               38.23966948                8.09572669
              21.01525454                2.34207264               50.64095404                0.30820602                1.56680112                0.85093623               -3.10576777               -0.80093291                8.18869730                1.16758436
              22.02630513                1.58583867               50.13907902                0.72949915                1.10505879                1.75995843               -4.68993732                0.02503453                0.37823606               -6.05068973
              12.47977737               10.64242747               51.36311009                0.77984997                0.00899432               -0.36314058                0.99066460               -0.06401338                0.07416943                3.74503871
              13.47986731                9.91519394               50.82267927                0.23965439                0.27878892                0.36334455               -1.03145849                0.11485623                1.52898524               -3.30207352
              14.48535314                9.18922872               50.31131926                0.00080230                2.49361159                0.99081237               -2.55412578               -4.66400405               35.24174851               -9.61821937
              15.52973954                8.36250127               50.44469373                0.00010000                4.48965499                0.77112597               -2.98886896               -9.36393634               67.37517825               -6.52282951
              16.57514624                7.51825956               50.57878847                0.00010000                4.59146227                0.15786247               -3.41374239               -9.65365419               67.39424118               -3.72040834
              17.62156879                6.66456376               50.71535515                0.00010000                4.62306256               -0.32211304               -3.82752654               -9.49722035               67.74963506               -1.07742891
              18.66760750                5.80877614               50.85906613                0.00010000                4.49458764               -0.57582311               -4.20775187               -9.23204427               68.64752183                1.70611268
              19.71146054                4.95701094               51.01542243                0.00698498                4.15181042               -0.60273945               -4.51004186               -8.88250316               70.12393699                4.94125128
              20.75064370                4.11383859               51.18890818                0.13307965                2.82334335               -0.11037522               -4.65223657               -5.08677177               43.63591804                8.75292523
              21.76792741                3.35061097               50.81234543                0.31706542                1.38776076                0.81829413               -2.81231488               -0.66877431                8.34913595                1.46949160
              22.77839892                2.60261323               50.27430420                0.73447614                1.04715128                1.59560593               -4.52916153                0.02476485                0.41886042               -5.80759353
              13.20273789               11.63930975               51.24664684                0.77207366                0.12455928               -0.26075906                0.68354894               -0.06509424                0.09223321                3.71347189
              14.20398348               10.91948510               50.67128173                0.23216340                0.43952421                0.49651874               -1.49840682                0.04425288                1.95864069               -3.33715783
              15.21152837               10.19954232               50.13313671                0.00067898                3.33268455                1.01776011               -3.02190751               -5.22241336               40.81004903               -9.07106115
              16.27063717                9.37010349               50.33412995                0.00010000                5.87601032                0.38181632               -3.34026917               -9.71974532               77.38655718               -5.41822150
              17.32904858                8.51890579               50.53041865                0.00010000                5.68060037               -0.37743614               -3.66009842               -9.10295014               76.97172852               -2.80596056
              18.38424918                7.66096609               50.72587047                0.00010000                5.08743240               -0.43095850               -3.97261780               -8.48566051               77.22422963               -0.59302542
              19.43079723                6.80357645               50.92949263                0.00010000                4.25838452               -0.31444980               -4.23687177               -8.30796525               78.49041580                1.75120510
              20.46941687                5.95154134               51.15134662                0.01191285                3.44182052               -0.27536877               -4.37550251               -8.37132264               80.65631423                4.73005816
              21.49963364                5.11365593               51.39773430                0.14011617                2.18437745                0.15989675               -4.23667542               -5.06938086               49.18401835                8.98296572
              22.51310442                4.35843852               50.98569703                0.32585901                1.15811378                0.72153550               -2.43654144               -0.62370291                8.43770640                1.98895789
              23.52279592                3.61775079               50.41143462                0.73922854                0.96914941                1.42568711               -4.28685308                0.01411192                0.47788748               -5.38554092
              13.91812477               12.63721229               51.13025156                0.76415568                0.23950231               -0.15781256                0.37752729               -0.06591651               -0.04771895                3.23064165
              14.92051979               11.92512431               50.51872778                0.22540408                0.60808631                0.62903368               -1.97067675               -0.11849838                2.74794002               -2.99300682
              15.93028649               11.20958392               49.96292568                0.00059655                4.77306918                0.81780841               -3.42479868               -5.94857879               47.11394065               -6.68032012
              17.01598117               10.37013759               50.23770013                0.00010000                8.59690723               -1.57044646               -3.59741739               -7.80995452               87.44396026               -3.23983486
              18.10222464                9.51071084               50.49130692                0.00010000                7.56018685               -1.20356475               -3.80570916               -6.21026253               85.88820470               -1.53885664
              19.16718491                8.65594459               50.73849906                0.00010000                5.43241515               -0.56138516               -4.01527414               -5.22759395               85.92239682               -0.23498566
              20.21087294                7.80248714               50.99479765                0.00010000                3.33848469                0.14436189               -4.16974509               -5.37568737               87.66831039                1.16427568
              21.23395460                6.95150357               51.27666054                0.01713671                1.57429827                0.78408095               -4.17079989               -6.00966237               91.31485952                3.13990149
              22.24235891                6.11703653               51.60278114                0.14785562                0.87019434                0.88936111               -3.70753978               -4.53619380               55.53934057                6.67670600
              23.25135849                5.36504168               51.16371193                0.33493092                0.88488588                0.59046761               -1.97098075               -0.77696247                8.88335937                2.22407212
              24.26005662                4.63112697               50.55167647                0.74354335                0.86981324                1.25431040               -3.96169611               -0.02721513                0.38882930               -4.21915142
              14.62559552               13.63615350               51.00434795                0.87999945                0.36463704               -0.10587960                0.03174614                0.33830311                1.47535610                2.74700596
              15.62924189               12.93206578               50.37368626                0.61149127                1.09740025                0.69414636               -2.40608728               -0.14054055                5.96344971               -2.58586682
              16.64754352               12.21589849               49.83250016                0.47728997                9.20346420                0.63145704               -3.68183286               -7.94285813               54.53385069               -4.77468529
              17.81331117               11.33869456               50.16932458                0.44542826               13.57464075               -3.14430335               -3.72830345               -6.32020042               96.03479594               -1.69565260
              18.91903634               10.49483449               50.46515497                0.43653420                8.73049127               -1.58763458               -3.83257722               -2.76663866               93.31661852               -0.74039236
              19.98792099                9.64973839               50.75200880                0.44432540                5.43440846               -0.62061985               -3.95197008               -2.34493155               93.23343832               -0.01160475
              21.02772450                8.80646369               51.04827582                0.46827094                2.33766225                0.39765451               -4.02193832               -2.44061494               95.23029743                0.77686096
              22.03467424                7.96722296               51.37405685                0.51040924               -1.61764287                1.57193966               -3.93525835               -3.67906302              100.04767794                1.93891638
              22.99537165                7.13144316               51.76045813                0.57693937               -2.55997546                1.44066273               -3.28246450               -4.54748014               63.35862288                4.70480991
              23.98347473                6.37024788               51.33837165                0.67095212               -0.26453047                0.52061941               -1.44466762               -1.21868382               12.53963687                2.20879917
              24.99008104                5.64283700               50.70876683                0.87316306                0.66063068                1.17100296               -3.50185278                0.26135377                2.30361232               -3.20999448
               7.52440143                3.84975825               53.22028297                1.00000000               -0.88813283               -0.97962280                3.31472107               -0.21849502               -2.34303276                2.73642409
               8.51552010                3.04287025               52.89960153                0.79305983               -0.87122516               -0.60344755                2.33173754               -0.20700126               -3.24478591               -1.65599610
               9.50697693                2.23235970               52.56153590                0.58090097               -1.06345053               -0.31380214                1.26520470               -0.53632401               -3.15143471               -1.00011560
              10.49425109                1.40633862               52.24311484                0.49002908               -1.32150916               -0.05884582                0.26364327               -0.60045291               -1.04388098               -0.36407072
              11.48054674                0.55487117               51.94671682                0.45157919               -1.14197004                0.24938759               -0.78875173               -0.50511909                1.00995383               -0.26066395
              12.47141169               -0.32303065               51.66807441                0.45312845               -0.39800203                0.55115480               -1.88343192               -0.29807408                2.12951228               -0.03232209
              13.47258670               -1.21695868               51.39266520                0.49292992                0.61263226                0.83968021               -2.96744841               -0.23611894                1.61899907                0.18659987
              14.48366433               -2.11184723               51.10312733                0.57698977                1.38195930                1.11196950               -3.99380417               -0.28683639               -0.03893351                0.35033699
              15.50022589               -2.99855556               50.79423837                0.72354821                1.76454624                1.37500822               -4.98636738               -0.28766851               -1.91641293                0.44648276
              16.51895526               -3.87578730               50.46638073                0.97220249                1.93924255                1.63274318               -5.99184714               -0.22407477               -2.51132438                1.05494616
              17.53901074               -4.74708748               50.14406677                1.00000000                2.00554797                1.98270781               -7.01147224               -0.32916968               -2.13060870               -1.89707198
               8.32910448                4.83996202               53.08750202                0.92299929               -0.69551171               -0.96323220                2.91484571               -0.08639836                0.96094694                3.48210752
               9.32214936                4.03683577               52.76143714                0.44933506               -0.46124910               -0.50492073                1.92164922               -0.16404407                2.59313469               -2.84373143
              10.31987950                3.22922168               52.46855324                0.08371000                0.24207314                0.01044596                1.15156501               -1.00058379                5.20411692               -5.86112836
              11.32699083                2.40575016               52.19484976                0.00808005                1.01503443               -0.57964809                0.29027111               -2.01885464                6.93144897               -4.48105955
              12.34018019                1.55736504               51.93694906                0.01043613                1.36775239               -0.75746938               -0.58388978               -3.02803451                8.58633837               -2.97947196
              13.35434587                0.68248090               51.69701108                0.01370018                1.22268080               -0.43383016               -1.51652015               -3.63181600                9.60976798               -1.90675929
              14.36463380               -0.20856188               51.45983623                0.01657131                0.86242681                0.09287361               -2.44820790               -3.43202013                9.08148450               -0.74936250
              15.37159441               -1.10072754               51.20847911                0.07392114                0.73427178                0.46843091               -3.33063090               -2.41519208                7.48667772                1.21721221
              16.37931924               -1.98480548               50.93778980                0.27718190                0.96930310                0.85144161               -4.19684319               -0.98064429                5.92500679                4.80697569
              17.39098047               -2.85945987               50.65354981                0.61615907                1.38499915                1.36079507               -5.06930795               -0.35321620                3.80483495                2.93992549
              18.40701922               -3.72726041               50.33906391                0.95145632                1.60387497                1.96331498               -5.99979623               -0.32839248                2.36215855               -2.79210453
               9.12892596                5.83049361               52.97038956                0.83114912               -0.59463969               -0.90231836                2.61875635               -0.08926260                0.34456687                4.11503208
              10.12297956                5.03277183               52.59994220                0.30259106               -0.54375510               -0.31109308                1.35739632               -0.10138932                2.77619393               -3.96073097
              11.11805086                4.23256862               52.27857951                0.01196666                0.13755334                0.55384022                0.46783073               -2.10847042               10.55066723              -12.68717474
              12.12573063                3.39474566               52.06414107                0.00010000                1.26022295               -0.79113721               -0.32616386               -4.58446390               16.98548718               -8.86405023
              13.14325532                2.53972178               51.87247624                0.00010000                1.94858319               -1.39395905               -1.20153237               -5.90751430               18.43475011               -6.01533580
              14.16470229                1.66829275               51.68787099                0.00010000                2.19497081               -1.27026295               -2.04614391               -6.73770314               18.98279384               -3.79600282
              15.18715473                0.78489879               51.50743435                0.00010000                2.34508990               -0.79129476               -2.86614687               -6.57584375               19.38072952               -1.43100557
              16.21160409               -0.10247861               51.33006119                0.00010000                2.60953019               -0.44009974               -3.62219379               -5.13252053               20.32705636                2.00328611
              17.23934534               -0.98152673               51.16716801                0.09813362                2.13708842               -0.48141121               -3.33740344               -2.74570091               14.71920177                6.63309776
              18.25434586               -1.84857140               50.87677961                0.28128648                1.43493093                0.61150576               -3.96936384               -0.93865633                4.80622041                3.69116957
              19.26804396               -2.70782119               50.51429257                0.71742562                1.36980957                2.30944593               -5.12907387               -0.69983624                1.23737593               -4.72178316
               9.92276277                6.82191566               52.85094407                0.80958897               -0.47162085               -0.80135084                2.29324712               -0.06849793                0.06493998                3.94135777
              10.91804656                6.03061391               52.43966066                0.27339551               -0.35132550               -0.15099004                0.85994556                0.10323576                1.05103372               -3.78754003
              11.91573626                5.24029848               52.04843511                0.00419775                0.50509104                0.73229079               -0.36109912               -2.60254567               15.61414987              -13.09035744
              12.92814839                4.38992742               51.92852525                0.00010000                1.63732756               -0.18802628               -1.03392607               -5.54626292               28.74515898               -9.12965162
              13.94848281                3.52948586               51.80184275                0.00010000                2.31332084               -0.73471055               -1.79512825               -6.29860811               28.56395067               -6.28325466
              14.97441480                2.65707564               51.67981676                0.00010000                2.77027369               -0.93127598               -2.57688057               -6.92161398               29.00280451               -3.64666889
              16.00388829                1.77561222               51.56266959                0.00010000                3.04773584               -0.86273068               -3.34051849               -6.96708316               29.57694810               -0.92540944
              17.03536952                0.89047047               51.45213252                0.00010000                3.33048610               -0.73439338               -4.00338677               -6.47004649               30.20175570                2.03379850
              18.07049801                0.00556630               51.34683953                0.09838241                3.15661403               -1.05717690               -4.89303392               -4.13641119               22.29331191                4.87318028
              19.09850180               -0.84722976               51.07810866                0.26712424                2.05120250                0.37242863               -3.84434691               -0.97300769                7.20583065                1.72543474
              20.11152206               -1.68107149               50.66905318                0.70351595                1.30202605                2.56521564               -5.12942859               -0.07069045                0.22667428               -6.04070340
              10.71015949                7.81446659               52.73084510                0.79728652               -0.34980379               -0.69159210                1.97716754               -0.06655094                0.07218207                3.92267053
              11.70666145                7.02975203               52.28177103                0.25828867               -0.17365264               -0.02039200                0.36832159                0.16352978                0.90961470               -3.62672837
              12.70668644                6.24721443               51.84968716                0.00165028                0.94782695                0.71975948               -0.98078462               -3.20047237               20.45020287              -11.09274303
              13.72561799                5.39098513               51.79136393                0.00010000                2.17242496                0.26949274               -1.65339243               -6.70123454               38.94047303               -8.80497474
              14.75013494                4.52502757               51.73150997                0.00010000                2.72628314               -0.23136446               -2.35938288               -7.18988644               38.83727894               -6.05026444
              15.78014365                3.64966723               51.67342476                0.00010000                3.21416527               -0.56938891               -3.08994059               -7.57585559               39.08434594               -3.33990710
              16.81441824                2.76764418               51.62026166                0.00010000                3.60527186               -0.70196806               -3.82503381               -7.59849296               39.60975220               -0.55812153
              17.85224909                1.88283352               51.57377233                0.00010000                3.99495492               -0.70118217               -4.60147238               -7.25758435               40.34537068                2.39244173
              18.89431734                0.99732973               51.53592252                0.10488034                3.46371992               -0.62474689               -5.49991663               -4.49494696               28.81950401                5.87090940
              19.92152349                0.15887717               51.25904307                0.27584353                1.99981340                0.78128520               -3.84405730               -1.12311000                8.64577116                0.66094541
              20.93431361               -0.65651687               50.81431728                0.70882063                1.27901182                2.33840617               -5.24992213                0.01186173                0.34105256               -6.62593248
              11.49086087                8.80808381               52.61143610                0.78682463               -0.22915517               -0.58557785                1.66378249               -0.06587172                0.07287938                3.95488039
              12.48856932                8.03020607               52.12472210                0.24643379               -0.01835767                0.11186492               -0.11937415                0.17264011                1.11751270               -3.54940244
              13.49049371                7.25469367               51.65905069                0.00102745                1.38706218                0.80569338               -1.55141321               -3.71489055               25.55666051              -10.52134754
              14.51631056                6.39531727               51.66096286                0.00010000                2.77546394                0.56156379               -2.19664135               -7.74448113               48.84764354               -8.15303202
              15.54600299                5.52485857               51.66411787                0.00010000                3.19852625                0.12999732               -2.86342941               -8.17758012               48.89029760               -5.56161610
              16.58028108                4.64568786               51.66990683                0.00010000                3.63745721               -0.27797289               -3.55203664               -8.40824134               49.14610342               -2.84666385
              17.61875214                3.76157286               51.68084864                0.00010000                4.01255960               -0.52394403               -4.26358978               -8.31954787               49.69876373               -0.00577536
              18.66053228                2.87644682               51.69977805                0.00010000                4.29016417               -0.54912046               -5.01323280               -7.98754499               50.60102254                3.10832768
              19.70455542                1.99307136               51.72996610                0.11143394                3.46769634               -0.27942055               -5.83560637               -4.88279062               34.89707941                6.71484374
              20.72988620                1.16839595               51.43432706                0.28483721                1.89959788                1.01755428               -3.76818055               -1.05265980                9.56595953                0.54310256
              21.74254738                0.36569664               50.95316764                0.71432137                1.26611749                2.12896165               -5.31023079                0.02937083                0.41611560               -6.85115192
              12.26459754                9.80275503               52.49235098                0.77744339               -0.10931435               -0.48088315                1.35094336               -0.06619972                0.07547410                3.95340331
              13.26350440                9.03198933               51.96827179                0.23633250                0.13399418                0.24598544               -0.60452444                0.15873633                1.42407398               -3.49545928
              14.26727742                8.26332830               51.47122614                0.00076663                1.85295352                0.92298002               -2.08416828               -4.17007286               30.84318680              -10.24261317
              15.30056347                7.40221641               51.53528323                0.00010000                3.44676622                0.78339790               -2.67975102               -8.62259422               58.81584180               -7.59439197
              16.33621275                6.52762752               51.60123985                0.00010000                3.73505362                0.34549792               -3.29431252               -9.04286162               58.88830377               -4.92742190
              17.37526454                5.64410777               51.67035797                0.00010000                4.05277865               -0.10391120               -3.93171180               -9.13059763               59.18616494               -2.21711832
              18.41726832                4.75716530               51.74559972                0.00010000                4.28675791               -0.38787609               -4.58761466               -8.90074975               59.85468603                0.66308566
              19.46099970                3.87185111               51.83075538                0.00010000                4.37220429               -0.39984586               -5.25799711               -8.47104979               60.99452145                3.89441013
              20.50471241                2.99174132               51.93009492                0.11813202                3.34226594               -0.04024384               -5.93971000               -4.99631718               40.69605751                7.64734304
              21.52784502                2.17922825               51.60767362                0.29369281                1.77936201                1.08105829               -3.60261374               -0.89756974               10.10935605                0.75083556
              22.54029965                1.38606236               51.08952261                0.71947898                1.24546306                1.95319486               -5.28056956                0.03883065                0.47782851               -6.73721706
              13.03106827               10.79846615               52.37324489                0.76895564                0.01024981               -0.37685974                1.03730924               -0.06661292                0.07684092                3.91368846
              14.03117077               10.03512578               51.81208269                0.22787619                0.28984515                0.38219190               -1.08894527                0.12146792                1.81039224               -3.46407451
              15.03686518                9.27315327               51.28556652                0.00062954                2.41943439                1.02028018               -2.58300682               -4.61527991               36.31943070               -9.96064797
              16.07955946                8.41098523               51.41420753                0.00010000                4.31946118                0.86209796               -3.09792404               -9.27731677               68.91088195               -6.91411078
              17.12325440                7.53176853               51.54351028                0.00010000                4.42859460                0.32207669               -3.64010528               -9.52653157               68.86497246               -4.15492031
              18.16813135                6.64360964               51.67522899                0.00010000                4.48697002               -0.08241364               -4.20740975               -9.32298736               69.16994464               -1.54204567
              19.21299380                5.75381534               51.81423728                0.00010000                4.42019512               -0.26814047               -4.78268798               -8.99777414               70.05306914                1.24098014
              20.25653526                4.86844991               51.96641273                0.00257082                4.21290650               -0.26935569               -5.33666584               -8.56792634               71.57983589                4.54140209
              21.29725193                3.99226648               52.13693270                0.12495784                3.05392566                0.14219543               -5.82148129               -4.97274207               46.36224473                8.55409787
              22.31761377                3.19001711               51.78185676                0.30246164                1.62019240                1.03466514               -3.33914464               -0.75701407               10.37912225                1.18620917
              23.32965578                2.40476053               51.22620303                0.72437762                1.20420116                1.78640958               -5.15188252                0.03741413                0.52392241               -6.36111242
              13.78994602               11.79521784               52.25366340                0.76145695                0.13006114               -0.27274169                0.72088602               -0.06760161                0.09603258                3.88064519
              14.79124663               11.03963317               51.65593174                0.22092835                0.45831758                0.52078582               -1.57347181                0.03619088                2.32963373               -3.50097270
              15.79911237               10.28373391               51.10276009                0.00055096                3.25776191                1.03053820               -3.03348945               -5.16933161               42.11667469               -9.35769140
              16.85640187                9.41945837               51.30016881                0.00010000                5.69726695                0.46249120               -3.43728900               -9.58570078               79.17991302               -5.71663692
              17.91305771                8.53406905               51.49266396                0.00010000                5.51780563               -0.20884987               -3.88648661               -8.93870352               78.67560171               -3.11915522
              18.96675798                7.64245950               51.68421736                0.00010000                4.97074277               -0.19421528               -4.36769537               -8.26936022               78.86741703               -0.91308086
              20.01247257                6.75180249               51.88421982                0.00010000                4.22160235               -0.01177226               -4.84653912               -8.02373790               80.14080063                1.44921920
              21.05119003                5.86646400               52.10345382                0.00733747                3.56088965                0.08330641               -5.26134300               -8.03646901               82.43386965                4.50353930
              22.08369036                4.99458523               52.34950473                0.13189672                2.45103259                0.42376458               -5.50215738               -4.97553064               52.16665465                8.99863645
              23.10021068                4.19992156               51.95891019                0.31105704                1.39353640                0.91894633               -2.97504504               -0.71962306               10.53469441                1.84212416
              24.11156109                3.42179055               51.36570541                0.72891703                1.13504058                1.61314965               -4.91949576                0.02430185                0.58836748               -5.80539679
              14.54088558               12.79301132               52.13416225                0.75382051                0.24929437               -0.16742547                0.40527416               -0.06865938               -0.05191238                3.37719026
              15.54337852               12.04554150               51.49856420                0.21463798                0.63838831                0.65860696               -2.06389104               -0.15942801                3.24268302               -3.13959883
              16.55365335               11.29376404               50.92865826                0.00059237                4.70658890                0.76816774               -3.40458046               -5.83485869               48.70236750               -6.86934984
              17.63751030               10.42023506               51.20124322                0.00010000                8.39129294               -1.45312016               -3.67432750               -7.66842434               89.51403350               -3.41627696
              18.72147920                9.52759153               51.45215262                0.00010000                7.37502058               -1.03352720               -4.01782164               -6.07189650               87.82206397               -1.70616546
              19.78501071                8.63972533               51.69644682                0.00010000                5.35176702               -0.34676542               -4.40348441               -5.06457258               87.77905331               -0.40046657
              20.82851454                7.75357990               51.95018747                0.00010000                3.40062095                0.40204079               -4.78321610               -5.13212099               89.54452885                1.01756050
              21.85302313                6.87011604               52.23078740                0.01241664                1.78846065                1.07971767               -5.07026389               -5.73060219               93.42646935                3.04828581
              22.86428376                6.00074177               52.55964694                0.13957928                1.14964262                1.24069468               -5.03097893               -4.39071725               58.78730450                6.77791958
              23.87601598                5.20839604               52.14160370                0.31995528                1.10600352                0.76815869               -2.50561031               -0.91226188               11.02666674                2.19841819
              24.88640383                4.43702353               51.50923783                0.73297897                1.03878441                1.43891682               -4.58719240               -0.02342720                0.49887651               -4.48353329
              15.28351247               13.79186933               52.00473968                0.87489381                0.37928794               -0.11419882                0.04699780                0.35628742                1.54005541                2.87241337
              16.28730535               13.05280531               51.34908571                0.60633686                1.21045828                0.72638121               -2.51600454               -0.24592046                6.67075496               -2.71200114
              17.30772164               12.29909726               50.79574627                0.47619170                9.09502662                0.53332241               -3.63933934               -7.71363781               56.47857531               -4.92435907
              18.46920588               11.39039597               51.13166431                0.44527448               13.22039340               -2.98390899               -3.78063651               -6.11537934               98.34725451               -1.77245888
              19.57212951               10.51339851               51.42586780                0.43664541                8.51361430               -1.41930290               -4.01403006               -2.67855868               95.45502345               -0.81071714
              20.63947817                9.63552419               51.71074901                0.44408256                5.36549679               -0.42011428               -4.30467789               -2.23101441               95.26991753               -0.07654309
              21.67943944                8.75984330               52.00531187                0.46722727                2.49689694                0.62634059               -4.59853821               -2.28080218               97.27321473                0.72794674
              22.68941611                7.88805835               52.33070848                0.50794231               -1.09217152                1.79423137               -4.79889551               -3.38291115              102.37753376                1.92926944
              23.65759601                7.01939912               52.72163170                0.57273451               -2.18662094                1.86573505               -4.60012998               -4.30745549               66.88133197                4.82294841
              24.64568369                6.21528473               52.32162195                0.66336858               -0.18792210                0.68886929               -1.95987410               -1.47474102               14.83949327                2.25197870
              25.65383757                5.45056889               51.67103726                0.86778222                0.81538789                1.35453629               -4.10590080                0.27178986                2.48501434               -3.36613497
               7.82612027                4.01241226               54.25409283                0.99757820               -0.92094024               -1.01764286                3.44844895               -0.23029067               -2.43516106                2.84046799
               8.81691087                3.16607408               53.92333167                0.78396499               -0.89757223               -0.62480844                2.41503301               -0.21727373               -3.37999737               -1.74879145
               9.80816883                2.31602911               53.57433283                0.57667233               -1.06044997               -0.32542541                1.29435035               -0.52416690               -3.29626040               -0.97582858
              10.79570187                1.45076392               53.24563806                0.48845544               -1.27468254               -0.05392639                0.24081308               -0.57754434               -1.17830116               -0.37818344
              11.78267518                0.56098535               52.93846520                0.45138246               -1.07060425                0.26521301               -0.86308271               -0.48284174                0.83330753               -0.26610888
              12.77428979               -0.35414255               52.64862009                0.45308767               -0.34107406                0.58037292               -2.00857060               -0.28755122                1.94525244               -0.03632178
              13.77585370               -1.28486657               52.36213218                0.49200196                0.64211175                0.88297864               -3.14384972               -0.22470959                1.47872749                0.18445063
              14.78713202               -2.21698927               52.06208382                0.57449331                1.41235871                1.16770796               -4.22116386               -0.26998495               -0.12673249                0.35248626
              15.80410087               -3.14160002               51.74300566                0.71862419                1.82395181                1.44468399               -5.26443924               -0.27533934               -1.98846096                0.44193865
              16.82361106               -4.05702556               51.40485442                0.96420255                2.03135985                1.71604210               -6.32122860               -0.22411956               -2.59154790                1.05090718
              17.84472807               -4.96631979               51.07212321                1.00000000                2.11170104                2.07784702               -7.38777201               -0.35550062               -2.21255248               -1.94630538
               8.67015554                5.00223583               54.11722545                0.91021048               -0.72258317               -0.99960105                3.03124183               -0.09196662                1.04587637                3.63872807
               9.66292971                4.15982600               53.78098217                0.43350318               -0.47866517               -0.52128583                1.98849178               -0.17239098                2.79164153               -3.01672610
              10.66058224                3.31277485               53.48020197                0.07762078                0.22592975                0.02253022                1.17943541               -1.00325926                5.46917763               -6.12847137
              11.66744831                2.45022466               53.19767313                0.00833976                0.98588784               -0.58325338                0.27629404               -1.99988721                7.14265046               -4.83001765
              12.68030000                1.56363748               52.93086075                0.01069257                1.34459631               -0.74513705               -0.63363711               -2.96629560                8.76229849               -3.41245087
              13.69434023                0.65166118               52.68143019                0.01409838                1.23649824               -0.43766725               -1.59907210               -3.53787675                9.75622594               -2.38331180
              14.70502996               -0.27603678               52.43478869                0.01737638                0.92293325                0.07430765               -2.56325682               -3.34064331                9.25083358               -1.25268734
              15.71279890               -1.20531219               52.17444790                0.06950186                0.81678312                0.47381110               -3.47781016               -2.35547918                7.68631558                0.70472858
              16.72136562               -2.12715318               51.89491614                0.26759174                1.04654235                0.89810322               -4.37756860               -0.97277855                6.12981707                4.81938652
              17.73372974               -3.03986514               51.60177659                0.59834442                1.45508306                1.42479753               -5.28642993               -0.35744618                3.97858768                3.02636853
              18.75046728               -3.94554131               51.27779101                0.93900591                1.67375406                2.05236677               -6.25772036               -0.36023464                2.50664644               -2.91535088
               9.50910061                5.99242024               53.99709349                0.81943785               -0.61765731               -0.93261720                2.72350720               -0.09150523                0.33907791                4.30760410
              10.50292403                5.15564837               53.61370659                0.28911191               -0.56978113               -0.32053951                1.39646380               -0.09439687                2.96282057               -4.17882476
              11.49770498                4.31647971               53.28325838                0.01142449                0.09587337                0.58930327                0.47138453               -2.12647876               10.96752426              -13.31103254
              12.50484150                3.43909886               53.06058019                0.00010000                1.21038810               -0.76871662               -0.38405504               -4.59365297               17.40139331               -9.57678627
              13.52191274                2.54608261               52.86000798                0.00010000                1.91825061               -1.37543142               -1.29322807               -5.84035692               18.82344038               -6.85979828
              14.54320651                1.63710411               52.66672134                0.00010000                2.20507280               -1.28058237               -2.18783610               -6.64044348               19.39134782               -4.73934018
              15.56601420                0.71661958               52.47783597                0.00010000                2.39661619               -0.82561166               -3.05900496               -6.46034588               19.83382778               -2.45580852
              16.59113884               -0.20751305               52.29272157                0.00010000                2.65920250               -0.44337256               -3.85116818               -5.04117884               21.35324955                0.93192919
              17.61919825               -1.12363796               52.13296051                0.09012113                2.18557165               -0.33308555               -3.51581091               -2.75224130               15.80457490                5.38321635
              18.63485027               -2.02852961               51.83652081                0.26562834                1.48387361                0.72230415               -4.07670084               -0.96013672                5.14217424                3.31699732
              19.64887572               -2.92527245               51.46215156                0.70640258                1.40254545                2.45072282               -5.29573867               -0.72198547                1.27629939               -5.41511298
              10.34186918                6.98358349               53.87432063                0.79799516               -0.48868784               -0.82514612                2.38369090               -0.07138016                0.06696471                4.12102273
              11.33698230                6.15341521               53.44834171                0.26022217               -0.36335034               -0.15533273                0.87703640                0.12210148                1.16829819               -3.96787596
              12.33460218                5.32456092               53.04473525                0.00378890                0.44950225                0.76119186               -0.37566479               -2.59207679               16.11234348              -13.67304444
              13.34597235                4.43485033               52.91784461                0.00010000                1.54427160               -0.12677263               -1.10034067               -5.56228816               29.45221715               -9.83841820
              14.36548761                3.53612885               52.78324685                0.00010000                2.25110185               -0.68313385               -1.92618234               -6.27120996               29.20053120               -7.09252776
              15.39099439                2.62604953               52.65306524                0.00010000                2.74762952               -0.88012837               -2.77972437               -6.87708939               29.62691631               -4.57269511
              16.42044020                1.70745098               52.52790733                0.00010000                3.06192374               -0.80268144               -3.62136466               -6.91121031               30.25559093               -1.97328726
              17.45223286                0.78582036               52.41036475                0.00010000                3.34485820               -0.62841106               -4.35984263               -6.34495371               30.81014462                0.81544154
              18.48733736               -0.13381489               52.29567608                0.09072254                3.19643218               -0.76898099               -5.33367390               -4.15156676               23.81210464                2.86846041
              19.51616150               -1.02541906               52.03833900                0.25293777                2.10879455                0.59585561               -4.13374668               -1.06905298                8.50106031                0.80781677
              20.52951325               -1.89652686               51.61610756                0.69392623                1.33517484                2.78650967               -5.48551366               -0.05978097                0.28544388               -7.23928430
              11.16800956                7.97591732               53.75100523                0.78591571               -0.36209253               -0.71220078                2.05634904               -0.06952719                0.07480785                4.10673877
              12.16438863                7.15254171               53.28543434                0.24541980               -0.17906151               -0.01827751                0.36464668                0.18326039                1.05521086               -3.80184674
              13.16442833                6.33170355               52.83972160                0.00137494                0.88195845                0.74402749               -1.00283273               -3.18711224               21.06713842              -11.54493028
              14.18202780                5.43656340               52.77440191                0.00010000                2.04305055                0.34220985               -1.73579715               -6.71340162               39.84331325               -9.42921368
              15.20528934                4.53241993               52.70710376                0.00010000                2.61573934               -0.13331100               -2.52386981               -7.17681326               39.68200171               -6.80433134
              16.23434259                3.61950154               52.64124926                0.00010000                3.13649147               -0.44671874               -3.35300576               -7.55109364               39.89352914               -4.21761981
              17.26801917                2.70056596               52.58019105                0.00010000                3.55815238               -0.54485599               -4.20147949               -7.54358130               40.37950994               -1.57163369
              18.30550564                1.77991873               52.52527677                0.00010000                3.96935817               -0.48114758               -5.11069291               -7.07921927               41.01263397                1.17883913
              19.34740633                0.86098242               52.47755142                0.09694898                3.53377697               -0.31277122               -6.17530657               -4.47502394               30.78654019                4.54115301
              20.37618118               -0.01661250               52.21863104                0.26168116                2.12446865                1.06213996               -4.28794123               -1.23236193               10.35312366               -0.19608380
              21.38989571               -0.86954226               51.75944842                0.69928889                1.37145289                2.58562750               -5.77649076                0.03493325                0.44014987               -7.77270692
              11.98722985                8.96933947               53.62841080                0.77547525               -0.23685646               -0.60427414                1.73263865               -0.06851114                0.07571868                4.13891114
              12.98486128                8.15304966               53.12341462                0.23384577               -0.01958034                0.12033626               -0.14223117                0.19036433                1.31641742               -3.72100591
              13.98683824                7.33944147               52.64338898                0.00079770                1.30633253                0.83272184               -1.57206037               -3.69076943               26.32559138              -10.93067869
              15.01098793                6.44169453               52.63849925                0.00010000                2.60874833                0.64925283               -2.28941383               -7.73783854               49.94389705               -8.70106821
              16.03901321                5.53346263               52.63452360                0.00010000                3.04192776                0.26938780               -3.05644189               -8.14966081               49.92403034               -6.23603246
              17.07182649                4.61711516               52.63283582                0.00010000                3.50690866               -0.08788570               -3.87063217               -8.35888791               50.12278843               -3.63848680
              18.10915138                3.69655387               52.63593584                0.00010000                3.92027591               -0.27999884               -4.73424668               -8.21776544               50.61412868               -0.91304663
              19.15023201                2.77619741               52.64645445                0.00010000                4.26083669               -0.25345416               -5.67078154               -7.73025999               51.42115549                2.11096262
              20.19436811                1.85992968               52.66713963                0.10347550                3.59034703                0.04306361               -6.74863174               -4.79039922               37.25232013                5.70452046
              21.22203895                0.99582374               52.39420868                0.27065906                2.08516597                1.30860754               -4.31781103               -1.14555975               11.58776004               -0.14959224
              22.23607143                0.15518569               51.89717140                0.70474678                1.40324860                2.38005976               -5.95627767                0.04959602                0.53332540               -7.83489010
              12.79921896                9.96383183               53.50614576                0.76631348               -0.11250353               -0.49753268                1.41008929               -0.06790303                0.07897031                4.13591181
              13.79809393                9.15494844               52.96202201                0.22422145                0.13745565                0.26014190               -0.64631292                0.17091954                1.69284243               -3.66483304
              14.80196807                8.34835798               52.45024124                0.00056709                1.75779706                0.95201714               -2.09727234               -4.13106486               31.79237348              -10.61394709
              15.83324987                7.44954846               52.50796766                0.00010000                3.24537073                0.88194751               -2.77387617               -8.57624051               60.12090999               -8.07018737
              16.86687549                6.53780769               52.56722743                0.00010000                3.54118644                0.51372055               -3.50692729               -8.96968078               60.11564139               -5.50611735
              17.90407360                5.61774383               52.62925837                0.00010000                3.88530611                0.13741494               -4.29670367               -9.02137619               60.34268341               -2.89017840
              18.94458161                4.69496598               52.69704316                0.00010000                4.17255105               -0.07891096               -5.14203352               -8.72802089               60.94727529               -0.08571882
              19.98752462                3.77484965               52.77434182                0.00010000                4.36952013               -0.05284321               -6.05314797               -8.14962236               62.01799459                3.11602274
              21.03197201                2.86184370               52.86524564                0.11010567                3.52446785                0.27905290               -7.06548648               -4.86067672               43.39649743                6.94411192
              22.05801397                2.00955965               52.56890177                0.27953998                2.00958557                1.36374227               -4.21787970               -0.97920937               12.37209460                0.22718845
              23.07216373                1.17805894               52.03346762                0.70983105                1.41497512                2.20112412               -6.00035059                0.05559769                0.60530767               -7.54205608
              13.60363858               10.95938882               53.38385627                0.75812103                0.01149455               -0.39132759                1.08667106               -0.06848653                0.08040558                4.09336351
              14.60375352               10.15825250               52.80090036                0.21623027                0.29891712                0.40178483               -1.14912062                0.12392671                2.16738905               -3.63245133
              15.60961692                9.35848181               52.25965912                0.00046435                2.31299479                1.04693825               -2.57805419               -4.56311490               37.48067025              -10.28329830
              16.65001342                8.45933348               52.38273525                0.00010000                4.09036527                0.95932961               -3.18234451               -9.18315353               70.44703763               -7.30844428
              17.69142423                7.54373704               52.50598637                0.00010000                4.21136263                0.50363252               -3.86037509               -9.39167228               70.30069874               -4.62148846
              18.73424067                6.61986346               52.63120695                0.00010000                4.30304565                0.18714134               -4.60490031               -9.13966639               70.52219389               -2.07306410
              19.77748514                5.69497565               52.76341237                0.00010000                4.30605845                0.08223334               -5.40409444               -8.74638716               71.34781783                0.66943821
              20.82036184                4.77514054               52.90868912                0.00010000                4.24797183                0.11939072               -6.24601263               -8.20900842               72.85089263                3.98677317
              21.86244458                3.86551074               53.07247856                0.11680897                3.29388384                0.45353624               -7.13149837               -4.82518051               49.37478192                8.14953756
              22.88623952                3.02309859               52.74556254                0.28819170                1.88701188                1.29872056               -3.98851489               -0.83594587               12.81558203                0.82926956
              23.90018481                2.19920817               52.17126655                0.71451129                1.39452954                2.02745628               -5.90815666                0.05141335                0.65818383               -6.98876120
              14.40012187               11.95600528               53.26106456                0.75089121                0.13575973               -0.28545024                0.76056011               -0.06991280                0.10004559                4.05820063
              15.40147947               11.16298414               52.63981229                0.20982806                0.47514630                0.54629350               -1.65228690                0.02076910                2.80119348               -3.67144650
              16.40962480               10.36929675               52.07246692                0.00044527                3.14260470                1.03644693               -2.99451278               -5.11055903               43.53209156               -9.61407263
              17.46433156                9.46873505               52.26538417                0.00010000                5.44436309                0.54915347               -3.50009759               -9.43311727               80.96987352               -6.01172670
              18.51851206                8.54788034               52.45268891                0.00010000                5.28550499               -0.01766752               -4.10064380               -8.76051517               80.33493644               -3.45551589
              19.57004166                7.62148665               52.63851657                0.00010000                4.79323608                0.07700743               -4.77916417               -8.03896201               80.42651242               -1.28462224
              20.61437678                6.69661065               52.83256185                0.00010000                4.13838441                0.33853282               -5.50966662               -7.71556968               81.65335892                1.06393575
              21.65280935                5.77723746               53.04611976                0.00275546                3.65667891                0.50370385               -6.25346299               -7.65167708               83.98718374                4.16159669
              22.68751036                4.87091442               53.28769115                0.12381996                2.73941367                0.74786039               -6.95007473               -4.84296403               55.45377609                8.85513890
              23.70759763                4.03553406               52.92619613                0.29660023                1.67312290                1.15998499               -3.63788421               -0.81224665               13.08701394                1.64745795
              24.72097282                3.21860806               52.31304470                0.71883055                1.33751930                1.84581432               -5.68939762                0.03645470                0.72976948               -6.26803839
              15.18828262               12.95367981               53.13835704                0.74344902                0.25948222               -0.17791914                0.43479849               -0.07100932               -0.05559426                3.53207228
              16.19087744               12.16917837               52.47744996                0.20410378                0.66861023                0.68993073               -2.16174568               -0.21490673                3.86939741               -3.29206011
              17.20165482               11.37921075               51.89483407                0.00063557                4.59450229                0.69692779               -3.32113077               -5.69751024               50.42885284               -7.02841621
              18.28276749               10.47031654               52.16421358                0.00010000                8.09037504               -1.31659261               -3.70652155               -7.50119456               91.57934032               -3.58852874
              19.36346232                9.54338369               52.41095049                0.00010000                7.09818188               -0.83452696               -4.21101613               -5.91864455               89.71049950               -1.88649155
              20.42473112                8.62140361               52.65042937                0.00010000                5.19803059               -0.09417550               -4.80454557               -4.89018910               89.54469098               -0.59587373
              21.46742293                7.70174630               52.89913333                0.00010000                3.41467002                0.70815934               -5.45282880               -4.86682200               91.26694146                0.82157637
              22.49302452                6.78521462               53.17525527                0.00770435                1.99328800                1.43643636               -6.09418744               -5.40913103               95.27128501                2.89299279
              23.50728869                5.88046795               53.50216156                0.13142749                1.46382094                1.65090921               -6.57403435               -4.21709392               62.34985789                6.78328569
              24.52230094                5.04629829               53.11359972                0.30539340                1.37386052                0.98584441               -3.16411774               -1.05410381               13.66447702                2.14880296
              25.53476590                4.23612446               52.45993262                0.72268123                1.24649629                1.66536852               -5.35047204               -0.01848809                0.63966292               -4.76687526
              15.96770458               13.95244690               53.00528790                0.86985300                0.39458227               -0.12329143                0.06350696                0.37578124                1.60919072                3.00459803
              16.97165040               13.17678275               52.32336617                0.60131113                1.34159189                0.76043819               -2.63161990               -0.38328346                7.53832774               -2.84315294
              17.99453642               12.38323530               51.75971337                0.47510679                8.92421638                0.40245567               -3.52058396               -7.43081788               58.59420963               -5.05323990
              19.15013473               11.44240320               52.09371185                0.44517155               12.72578454               -2.79133441               -3.78120390               -5.86555084              100.67101334               -1.85067689
              20.24905211               10.53118980               52.38487436                0.43664871                8.18702705               -1.21938932               -4.16966992               -2.58102434               97.56514200               -0.89071344
              21.31387527                9.61960314               52.66591525                0.44384911                5.20886102               -0.18004640               -4.66303921               -2.10638343               97.22723467               -0.16010051
              22.35322933                8.71077383               52.95630506                0.46626602                2.60149064                0.90275304               -5.22452383               -2.10120820               99.16462791                0.64970501
              23.36590508                7.80596619               53.27807894                0.50555675               -0.55722561                2.07515696               -5.78494146               -3.05400526              104.41331558                1.88290309
              24.34208482                6.90393261               53.66845553                0.56867218               -1.75230222                2.34646557               -6.14862820               -4.05614976               70.69583797                4.88199739
              25.33085904                6.05525095               53.29917417                0.65609344               -0.05670532                0.89526646               -2.59737839               -1.74504880               17.64164582                2.28688489
              26.34095071                5.25191543               52.62664881                0.86259330                1.00916704                1.57909745               -4.84625270                0.28492885                2.69449550               -3.52682756
               8.13722054                4.18030237               55.28925194                0.99095615               -0.95403816               -1.05664486                3.58388133               -0.24209327               -2.53313495                2.94879621
               9.12768015                3.29259341               54.94790219                0.77493825               -0.92376049               -0.64670784                2.49989916               -0.22732359               -3.52304406               -1.84613165
              10.11874533                2.40110486               54.58742291                0.57253818               -1.05637293               -0.33781528                1.32400779               -0.51175254               -3.44972567               -0.95011687
              11.10655270                1.49470482               54.24793110                0.48692651               -1.22572321               -0.04971403                0.21763182               -0.55411305               -1.32175566               -0.39163273
              12.09423086                0.56475789               53.92945517                0.45113139               -0.99514675                0.28153579               -0.94017826               -0.46028178                0.64666275               -0.27104932
              13.08664976               -0.38937728               53.62790300                0.45305300               -0.27666710                0.60906954               -2.13775511               -0.27775988                1.74674614               -0.04048303
              14.08869752               -1.35858270               53.32978821                0.49124437                0.68032218                0.92632799               -3.32737060               -0.21389526                1.32190251                0.18226168
              15.10025620               -2.32952567               53.01870406                0.57206750                1.44942751                1.22549517               -4.45853536               -0.25404695               -0.22829608                0.35513380
              16.11768607               -3.29353776               52.68894958                0.71374832                1.88752707                1.51651587               -5.55460939               -0.26431029               -2.07527564                0.43783159
              17.13800675               -4.24861351               52.33995615                0.95661999                2.12680151                1.80146195               -6.66395396               -0.22351024               -2.68660840                1.04827458
              18.16022210               -5.19734919               51.99631133                1.00000000                2.22153547                2.17534171               -7.77846858               -0.38344691               -2.30710432               -2.00265962
               9.02250857                5.16973592               55.14812686                0.89757105               -0.75028877               -1.03759315                3.14993462               -0.09791947                1.13596285                3.80239197
              10.01500568                4.28612633               54.80120698                0.41786238               -0.49682342               -0.53788033                2.05718099               -0.18091446                3.00073901               -3.20026804
              11.01257210                3.39772670               54.49214195                0.07167125                0.20896857                0.03549170                1.20971405               -1.00681208                5.74947276               -6.40536037
              12.01918505                2.49420768               54.20037564                0.00864576                0.95484990               -0.58331847                0.26540138               -1.98486300                7.37212821               -5.20568320
              13.03166910                1.56757325               53.92427632                0.01100732                1.31787026               -0.73090844               -0.68291327               -2.90710751                8.96115942               -3.87915481
              14.04554245                0.61671341               53.66502963                0.01456922                1.24818329               -0.43759154               -1.68149942               -3.44205786                9.92595259               -2.91340842
              15.05663276               -0.34931942               53.40857110                0.01827229                0.98254070                0.06233369               -2.67960386               -3.24252975                9.44327454               -1.82915798
              16.06519327               -1.31727072               53.13892291                0.06523149                0.89770638                0.48843954               -3.62773824               -2.28824269                7.90966709                0.10807195
              17.07458689               -2.27837260               52.85023843                0.25810998                1.12420447                0.94577100               -4.56070571               -0.96883221                6.35420961                4.77661755
              18.08767736               -3.23059889               52.54782121                0.58049652                1.52682119                1.49098249               -5.50483931               -0.36158108                4.16522058                3.11289180
              19.10512331               -4.17559577               52.21390950                0.92669258                1.74459547                2.14545980               -6.51741883               -0.39537170                2.66127567               -3.06043468
               9.90248133                6.15955051               55.02485970                0.80774728               -0.64102424               -0.96557737                2.83111623               -0.09390319                0.33236172                4.50879496
              10.89607109                5.28183580               54.62787147                0.27547711               -0.59767956               -0.32988473                1.43756877               -0.08717935                3.16488377               -4.41025751
              11.89052774                4.40181469               54.28800720                0.01081306                0.04689026                0.63238340                0.47981209               -2.14446119               11.40216057              -13.95565204
              12.89700889                3.48303845               54.05645997                0.00010000                1.15276194               -0.74351726               -0.43675649               -4.60894475               17.83309204              -10.32578497
              13.91358298                2.55013972               53.84661168                0.00010000                1.88461866               -1.35168583               -1.38757397               -5.77819260               19.23336767               -7.77078225
              14.93470127                1.60187089               53.64411426                0.00010000                2.21240389               -1.28097971               -2.33817628               -6.53627756               19.81414385               -5.78794658
              15.95783106                0.64266398               53.44625425                0.00010000                2.44216362               -0.84445935               -3.26482007               -6.32799623               20.30906696               -3.62737887
              16.98354454               -0.31975688               53.25303783                0.00010000                2.69032725               -0.42525896               -4.09299795               -4.93379640               22.44738239               -0.32619048
              18.01163760               -1.27462234               53.09685180                0.08217262                2.22268779               -0.16413997               -3.73119058               -2.74290081               17.02444645                3.90810108
              19.02799829               -2.21879386               52.79524559                0.25004740                1.53354162                0.87076195               -4.17916343               -0.97017415                5.56166083                2.78015023
              20.04230843               -3.15444000               52.40837779                0.69557865                1.43101388                2.62208730               -5.46271326               -0.73608877                1.32449207               -6.30258641
              10.77605991                7.15042438               54.89861789                0.78642277               -0.50620011               -0.85196595                2.47808285               -0.07376959                0.06964532                4.30964211
              11.77099791                6.27952864               54.45720139                0.24707841               -0.37898426               -0.15968107                0.89562977                0.14640985                1.30869955               -4.15784140
              12.76848023                5.41037437               54.04092181                0.00335557                0.38416063                0.79237041               -0.37892021               -2.58287056               16.64535206              -14.27158625
              13.77868112                4.47933733               53.90651844                0.00010000                1.43962889               -0.06461128               -1.16211985               -5.58708190               30.17232411              -10.56771214
              14.79727281                3.54053953               53.76331910                0.00010000                2.18057602               -0.62377615               -2.06187845               -6.24494330               29.84015443               -7.96226736
              15.82229265                2.59109382               53.62422227                0.00010000                2.72138977               -0.81633155               -2.99674073               -6.82612252               30.25044455               -5.60012129
              16.85170060                1.63379140               53.49024230                0.00010000                3.07555078               -0.72404887               -3.92346138               -6.83599209               30.93698019               -3.17121791
              17.88380366                0.67422410               53.36493566                0.00010000                3.35326271               -0.49612628               -4.73784963               -6.19249687               31.43165509               -0.61997147
              18.91876586               -0.28165540               53.24016605                0.08292334                3.21439331               -0.43442048               -5.76951780               -4.11757414               25.45165074                0.51975047
              19.94809153               -1.21318365               52.99543373                0.23907971                2.14639752                0.89398338               -4.48527687               -1.14039772                9.91482981               -0.40640712
              20.96169381               -2.12315403               52.55934290                0.68466494                1.36022792                3.07025739               -5.90492643               -0.03836703                0.36781565               -8.76565505
              11.64279742                8.14251119               54.77197208                0.77451844               -0.37481244               -0.73514396                2.13929945               -0.07151628                0.07792056                4.30180816
              12.63904929                7.27864218               54.28906396                0.23274646               -0.18678918               -0.01651774                0.36182269                0.20362419                1.23877584               -3.98519873
              13.63906163                6.41766210               53.82963051                0.00109248                0.80264024                0.75930472               -1.00410493               -3.17276360               21.72858114              -11.99843667
              14.65510210                5.48174622               53.75664799                0.00010000                1.89329972                0.41964142               -1.81013960               -6.73125728               40.75108937              -10.07355739
              15.67692763                4.53766420               53.68103258                0.00010000                2.49124262               -0.02626381               -2.69273672               -7.16638723               40.51651151               -7.61158648
              16.70492695                3.58554426               53.60636464                0.00010000                3.05266512               -0.30924018               -3.63332809               -7.52246133               40.68268317               -5.19117903
              17.73798093                2.62818300               53.53623207                0.00010000                3.51072263               -0.36657880               -4.60512074               -7.47540930               41.12253578               -2.73482626
              18.77514140                1.67032060               53.47155847                0.00010000                3.93564724               -0.23115377               -5.64693357               -6.87729101               41.64437407               -0.26030506
              19.81669387                0.71668925               53.41241639                0.08915693                3.57737816                0.05614749               -6.84991542               -4.40765257               32.88415117                2.86059425
              20.84668896               -0.20091419               53.17328424                0.24792206                2.23939855                1.41585126               -4.84156376               -1.31029946               12.22032773               -1.28900365
              21.86148184               -1.09303485               52.69878746                0.69008987                1.47928805                2.90668275               -6.41425942                0.06766697                0.56959873               -9.18898577
              12.50236760                9.13572150               54.64608887                0.76434736               -0.24481138               -0.62416964                1.80500557               -0.07096965                0.07913260                4.33482811
              13.49991949                8.27919828               54.12187748                0.22157555               -0.02233444                0.12823746               -0.16556507                0.20277233                1.56821530               -3.89986062
              14.50192092                7.42556046               53.62760948                0.00056699                1.20671954                0.85585586               -1.56662588               -3.66752565               27.15293838              -11.32791131
              15.52405388                6.48773016               53.61517458                0.00010000                2.41130573                0.74152174               -2.36773852               -7.73264204               51.04053837               -9.26249671
              16.55014703                5.54001425               53.60298903                0.00010000                2.86353669                0.41891007               -3.25098322               -8.12569517               50.93378283               -6.95618282
              17.58132461                4.58490902               53.59249419                0.00010000                3.36345228                0.11944053               -4.20736765               -8.30894503               51.05838848               -4.51861273
              18.61741608                3.62645982               53.58616370                0.00010000                3.82134892               -0.01043071               -5.23677031               -8.10792703               51.47094590               -1.96367473
              19.65775159                2.66960103               53.58636242                0.00010000                4.22157595                0.08081524               -6.36693688               -7.44882835               52.14779907                0.89396344
              20.70184759                1.71946755               53.59499346                0.09548402                3.69290198                0.42976910               -7.68230167               -4.65395623               39.77685755                4.35317687
              21.73160963                0.81513337               53.34797084                0.25686601                2.27204300                1.66661809               -5.00464954               -1.20559805               13.84547412               -1.01275328
              22.74728845               -0.06502037               52.83404209                0.69544058                1.56788216                2.70804692               -6.74232352                0.07423725                0.68339526               -9.01195367
              13.35442445               10.13002780               54.52055277                0.75540615               -0.11586803               -0.51534369                1.47241639               -0.07105617                0.08181920                4.33044172
              14.35326577                9.28120693               53.95534553                0.21212292                0.13773945                0.27440926               -0.68944542                0.17738153                2.03552147               -3.84138502
              15.35717924                8.43477921               53.42928069                0.00037418                1.63648480                0.98505790               -2.07320529               -4.09537489               32.82000013              -10.96388583
              16.38599547                7.49657666               53.47980571                0.00010000                3.00278147                0.98348402               -2.84553901               -8.53088655               61.42048657               -8.55036364
              17.41723487                6.54604240               53.53110130                0.00010000                3.31535067                0.69315149               -3.71583647               -8.89969732               61.30529675               -6.12139765
              18.45230248                5.58793307               53.58442390                0.00010000                3.69477526                0.39905691               -4.67893917               -8.91216976               61.43614640               -3.64205372
              19.49113038                4.62797439               53.64275905                0.00010000                4.04273138                0.26127974               -5.73313356               -8.54721232               61.94655974               -0.96668987
              20.53315711                3.67193690               53.70969242                0.00010000                4.34760148                0.34032002               -6.90000104               -7.79772159               62.89289008                2.13323335
              21.57808240                2.72528463               53.78878519                0.10210952                3.69539071                0.66720867               -8.24640486               -4.67460888               46.31739991                5.92711266
              22.60706492                1.83241817               53.52331603                0.26559675                2.25958389                1.70873846               -4.98574313               -1.03153760               14.95617237               -0.41769214
              23.62327408                0.96112609               52.96951560                0.70035570                1.62091600                2.52143019               -6.87694677                0.07694144                0.77050372               -8.47975509
              14.19858821               11.12541462               54.39497831                0.74737051                0.01274918               -0.40733567                1.13897479               -0.07146502                0.08372076                4.28444060
              15.19871570               10.28468647               53.78910028                0.20466668                0.30277388                0.42238551               -1.21188962                0.12246844                2.62414091               -3.80774660
              16.20464369                9.44526162               53.23400543                0.00031906                2.17286314                1.07491439               -2.52455031               -4.51417674               38.74782785              -10.57596869
              17.24217297                8.50739984               53.35056064                0.00010000                3.80764924                1.05844265               -3.23256837               -9.09012310               71.97167635               -7.69689656
              18.28079668                7.55387728               53.46630278                0.00010000                3.94881318                0.69761059               -4.07011031               -9.25602604               71.68485507               -5.11551932
              19.32114923                6.59289015               53.58313099                0.00010000                4.08356594                0.48057834               -5.01734585               -8.95395264               71.78924033               -2.67131167
              20.36246799                5.63168541               53.70615540                0.00010000                4.16688433                0.46929290               -6.06634865               -8.48382732               72.51513099               -0.01821780
              21.40448692                4.67640743               53.84149248                0.00010000                4.27030775                0.55964400               -7.22532368               -7.81132007               73.91417013                3.25294376
              22.44787415                3.73281172               53.99430273                0.10882981                3.53252507                0.83601875               -8.53138581               -4.62460893               52.65614711                7.47058141
              23.47513742                2.84930814               53.70208646                0.27416174                2.17686446                1.62076838               -4.79876055               -0.89355006               15.66365191                0.38774129
              24.49141144                1.98540823               53.10803990                0.70496465                1.62740195                2.33188096               -6.83233808                0.06927103                0.83370782               -7.70680209
              15.03445146               12.12188109               54.26887460                0.74041689                0.14166796               -0.29926017                0.80286771               -0.07266206                0.10429460                4.24701076
              16.03586814               11.28965464               53.62288600                0.19873607                0.48654351                0.57299736               -1.73487179               -0.00149256                3.40889997               -3.84938816
              17.04418233               10.45627750               53.04286983                0.00038064                2.98546019                1.03438173               -2.88746902               -5.05430189               45.08523184               -9.82825905
              18.09557735                9.51774551               53.23016685                0.00010000                5.12208531                0.63684761               -3.51630614               -9.27375861               82.73936482               -6.29462340
              19.14662404                8.55999461               53.41065108                0.00010000                4.99189752                0.18994858               -4.29627000               -8.57620776               81.93160331               -3.81084897
              20.19541530                7.59754463               53.58863408                0.00010000                4.56562576                0.37595119               -5.20195614               -7.80309489               81.88191688               -1.70834558
              21.23793655                6.63736024               53.77402649                0.00010000                4.01945533                0.72913998               -6.21701945               -7.39276838               83.00542041                0.58617460
              22.27580440                5.68312978               53.97838456                0.00010000                3.73764797                0.98046389               -7.33229720               -7.22107805               85.27731864                3.67555760
              23.31268951                4.74200500               54.21050324                0.11581985                3.03965039                1.14156928               -8.54316052               -4.66169661               59.05400894                8.49536049
              24.33659741                3.86483354               53.88615251                0.28258672                1.98849068                1.45429565               -4.46045854               -0.89221252               16.12676683                1.39906663
              25.35245933                3.00776371               53.25191746                0.70910939                1.58619163                2.13368397               -6.62936480                0.04900951                0.91049307               -6.78434101
              15.86158786               13.11942942               54.14285822                0.73315673                0.27015797               -0.18907605                0.46661914               -0.07388645               -0.05951442                3.69677975
              16.86428944               12.29614642               53.45532929                0.19368120                0.69394633                0.72275876               -2.26483285               -0.28509356                4.67305723               -3.45217509
              17.87546678               11.46594926               52.86223565                0.00074985                4.43456261                0.59981791               -3.14913486               -5.54659010               52.33031930               -7.14799437
              18.95298069               10.52013679               53.12711279                0.00010000                7.70033076               -1.16798182               -3.68033418               -7.31925937               93.61971545               -3.75103665
              20.02947340                9.55767625               53.36793230                0.00010000                6.73705051               -0.61290583               -4.37777846               -5.75613517               91.53452514               -2.07722937
              21.08772170                8.60040918               53.60035591                0.00010000                4.97770403                0.19028975               -5.21185121               -4.71155829               91.19889329               -0.82156698
              22.12902748                7.64626821               53.84113090                0.00010000                3.38494486                1.05668460               -6.16650586               -4.58803604               92.80530154                0.57031077
              23.15542060                6.69601671               54.10890365                0.00297342                2.19544915                1.84696382               -7.21929683               -5.04487828               96.79333198                2.64831515
              24.17293646                5.75564311               54.42816625                0.12358099                1.80569334                2.12230613               -8.30577781               -3.99473099               66.23457121                6.65258897
              25.19153446                4.87839406               54.07832135                0.29142364                1.67974094                1.25199967               -3.97517328               -1.19176393               16.84733431                2.07274257
              26.20653128                4.02808191               53.40222838                0.71277420                1.49968182                1.94181234               -6.27789026               -0.01527119                0.81760950               -5.07009541
              16.67953974               14.11809956               54.00600982                0.86476708                0.41066911               -0.13298566                0.08167851                0.39621399                1.68246185                3.14512135
              17.68364643               13.30410982               53.29645331                0.59625460                1.48602043                0.79634019               -2.75377224               -0.55558543                8.62064303               -2.98153606
              18.70926015               12.46827386               52.72533459                0.47404838                8.69093637                0.23246031               -3.29621141               -7.10686029               60.92505308               -5.15345554
              19.85746516               11.49438588               53.05604024                0.44503923               12.09844005               -2.57509190               -3.71650472               -5.57842113              102.98353088               -1.92778823
              20.95122895               10.54773649               53.34247440                0.43678562                7.75635043               -0.99397620               -4.29230461               -2.47621695               99.62992615               -0.97969813
              22.01259217                9.60135043               53.61748823                0.44361931                4.96696756                0.09412514               -5.02101960               -1.97508072               99.08829569               -0.26334558
              23.05056830                8.65849394               53.90082139                0.46523304                2.64698882                1.22257211               -5.88742264               -1.90998610              100.87506091                0.53641527
              24.06553195                7.72006906               54.21500965                0.50312081               -0.00753794                2.40523511               -6.87105150               -2.69100538              106.08993979                1.78365316
              25.05041754                6.78445113               54.59865914                0.56470927               -1.26043097                2.88080219               -7.88911402               -3.76166814               74.78031389                4.84008599
              26.04032333                5.88987353               54.26967438                0.64904913                0.11803243                1.14794745               -3.38165128               -2.01367207               21.00101038                2.31204619
              27.05277819                5.04659996               53.57411220                0.85755848                1.24548663                1.85180471               -5.74472460                0.29733397                2.93799163               -3.68847211
               8.45815708                4.35363835               56.32577046                0.98435476               -0.98780480               -1.09624398                3.72148691               -0.25389755               -2.63656493                3.06284208
               9.44827903                3.42254188               55.97332965                0.76600465               -0.95058339               -0.66905264                2.58665661               -0.23744551               -3.67451334               -1.94866493
              10.43914541                2.48758869               55.60081299                0.56845275               -1.05222653               -0.35053393                1.35445378               -0.49922297               -3.61369791               -0.92343304
              11.42723450                1.53804218               55.24999070                0.48551551               -1.17544377               -0.04600586                0.19394297               -0.53113148               -1.47648227               -0.40462175
              12.41563653                0.56592206               54.91966164                0.45090340               -0.91714165                0.29758161               -1.01915923               -0.43911716                0.44670205               -0.27539912
              13.40889166               -0.42920548               54.60586499                0.45303169               -0.20729220                0.63872265               -2.27182491               -0.26817400                1.53387714               -0.04421143
              14.41149069               -1.43878711               54.29558477                0.49051335                0.72565310                0.97011272               -3.51639558               -0.20479296                1.14839383                0.17992390
              15.42340473               -2.45032431               53.97291311                0.56979746                1.49262851                1.28397850               -4.70358986               -0.23968050               -0.34863857                0.35760017
              16.44134326               -3.45542108               53.63191347                0.70920658                1.95562081                1.58980349               -5.85455186               -0.25246899               -2.17843525                0.43561566
              17.46251714               -4.45179019               53.27157534                0.94899580                2.22661870                1.88934502               -7.01934909               -0.22281862               -2.79293914                1.04635549
              18.48587563               -5.44156933               52.91655384                1.00000000                2.33584902                2.27528532               -8.18409497               -0.41385434               -2.41096598               -2.07060639
               9.38671457                5.34267591               56.18022414                0.88511551               -0.77851624               -1.07666199                3.27047112               -0.10409429                1.23142558                3.97461775
              10.37892941                4.41585136               55.82212579                0.40227418               -0.51557697               -0.55465394                2.12754363               -0.18986919                3.22145625               -3.39432866
              11.37640303                3.48408335               55.50439625                0.06557280                0.19135460                0.04990583                1.24171335               -1.01274713                6.04616306               -6.69248939
              12.38275650                2.53758213               55.20298115                0.00899944                0.92330820               -0.58009129                0.25676239               -1.97605528                7.61722240               -5.60725709
              13.39486919                1.56889787               54.91720249                0.01138008                1.29040043               -0.71489371               -0.73085945               -2.85555532                9.18110908               -4.38387967
              14.40856451                0.57718175               54.64780020                0.01511448                1.25664900               -0.43209907               -1.76446006               -3.35143506               10.12242582               -3.50349560
              15.42000217               -0.42908598               54.38119661                0.01926049                1.03802004                0.05939544               -2.79619545               -3.14424903                9.66051815               -2.48930646
              16.42932491               -1.43748452               54.10189314                0.06111251                0.97746697                0.51373491               -3.77898981               -2.21764278                8.15469204               -0.58391047
              17.43955151               -2.43952304               53.80370203                0.24885626                1.20190866                1.00087611               -4.74552242               -0.96380330                6.60018358                4.65186346
              18.45336308               -3.43289674               53.49167981                0.56297564                1.59823556                1.56255372               -5.72503924               -0.36265416                4.37091097                3.19302348
              19.47151622               -4.41881647               53.14744264                0.91441727                1.81531431                2.24058736               -6.77999829               -0.43069665                2.83183278               -3.24079584
              10.30972430                6.33210511               56.05371582                0.79604948               -0.66500894               -1.00059802                2.94178047               -0.09660472                0.32514226                4.72087783
              11.30307421                5.41144881               55.64245796                0.26215408               -0.62823003               -0.33927320                1.48030838               -0.07976724                3.38370061               -4.65536217
              12.29715970                4.48858680               55.29285462                0.01013256               -0.00876714                0.67112686                0.49071516               -2.16096563               11.85725780              -14.61283442
              13.30289887                3.52644036               55.05184506                0.00010000                1.08830531               -0.71370285               -0.48283481               -4.63487872               18.27890075              -11.11383110
              14.31892580                2.55162418               54.83225650                0.00010000                1.84739746               -1.32176352               -1.48532640               -5.72850718               19.65636336               -8.75544682
              15.33984682                1.56215254               54.61995781                0.00010000                2.21730863               -1.26925091               -2.49894578               -6.43539066               20.24343310               -6.95479895
              16.36327198                0.56240080               54.41253957                0.00010000                2.48210592               -0.84326063               -3.48746379               -6.18689568               20.80204896               -4.96492026
              17.38948893               -0.44004961               54.21086161                0.00010000                2.71037186               -0.38075986               -4.35564127               -4.80935257               23.59346949               -1.79233812
              18.41747941               -1.43540356               54.05833670                0.07418781                2.25342773                0.02692862               -4.00819088               -2.70843547               18.39606757                2.20543979
              19.43455749               -2.42053912               53.75293754                0.23487290                1.58108738                1.06554461               -4.27814267               -0.97179282                6.09146087                2.03024792
              20.44910116               -3.39675758               53.35289730                0.68504854                1.45436730                2.82834202               -5.62770218               -0.74509668                1.37950346               -7.43535138
              11.22609509                7.32266395               55.92388229                0.77507185               -0.52427167               -0.88113067                2.57630461               -0.07681014                0.07202213                4.50891973
              12.22085237                6.40906589               55.46625430                0.23417958               -0.39514617               -0.16435778                0.91578865                0.16367237                1.48028278               -4.35835925
              13.21819216                5.49750588               55.03715684                0.00290256                0.30845869                0.82301712               -0.36063768               -2.57507984               17.21398296              -14.87023955
              14.22702154                4.52330807               54.89460221                0.00010000                1.31973519               -0.00021215               -1.21785003               -5.61473132               30.89430479              -11.31994365
              15.24458687                3.54246260               54.74200928                0.00010000                2.10292649               -0.55529555               -2.20278997               -6.22671145               30.47050157               -8.89728003
              16.26908007                2.55179673               54.59313043                0.00010000                2.69397697               -0.73732510               -3.23121321               -6.77319244               30.86065506               -6.73935774
              17.29846641                1.55404881               54.44943811                0.00010000                3.09310699               -0.62263868               -4.25263705               -6.74461862               31.61229641               -4.53447435
              18.33094221                0.55490028               54.31560776                0.00010000                3.37029530               -0.33322580               -5.14751178               -6.01567068               32.07341783               -2.28912355
              19.36587231               -0.43898447               54.18028573                0.07527772                3.21695166               -0.06147743               -6.20642444               -4.03009786               27.18563149               -2.15682563
              20.39528125               -1.41158585               53.94863346                0.22555529                2.15894494                1.28047180               -4.92351576               -1.18029995               11.41693957               -1.98802956
              21.40905121               -2.36224963               53.49800903                0.67564601                1.37699652                3.43682107               -6.40384296               -0.00737483                0.48411173              -10.68838559
              12.13538421                8.31448250               55.79379121                0.76333804               -0.38784872               -0.76042998                2.22556732               -0.07507509                0.08098375                4.50804759
              13.13150572                7.40816165               55.29267079                0.22007497               -0.19841422               -0.01475060                0.35969764                0.22086267                1.47216804               -4.17781095
              14.13141593                6.50504715               54.81963950                0.00080808                0.70708992                0.78635862               -0.97947352               -3.16588983               22.44080044              -12.44324823
              15.14564752                5.52643612               54.73819912                0.00010000                1.72434938                0.49894007               -1.87254262               -6.75656335               41.65135308              -10.73638023
              16.16590291                4.54051827               54.65324903                0.00010000                2.35746196                0.09038226               -2.86614215               -7.16238450               41.32429154               -8.47377393
              17.19279676                3.54740604               54.56858269                0.00010000                2.96865690               -0.15565419               -3.93439825               -7.49153677               41.43492337               -6.26762702
              18.22527605                2.54994803               54.48808864                0.00010000                3.47060187               -0.16477104               -5.04197001               -7.39422495               41.82766682               -4.05957390
              19.26220880                1.55328588               54.41233810                0.00010000                3.90437682                0.05212238               -6.21506990               -6.65825599               42.24839482               -1.94241112
              20.30336359                0.56336690               54.34055311                0.08132088                3.60039260                0.48044431               -7.52640982               -4.28955129               35.05743976                0.81873045
              21.33421665               -0.39492968               54.12179976                0.23436626                2.34588211                1.85613688               -5.54070323               -1.33847474               14.19219377               -2.66747629
              22.35028123               -1.32802116               53.63116323                0.68116221                1.60645795                3.32340591               -7.19187530                0.11813350                0.74404077              -10.92191789
              13.03723528                9.30745535               55.66451091                0.75334297               -0.25303058               -0.64656337                1.88074981               -0.07416647                0.08220245                4.54205687
              14.03470498                8.40877088               55.12010332                0.20919317               -0.03176905                0.13681442               -0.18929233                0.21742049                1.89185509               -4.08694261
              15.03659990                7.51323306               54.61205646                0.00034288                1.08570870                0.88185846               -1.52311142               -3.64960207               28.05211340              -11.71071686
              16.05641915                6.53328687               54.59114448                0.00010000                2.18846763                0.83595089               -2.42651252               -7.73856719               52.12076052               -9.83112640
              17.08036925                5.54427025               54.56950393                0.00010000                2.67002153                0.57738576               -3.44606145               -8.10714537               51.90012214               -7.72060879
              18.10981958                4.54868365               54.54868847                0.00010000                3.21664076                0.34299574               -4.56508512               -8.25874230               51.93306581               -5.49083644
              19.14470207                3.55075339               54.53120043                0.00010000                3.72693224                0.28462305               -5.77539502               -7.98863416               52.25411258               -3.16688367
              20.18435823                2.55594273               54.51911572                0.00010000                4.17973877                0.45491875               -7.10091762               -7.14907467               52.78601128               -0.55956368
              21.22829685                1.57062442               54.51349360                0.08758304                3.77707890                0.88548927               -8.62242783               -4.45365128               42.39909965                2.62916899
              22.25989981                0.62553689               54.29411569                0.24326025                2.46499940                2.10099337               -5.87120928               -1.21077820               16.27328963               -2.08491295
              23.27759683               -0.29578151               53.76232493                0.68639551                1.76970286                3.12435906               -7.70162527                0.11283136                0.88326171              -10.42366896
              13.93126982               10.30155123               55.53559409                0.74453699               -0.11933928               -0.53497798                1.53768262               -0.07364078                0.08545385                4.53670570
              14.93007643                9.41089794               54.94823310                0.20029334                0.13190378                0.28931064               -0.73390117                0.18186608                2.47715661               -4.02547237
              15.93390790                8.52268431               54.40877713                0.00020055                1.48812796                1.00701184               -2.00174629               -4.06147953               33.94505281              -11.28825620
              16.95983899                7.54315513               54.45105688                0.00010000                2.72276669                1.08737636               -2.88550105               -8.49439382               62.69524236               -9.02430552
              17.98836323                6.55206599               54.49291070                0.00010000                3.06498942                0.88033134               -3.91900790               -8.83537297               62.43492282               -6.76965310
              19.02113878                5.55426595               54.53567958                0.00010000                3.49405272                0.67717010               -5.07979337               -8.80361107               62.44465320               -4.47381830
              20.05824429                4.55564049               54.58238049                0.00010000                3.91087503                0.62952341               -6.36169598               -8.35787532               62.83640964               -1.98657194
              21.09935628                3.56238425               54.63634180                0.00010000                4.32260595                0.77822753               -7.79088437               -7.42120649               63.61380826                0.92736902
              22.14469641                2.58107668               54.70031754                0.09410566                3.85253698                1.12899557               -9.44975041               -4.43086856               49.38856902                4.55989081
              23.17640702                1.64709019               54.46918690                0.25195209                2.52391290                2.12400231               -5.95265131               -1.03675367               17.80330879               -1.21095413
              24.19517466                0.73446602               53.89592869                0.69124903                1.87676458                2.92258908               -7.94938667                0.10534644                0.98704320               -9.58450656
              14.81706905               11.29675579               55.40663577                0.73670547                0.01401623               -0.42428246                1.19416134               -0.07411201                0.08767429                4.48804798
              15.81720922               10.41455710               54.77666257                0.19333616                0.30220317                0.44347100               -1.27709419                0.11016561                3.21285819               -3.99111883
              16.82311312                9.53337329               54.20916812                0.00021083                1.99701936                1.09085188               -2.39656359               -4.46910073               40.14248278              -10.82268363
              17.85714960                8.55503440               54.31808389                0.00010000                3.47189293                1.15676479               -3.23864902               -8.99988985               73.46325800               -8.06790535
              18.89255098                7.56187687               54.42458416                0.00010000                3.65116275                0.89839242               -4.26572234               -9.12468382               72.99238599               -5.63193544
              19.93017286                6.56222705               54.53086004                0.00010000                3.84376449                0.79144350               -5.44406024               -8.76835980               72.94884676               -3.33602816
              20.96942627                5.56334385               54.64208540                0.00010000                4.01625238                0.88590731               -6.76607388               -8.21146727               73.53513529               -0.82685706
              22.01049791                4.57150728               54.76418264                0.00010000                4.27736373                1.04765971               -8.25557813               -7.38084155               74.76413654                2.31897364
              23.05497354                3.59320433               54.90185084                0.10084267                3.76387413                1.29407147               -9.97958143               -4.36820793               56.14094585                6.46863837
              24.08577539                2.66801693               54.64958733                0.26039621                2.49892730                2.00951615               -5.81609325               -0.91111699               18.86903272               -0.15168563
              25.10495209                1.76267027               54.03461979                0.69568812                1.91766976                2.71333684               -7.96459462                0.08923868                1.06104793               -8.53417335
              15.69418498               12.29306558               55.27712191                0.73012127                0.14772634               -0.31378010                0.84777829               -0.07576533                0.10849297                4.44789204
              16.69566224               11.41976736               54.60511486                0.18789854                0.49318018                0.60052310               -1.82086755               -0.04061436                4.19506739               -4.03575494
              17.70404858               10.54450135               54.01471754                0.00038091                2.78376853                1.02064068               -2.68820905               -5.00561711               46.80477319               -9.97711893
              18.75133761                9.56629043               54.19505804                0.00010000                4.73141619                0.71940161               -3.47292549               -9.10759883               84.46430745               -6.55557981
              19.79867690                8.57003384               54.36676351                0.00010000                4.64834945                0.40694581               -4.46839197               -8.39184346               83.43904054               -4.17985753
              20.84430460                7.57009482               54.53447744                0.00010000                4.30289019                0.69455350               -5.63325434               -7.56688345               83.21131179               -2.18256561
              21.88473471                6.57335864               54.70822146                0.00010000                3.87871873                1.15068776               -6.96039879               -7.06012113               84.17534851                0.01161774
              22.92187897                5.58333745               54.89947381                0.00010000                3.80439420                1.50242760               -8.47253561               -6.75213125               86.28322762                3.02929236
              23.96082259                4.60695811               55.11682794                0.10782803                3.34198810                1.60797511              -10.21827484               -4.42340265               62.91775953                7.85013826
              24.98871874                3.68728051               54.83698696                0.26883918                2.34150890                1.81071640               -5.48763685               -0.94076196               19.63233324                1.09472947
              26.00765277                2.78873276               54.18045741                0.69964322                1.89340335                2.49287714               -7.77738322                0.06282183                1.14264395               -7.36029765
              16.56215019               13.29048019               55.14768942                0.72306091                0.28109643               -0.20097282                0.50092862               -0.07716981               -0.06382464                3.87121428
              17.56496116               12.42656756               54.43215330                0.18345919                0.71637551                0.75683170               -2.37217725               -0.38089122                5.70886856               -3.61991390
              18.57647770               11.55378611               53.83185138                0.00096506                4.22519926                0.47334815               -2.85747945               -5.38715789               54.44658094               -7.20826414
              19.64946514               10.56942243               54.09060689                0.00010000                7.22160038               -1.01489398               -3.58117608               -7.12211952               95.60587353               -3.89843224
              20.72090971                9.57001579               54.32339492                0.00010000                6.30226223               -0.37610988               -4.51257666               -5.58892872               93.26738804               -2.27474295
              21.77551039                8.57611812               54.54619235                0.00010000                4.70357540                0.49883842               -5.62126711               -4.53342959               92.72060367               -1.07604898
              22.81498122                7.58635761               54.77580321                0.00010000                3.31727088                1.43812561               -6.91300998               -4.30439362               94.13679544                0.26140819
              23.84185581                6.60155583               55.03086933                0.00010000                2.37906016                2.30449040               -8.41201860               -4.65033100               97.95818887                2.30152604
              24.86256242                5.62536383               55.33604600                0.11560787                2.16648461                2.63952256              -10.16402409               -3.75603997               70.43330842                6.34520768
              25.88518550                4.70423126               55.03409625                0.27760900                2.03707974                1.57526469               -4.98261835               -1.30642876               20.58877746                1.97264200
              26.90330402                3.81252781               54.33437482                0.70315715                1.81185201                2.28227966               -7.40825954               -0.01123871                1.04820128               -5.39720545
              17.42046685               14.28904613               55.00692147                0.85988357                0.42716516               -0.14340646                0.10176925                0.41745202                1.75960454                3.29356172
              18.42473850               13.43490399               54.26829073                0.59142895                1.64918514                0.83364357               -2.88082584               -0.77615646                9.98262712               -3.12698341
              19.45345055               12.55396832               53.69378915                0.47306351                8.39635192                0.01822081               -2.93626112               -6.74828758               63.52023189               -5.21075487
              20.59266554               11.54599255               54.01938176                0.44484818               11.33760456               -2.34298801               -3.57115536               -5.25279452              105.25018547               -2.00114586
              21.68020264               10.56251164               54.29902827                0.43685652                7.23143255               -0.75041528               -4.37772740               -2.36675496              101.62445431               -1.07579801
              22.73729419                9.58007159               54.56549485                0.44337916                4.65032400                0.39534735               -5.37550446               -1.84114447              100.83585022               -0.38589376
              23.77320912                8.60212115               54.83855661                0.46429873                2.62859736                1.57635377               -6.57699206               -1.70942676              102.38515418                0.38623007
              24.78986614                7.62942725               55.14065791                0.50078942                0.49086205                2.78714214               -8.01866564               -2.31759634              107.37850460                1.61541510
              25.78302636                6.65974856               55.51067325                0.56075218               -0.72199779                3.43847324               -9.76680276               -3.48567865               79.14349197                4.68146713
              26.77542618                5.71878580               55.23154114                0.64207846                0.39042688                1.45545402               -4.35323926               -2.24444218               24.93955330                2.33355011
              27.79083490                4.83437835               54.51175432                0.85267207                1.54087201                2.18505437               -6.84004394                0.31234332                3.23615831               -3.85497530
               8.78937085                4.53265185               57.36368168                0.97791626               -1.02234926               -1.13689235                3.86139500               -0.26610868               -2.74677588                3.18195478
               9.77914736                3.55602783               56.99963533                0.75728804               -0.97802644               -0.69163822                2.67502414               -0.24757496               -3.83522893               -2.05645676
              10.76981032                2.57546967               56.61451198                0.56426493               -1.04864798               -0.36343909                1.38537614               -0.48685098               -3.78883100               -0.89583610
              11.75817440                1.58063147               56.25180996                0.48402548               -1.12598563               -0.04232963                0.16990945               -0.51018774               -1.64362826               -0.41704828
              12.74729061                0.56416820               55.90907198                0.45071257               -0.83851133                0.31325826               -1.09961224               -0.42000818                0.23160171               -0.28013470
              13.74140417               -0.47413193               55.58246650                0.45308584               -0.13366704                0.66826108               -2.40885218               -0.25953882                1.30384145               -0.04767682
              14.74461727               -1.52620791               55.25946030                0.48988784                0.77752777                1.01475688               -3.71008412               -0.19679727                0.95632805                0.17758180
              15.75695473               -2.58033371               54.92463226                0.56764125                1.54189345                1.34362857               -4.95447193               -0.22703645               -0.48591545                0.36015612
              16.77545514               -3.62840257               54.57185854                0.70466145                2.02764313                1.66440047               -6.16261075               -0.24320620               -2.30014537                0.43371040
              17.79750759               -4.66789534               54.19956917                0.94167106                2.32953189                1.97947153               -7.38584009               -0.22207895               -2.91887752                1.04719900
              18.82204578               -5.70053891               53.83262943                1.00000000                2.45381853                2.37837607               -8.60248073               -0.44550387               -2.53260043               -2.14749993
               9.76333378                5.52128292               57.21353628                0.87278338               -0.80710822               -1.11709607                3.39286136               -0.11069570                1.33314463                4.15633278
              10.75526270                4.54911145               56.84375785                0.38689549               -0.53468920               -0.57138902                2.19936819               -0.19943537                3.45416001               -3.59939051
              11.75264000                3.57183528               56.51697621                0.05974161                0.17302798                0.06638682                1.27495422               -1.02139036                6.36003796               -6.99009674
              12.75872326                2.58020817               56.20551089                0.00940420                0.89161173               -0.57453501                0.24989855               -1.97619354                7.88128253               -6.03384038
              13.77047223                1.56730079               55.90965913                0.01181295                1.26367934               -0.69721064               -0.77712185               -2.81753069                9.42293149               -4.93132141
              14.78399684                0.53255068               55.62974043                0.01573411                1.26389777               -0.42116934               -1.84762506               -3.27392197               10.34273460               -4.16163229
              15.79575019               -0.51606035               55.35264719                0.02034332                1.08924242                0.06659976               -2.91393480               -3.05485692                9.90282888               -3.24392234
              16.80578169               -1.56689743               55.06334312                0.05705196                1.05268518                0.55077258               -3.93178354               -2.15180779                8.42556054               -1.38607089
              17.81680389               -2.61175857               54.75532798                0.23985789                1.27866394                1.06526625               -4.93244514               -0.95876541                6.86990273                4.40343482
              18.83135497               -3.64810062               54.43332043                0.54550258                1.67152104                1.63763907               -5.94795447               -0.36186302                4.59372349                3.26833165
              19.85023431               -4.67675515               54.07830954                0.90222543                1.88793391                2.34127434               -7.04604447               -0.46879234                3.01586012               -3.45249251
              10.73149989                6.51030992               57.08369531                0.78461343               -0.68935895               -1.03777740                3.05509499               -0.09986010                0.31666097                4.94480041
              11.72460630                5.54460005               56.65747764                0.24897559               -0.66070448               -0.34814142                1.52401636               -0.07231014                3.62027565               -4.91409867
              12.71828580                4.57679741               56.29782151                0.00939504               -0.07106350                0.71747083                0.50725949               -2.18436529               12.33896118              -15.27393357
              13.72318503                3.56914077               56.04680327                0.00010000                1.01558491               -0.68118852               -0.52219371               -4.67909472               18.73442307              -11.94043189
              14.73859749                2.55022399               55.81690515                0.00010000                1.80509202               -1.28496904               -1.58676513               -5.70068492               20.08170953               -9.82180240
              15.75928687                1.51744468               55.59413535                0.00010000                2.21853704               -1.24344467               -2.67229216               -6.35099162               20.66951327               -8.25501724
              16.78296823                0.47512408               55.37650497                0.00010000                2.51649640               -0.81934070               -3.73137528               -6.05219616               21.30221979               -6.49037311
              17.80961679               -0.56931826               55.16592500                0.00010000                2.72573961               -0.30687119               -4.65068270               -4.67893123               24.76105201               -3.49341090
              18.83748303               -1.60709725               55.01668798                0.06638861                2.28250602                0.23751196               -4.36808461               -2.65877012               19.92866870                0.25865175
              19.85526691               -2.63514256               54.70968274                0.22000485                1.62479789                1.31470773               -4.37751309               -0.96320682                6.77597740                1.00994076
              20.86997898               -3.65371342               54.29582375                0.67475692                1.47120701                3.07837383               -5.79354916               -0.73755763                1.44929774               -8.86360248
              11.69275633                7.50052737               56.95014398                0.76363790               -0.54273123               -0.91332046                2.67742486               -0.07997304                0.07467744                4.71861789
              12.68732901                6.54214862               56.47551716                0.22121244               -0.41721750               -0.16815527                0.93721434                0.18476947                1.69688929               -4.56964577
              13.68441198                5.58618470               56.03370906                0.00243795                0.21928845                0.85500537               -0.31676155               -2.57503508               17.82029820              -15.45172559
              14.69171478                4.56658440               55.88216144                0.00010000                1.18713236                0.06677943               -1.26495022               -5.66243419               31.60211369              -12.09512736
              15.70815462                3.54160140               55.71926330                0.00010000                2.01810699               -0.47649621               -2.34859404               -6.22351140               31.07562959               -9.90295470
              16.73207692                2.50768178               55.55959800                0.00010000                2.66572900               -0.64054993               -3.48604084               -6.72748108               31.43929395               -8.00299106
              17.76146920                1.46755284               55.40518956                0.00010000                3.11737366               -0.49474412               -4.61646507               -6.64530017               32.26342325               -6.08129474
              18.79442439                0.42696515               55.26198543                0.00010000                3.39917903               -0.13586627               -5.60413526               -5.82665694               32.74056116               -4.20672020
              19.82945278               -0.60700833               55.11603756                0.06751817                3.21413087                0.34766173               -6.66204127               -3.89368201               28.97200004               -5.13643991
              20.85870701               -1.62180647               54.89696341                0.21228587                2.15860545                1.76983016               -5.48362286               -1.17617689               12.96530633               -4.04256642
              21.87262489               -2.61518767               54.43126604                0.66706989                1.39178797                3.89621607               -7.00944606                0.04471661                0.65447778              -13.10852889
              12.64665793                8.49204352               56.81648343                0.75204587               -0.40135681               -0.78838081                2.31582224               -0.07713114                0.08508964                4.72638814
              13.64264436                7.54123695               56.29625792                0.20759526               -0.21543083               -0.01257485                0.35796953                0.23680168                1.77177464               -4.38090110
              14.64234931                6.59389752               55.81004104                0.00052770                0.59376358                0.80119022               -0.91952631               -3.16252698               23.21445465              -12.87530203
              15.65451963                5.57047636               55.71919713                0.00010000                1.53402850                0.58327365               -1.91687626               -6.79483064               42.52629613              -11.41248979
              16.67302988                4.54069407               55.62370973                0.00010000                2.21330871                0.21694978               -3.04287559               -7.16959072               42.08257048               -9.39385292
              17.69878581                3.50463368               55.52767668                0.00010000                2.88744898                0.01568081               -4.25950413               -7.46261774               42.12604687               -7.45630950
              18.73077886                2.46522920               55.43539267                0.00010000                3.44295068                0.06387266               -5.52032036               -7.30336961               42.47645708               -5.55984884
              19.76764482                1.42796441               55.34725708                0.00010000                3.88010698                0.37204529               -6.82843785               -6.43094756               42.82703096               -3.87561597
              20.80838100                0.39985599               55.26188819                0.07332229                3.61389496                0.96474104               -8.22661914               -4.11667691               37.23603139               -1.59753825
              21.83992272               -0.59974595               55.06247018                0.22115078                2.46273617                2.39272198               -6.43600347               -1.30540056               16.19365468               -4.40789114
              22.85763573               -1.57578910               54.55494996                0.67260985                1.77130052                3.84642296               -8.14854490                0.19120133                0.97709090              -13.05245248
              13.59282684                9.48475976               56.68370387                0.74238838               -0.26157942               -0.67032288                1.95991501               -0.07638457                0.08594213                4.76277021
              14.59021105                8.54189712               56.11809163                0.19711482               -0.04524078                0.14506458               -0.21326482                0.22151225                2.31066490               -4.28367810
              15.59192203                7.60220850               55.59714725                0.00013520                0.94052858                0.90024594               -1.42848266               -3.63700235               29.03685475              -12.07176178
              16.60902162                6.57824987               55.56664433                0.00010000                1.93417296                0.93373927               -2.45710625               -7.75104978               53.16191815              -10.39925126
              17.63060548                5.54594040               55.53406780                0.00010000                2.46339079                0.74375197               -3.63979465               -8.09868673               52.79519127               -8.52965885
              18.65828943                4.50799540               55.50119249                0.00010000                3.07327955                0.58257253               -4.94687338               -8.20850772               52.71874521               -6.56108932
              19.69207108                3.46883029               55.47065580                0.00010000                3.64446092                0.60643912               -6.35747746               -7.85859258               52.94362202               -4.53220768
              20.73117865                2.43440606               55.44434406                0.00010000                4.13792678                0.87264701               -7.88021863               -6.83462008               53.33907096               -2.26210337
              21.77482961                1.41228649               55.42254491                0.07941811                3.85327191                1.41346046               -9.58405315               -4.18652042               45.03978176                0.52485424
              22.80824409                0.42604797               55.23054665                0.22984696                2.68528021                2.62367016               -6.97773959               -1.14742380               18.77933472               -3.41483292
              23.82853522               -0.53825921               54.68000958                0.67776539                2.02911245                3.64651015               -8.88273663                0.16406389                1.14711762              -12.12212169
              14.53085551               10.47863706               56.55130642                0.73387915               -0.12296430               -0.55559987                1.60603966               -0.07681901                0.08906950                4.75622708
              15.52962586                9.54413824               55.94066750                0.18870290                0.12005048                0.30426052               -0.77974874                0.17474251                3.04622637               -4.21865717
              16.53325652                8.61190243               55.38924577                0.00010000                1.30704377                1.03295199               -1.85844019               -4.04185463               35.18520611              -11.56275101
              17.55576674                7.58915114               55.42209569                0.00010000                2.40270540                1.18953499               -2.88467576               -8.46664330               63.92050003               -9.48511796
              18.58131063                6.55556911               55.45272114                0.00010000                2.79795103                1.07226820               -4.11399523               -8.78016262               63.47247471               -7.44856012
              19.61172576                5.51628513               55.48282803                0.00010000                3.29428649                0.96881649               -5.50164404               -8.69378126               63.33867591               -5.38791746
              20.64719636                4.47735798               55.51552513                0.00010000                3.78852295                1.02385040               -7.03245273               -8.15453795               63.59573616               -3.15188171
              21.68749622                3.44541735               55.55387473                0.00010000                4.29061612                1.26244134               -8.72577297               -7.02036165               64.18970123               -0.50977919
              22.73300868                2.42812520               55.59979018                0.08585092                4.00118660                1.66937966              -10.66522228               -4.11155661               52.52278885                2.81789785
              23.76751995                1.45272745               55.40426300                0.23851231                2.82613488                2.62132017               -7.18029841               -0.97395290               20.81309333               -2.18338600
              24.78953138                0.49714110               54.81052786                0.68248088                2.20114234                3.42276292               -9.26412766                0.14297839                1.26936159              -10.89203130
              15.46028810               11.47364776               56.41886153                0.72621761                0.01524200               -0.44258921                1.25228252               -0.07754646                0.09136299                4.70433396
              16.46044052               10.54798234               55.76355839                0.18199134                0.28919638                0.46552869               -1.34472678                0.08838897                3.98351321               -4.18309507
              17.46607203                9.62286754               55.18607416                0.00016198                1.77907799                1.10747152               -2.16836060               -4.44318330               41.69180762              -10.99656596
              18.49602208                8.60204057               55.28578766                0.00010000                3.08981074                1.24798834               -3.19036973               -8.92154992               74.88563897               -8.41342140
              19.52786824                7.56738576               55.38098833                0.00010000                3.33014262                1.10087967               -4.44418766               -8.99970117               74.19079962               -6.16606711
              20.56262493                6.52737173               55.47424978                0.00010000                3.59899243                1.11379403               -5.88621629               -8.58103190               73.97118471               -4.06655473
              21.59984809                5.48930730               55.57083392                0.00010000                3.86896340                1.32584025               -7.50405408               -7.92330236               74.39057741               -1.76009729
              22.64000420                4.45965488               55.67638092                0.00010000                4.27201450                1.58057943               -9.32497978               -6.91334798               75.40109221                1.17527482
              23.68528838                3.44567409               55.79471110                0.09253419                3.98724636                1.83437041              -11.44779993               -4.03288111               59.76568601                5.11135685
              24.71974913                2.47847438               55.58576459                0.24690941                2.86395488                2.47458744               -7.09830372               -0.86916914               22.34942685               -0.80892362
              25.74256748                1.53019605               54.94874801                0.68679412                2.28183512                3.18308118               -9.34644906                0.11416348                1.35440454               -9.49569963
              16.38063543               12.46978527               56.28583017                0.71987410                0.15384330               -0.32968060                0.89514324               -0.07887098                0.11318585                4.66124852
              17.38217386               11.55344881               55.58646865                0.17719642                0.48495905                0.62949669               -1.90998566               -0.09345389                5.21932579               -4.23090073
              18.39033461               10.63405186               54.98910565                0.00047642                2.53218274                0.99224132               -2.36644307               -4.97325611               48.73226431              -10.04160172
              19.43281752                9.61411091               55.16070834                0.00010000                4.28254176                0.79019302               -3.35787033               -8.94663173               86.10582918               -6.78318273
              20.47598545                8.57758670               55.32128324                0.00010000                4.26830333                0.62654368               -4.61392525               -8.20912186               84.82305329               -4.55724576
              21.51818359                7.53856101               55.47596899                0.00010000                4.02308532                1.02495296               -6.07283291               -7.33056798               84.38688761               -2.70457733
              22.55644715                6.50387479               55.63481851                0.00010000                3.73394444                1.59269661               -7.73577822               -6.71468773               85.14582035               -0.66037505
              23.59286247                5.47702894               55.80893385                0.00010000                3.85422040                2.06041230               -9.64982660               -6.23624020               87.00256897                2.20707589
              24.63353156                4.46481261               56.00613774                0.09965737                3.63760682                2.15139302              -11.91687582               -4.08612097               66.98425568                6.88154560
              25.66561461                3.50221920               55.77639977                0.25541469                2.74198720                2.24091654               -6.77419033               -0.93889050               23.52767452                0.72173669
              26.68837131                2.56080273               55.09636980                0.69061385                2.27566952                2.93224201               -9.17157422                0.07688765                1.43887030               -8.01532276
              17.29138361               13.46705415               56.15287680                0.71311042                0.29212466               -0.21392872                0.53807606               -0.08029367               -0.06806187                4.05598503
              18.29430485               12.56057227               55.40788575                0.17345683                0.72806016                0.79232410               -2.48367627               -0.50421722                7.05275000               -3.79571177
              19.30594481               11.64271237               54.80508606                0.00131809                3.96248797                0.30656794               -2.40974521               -5.22443437               56.82257637               -7.19057825
              20.37355461               10.61784443               55.05548927                0.00010000                6.66454473               -0.86488406               -3.39712108               -6.91917523               97.48890051               -4.02155378
              21.43923570                9.57991664               55.27768077                0.00010000                5.80854371               -0.13164326               -4.61259314               -5.41770759               94.87466054               -2.47585268
              22.48972549                8.54787079               55.48793056                0.00010000                4.39253506                0.82332643               -6.03194050               -4.35790746               94.08522123               -1.35631168
              23.52708641                7.52116123               55.70287070                0.00010000                3.23080449                1.84184781               -7.68400913               -4.01732422               95.24588137               -0.10478212
              24.55434158                6.50086313               55.94066328                0.00010000                2.56446505                2.78856250               -9.64106961               -4.21681843               98.74744080                1.84550432
              25.57837571                5.48870195               56.22488577                0.10761018                2.53198114                3.20066837              -12.05244741               -3.43489149               74.87424758                5.81125725
              26.60498120                4.52329271               55.97866898                0.26420908                2.42812368                1.97177763               -6.23853097               -1.37211738               24.83277236                1.84292007
              27.62693818                3.58884089               55.25406319                0.69394415                2.19569806                2.69693589               -8.77878119               -0.00999711                1.34022366               -5.76121697
              18.19199332               14.46550670               56.00804521                0.85489172                0.44379824               -0.15474498                0.12456761                0.43983068                1.84121986                3.45006975
              19.19643130               13.56929529               55.23883679                0.58666630                1.82902201                0.87230248               -3.01247780               -1.05352897               11.70713971               -3.27920201
              20.22857376               12.64018322               54.66660936                0.47220199                8.03992215               -0.25291447               -2.40245291               -6.36120835               66.41879722               -5.20719828
              21.35722974               11.59681323               54.98461713                0.44462285               10.45155916               -2.10312071               -3.33624579               -4.89395629              107.41992442               -2.06566660
              22.43760494               10.57495383               55.25491985                0.43687182                6.62755481               -0.49628045               -4.42433183               -2.25236059              103.51414802               -1.17672765
              23.48978084                9.55502754               55.50997814                0.44310614                4.27516931                0.71567516               -5.72725267               -1.70656917              102.44891205               -0.52524169
              24.52310833                8.54071174               55.76928155                0.46325784                2.56022754                1.95505083               -7.28546085               -1.50917502              103.68710394                0.19925281
              25.54098539                7.53280019               56.05463634                0.49834118                0.96479125                3.19370644               -9.19649180               -1.92990689              108.25386562                1.37619100
              26.54240415                6.52882597               56.40332308                0.55678373               -0.14760334                4.01240264              -11.67413838               -3.15442734               83.72557678                4.35938217
              27.53803332                5.54165475               56.18260960                0.63531146                0.73354262                1.83620450               -5.56009047               -2.39901399               29.42102636                2.35004019
              28.55707501                4.61474144               55.43731133                0.84798217                1.90416811                2.59005578               -8.16307526                0.32235175                3.59595501               -4.03704167
               9.13131427                4.71756825               58.40299836                0.97163437               -1.05701218               -1.17793095                4.00251831               -0.27804891               -2.86358280                3.30722775
              10.12074415                3.69316770               58.02683014                0.74838369               -1.00600591               -0.71464703                2.76500380               -0.25838482               -4.00605783               -2.16966002
              11.11119416                2.66474350               57.62852051                0.56022264               -1.04711095               -0.37716120                1.41768149               -0.47775803               -3.97715468               -0.86804315
              12.09980193                1.62229936               57.25338889                0.48256654               -1.07910648               -0.03873535                0.14575474               -0.49019175               -1.82337604               -0.42908225
              13.08961203                0.55914507               56.89766939                0.45055042               -0.76108779                0.32932120               -1.18095464               -0.40168634                0.00155531               -0.28422153
              14.08458018               -0.52470688               56.55768794                0.45311181               -0.05802671                0.69871337               -2.54786025               -0.25261930                1.05710576               -0.05165718
              15.08845149               -1.62160925               56.22138308                0.48930914                0.83539969                1.06001477               -3.90687106               -0.19134342                0.74586612                0.17534789
              16.10128817               -2.72054290               55.87382367                0.56554318                1.59759732                1.40442177               -5.21040996               -0.21710895               -0.64424280                0.36209132
              17.12040344               -3.81368574               55.50866126                0.70047469                2.10402692                1.74019572               -6.47641669               -0.23341001               -2.44237320                0.43358291
              18.14336871               -4.89834873               55.12385854                0.93433814                2.43498370                2.07050536               -7.75770313               -0.22096169               -3.05958926                1.05008432
              19.16910311               -5.97587954               54.74450423                1.00000000                2.57344031                2.48188969               -9.02696583               -0.47787098               -2.66662418               -2.23591825
              10.15293433                5.70578894               58.24808137                0.86058374               -0.83616527               -1.15874113                3.51672676               -0.11784118                1.44111496                4.34821857
              11.14457268                4.68602123               57.86611316                0.37191646               -0.55417907               -0.58800908                2.27268517               -0.21038347                3.69942807               -3.81564664
              12.14185075                3.66097189               57.52989533                0.05384682                0.15632779                0.08158930                1.31037152               -1.03450469                6.69349065               -7.29521663
              13.14769923                2.62191200               57.20797913                0.00986508                0.86237663               -0.56590933                0.24314413               -1.99159285                8.16523435               -6.48391882
              14.15909828                1.56243828               56.90166005                0.01230799                1.23659544               -0.67805508               -0.82251241               -2.80079266                9.68689414               -5.52449464
              15.17243114                0.48228025               56.61084770                0.01643157                1.26788933               -0.40492490               -1.93165958               -3.21951495               10.58808027               -4.89579517
              16.18445607               -0.61100910               56.32291792                0.02152615                1.13620924                0.08301073               -3.03321348               -2.98518533               10.17139835               -4.10613561
              17.19515533               -1.70649868               56.02325747                0.05327968                1.12580929                0.59913807               -4.08816065               -2.10179413                8.72157683               -2.31886257
              18.20697225               -2.79628378               55.70505313                0.23093690                1.35503336                1.13728176               -5.12257835               -0.96266903                7.16455842                3.98625445
              19.22225599               -3.87764367               55.37272072                0.52833541                1.74414807                1.71827224               -6.17277117               -0.36021520                4.83814241                3.33192896
              20.24185521               -4.95106064               55.00652175                0.89017157                1.95992212                2.44467022               -7.31379828               -0.50659771                3.21795032               -3.70693659
              11.16849286                6.69439342               58.11481772                0.77323093               -0.71393303               -1.07703715                3.17104161               -0.10319320                0.30750062                5.18148928
              12.16135353                5.68140752               57.67293829                0.23586180               -0.69397857               -0.35642627                1.56860667               -0.06828681                3.87947594               -5.18667434
              13.15461329                4.66637529               57.30299981                0.00860526               -0.14249225                0.76399755                0.52990600               -2.21616244               12.84327782              -15.91887673
              14.15850369                3.61098117               57.04140119                0.00010000                0.93073156               -0.64501708               -0.55440023               -4.74904886               19.19286025              -12.80553347
              15.17322792                2.54558396               56.80052120                0.00010000                1.75667853               -1.24196778               -1.69116900               -5.71109661               20.49789130              -10.97616864
              16.19363726                1.46719462               56.56651197                0.00010000                2.21493995               -1.20423373               -2.85900519               -6.30122237               21.07953853               -9.70428039
              17.21752672                0.38005097               56.33791206                0.00010000                2.54448556               -0.77278405               -4.00117227               -5.94316887               21.79392793               -8.22937161
              18.24452697               -0.70856014               56.11784796                0.00010000                2.73841655               -0.20337583               -4.98757817               -4.56204792               25.91436882               -5.46536810
              19.27229505               -1.79094010               55.97097501                0.05861161                2.32071496                0.46851506               -4.85158878               -2.60305342               21.64795296               -1.94271403
              20.29094127               -2.86398328               55.66538728                0.20544115                1.67550219                1.62095291               -4.48625159               -0.94715675                7.65780572               -0.35873981
              21.30580510               -3.92698614               55.23702631                0.66481011                1.48638279                3.37571111               -5.96724146               -0.71627083                1.53445918              -10.65967210
              12.17684227                7.68424819               57.97743078                0.75240635               -0.56171950               -0.94715239                2.78158564               -0.08334025                0.07799546                4.94141601
              13.17122508                6.67889271               57.48499859                0.20843014               -0.44442119               -0.17191803                0.95919826                0.20168611                1.97170126               -4.79230765
              14.16795385                5.67625184               57.03082161                0.00196497                0.11422496                0.88638128               -0.24597797               -2.58642668               18.47641098              -16.01121292
              15.17350958                4.60901166               56.86930321                0.00010000                1.03545231                0.13611292               -1.29736000               -5.73259262               32.28128120              -12.88826476
              16.18866290                3.53759892               56.69503740                0.00010000                1.92150574               -0.38736256               -2.49714070               -6.24846106               31.63606392              -10.98439360
              17.21193969                2.45819558               56.52340961                0.00010000                2.63422771               -0.52546288               -3.76234784               -6.70330976               31.96332097               -9.40466773
              18.24134745                1.37353522               56.35710880                0.00010000                3.14828721               -0.33830787               -5.02171114               -6.55318511               32.86485292               -7.83331511
              19.27490544                0.28943380               56.20352505                0.00010000                3.44934405                0.09875282               -6.12514011               -5.63608848               33.42083923               -6.39418351
              20.31033433               -0.78691348               56.04704490                0.05989896                3.22267272                0.79244432               -7.17543735               -3.70411770               30.75525728               -8.39651427
              21.33935889               -1.84522462               55.83896100                0.19967055                2.16005860                2.36562697               -6.20475366               -1.12731165               14.51551469               -6.68698761
              22.35353550               -2.88354642               55.35782011                0.65893967                1.41766119                4.45861948               -7.74980142                0.12073893                0.89619586              -16.12303866
              13.17753703                8.67545038               57.84010766                0.74113289               -0.41534247               -0.81802132                2.40925513               -0.08130551                0.08775760                4.95819211
              14.17338361                7.67796916               57.29983019                0.19529357               -0.23856159               -0.01024873                0.35644076                0.24511737                2.15859859               -4.59511917
              15.17276580                6.68410291               56.80124898                0.00026069                0.45605714                0.81706271               -0.80559745               -3.17176421               24.05924312              -13.28044514
              16.18250475                5.61370343               56.69986160                0.00010000                1.31544904                0.66958157               -1.93560419               -6.85194046               43.35087401              -12.09573607
              17.19907478                4.53783671               56.59239152                0.00010000                2.05650077                0.35333682               -3.21946815               -7.19780171               42.76310220              -10.37548744
              18.22363477                3.45668537               56.48339261                0.00010000                2.80750067                0.20574618               -4.60994792               -7.44425571               42.72530500               -8.76894708
              19.25522480                2.37328481               56.37768223                0.00010000                3.43095651                0.32207754               -6.04810356               -7.20974811               43.03964069               -7.25281170
              20.29225390                1.29341492               56.27576934                0.00010000                3.88231607                0.73246008               -7.50833352               -6.20154599               43.36159160               -6.07430397
              21.33287112                0.22490878               56.17602073                0.06543158                3.63870396                1.50664925               -8.98594492               -3.87650494               39.31097753               -4.39560875
              22.36502798               -0.81667074               55.99307969                0.20826800                2.59961832                3.03360098               -7.57484787               -1.20297983               18.13862599               -6.58825276
              23.38486348               -1.83781375               55.46819233                0.66442713                1.98355076                4.48722841               -9.31472886                0.28959069                1.28775415              -15.64422171
              14.17017860                9.66788777               57.70370922                0.73156424               -0.27037067               -0.69661353                2.04171891               -0.08040325                0.08913067                4.99593055
              15.16747489                8.67868773               57.11583802                0.18511350               -0.06971501                0.15444369               -0.23750439                0.21916634                2.85628011               -4.49043812
              16.16878430                7.69259309               56.58348681                0.00010000                0.76310386                0.91997369               -1.26444356               -3.64332008               30.12282528              -12.38421010
              17.18273697                6.62240329               56.54200235                0.00010000                1.64703140                1.03030104               -2.44839136               -7.78292875               54.13261590              -10.96367272
              18.20172492                5.54466566               56.49670804                0.00010000                2.24347578                0.91687709               -3.82851557               -8.10435961               53.58466720               -9.38550751
              19.22760648                4.46231050               56.44975100                0.00010000                2.93490045                0.83824713               -5.35427634               -8.16076735               53.37953244               -7.73830152
              20.26042293                3.37997677               56.40405088                0.00010000                3.58220296                0.95699656               -6.99095432               -7.71699929               53.50703443               -6.07303526
              21.29925054                2.30408300               56.36151134                0.00010000                4.12334810                1.33684470               -8.72634858               -6.50629555               53.78854010               -4.22473062
              22.34288990                1.24321951               56.32181253                0.07125207                3.93856411                2.01798283              -10.58892535               -3.83714024               47.56027761               -1.96288587
              23.37802182                0.21544740               56.15456090                0.21685398                2.93617130                3.24376327               -8.38249597               -1.00590645               21.24649347               -5.05997238
              24.40161332               -0.79380185               55.58467020                0.66947425                2.35914972                4.28503591              -10.32253749                0.23350885                1.49143011              -14.15674149
              15.15432904               10.66151811               57.56771488                0.72318564               -0.12674316               -0.57845238                1.67742509               -0.07980729                0.09331341                4.98918573
              16.15306161                9.68105803               56.93263813                0.17713108                0.09273988                0.32031595               -0.82692594                0.15881219                3.79180571               -4.42159754
              17.15618384                8.70250239               56.37160833                0.00010000                1.08560009                1.04944972               -1.61223906               -4.04064372               36.56794788              -11.77354715
              18.17477361                7.63430945               56.39336337                0.00010000                2.04482707                1.28750092               -2.83277897               -8.45584417               65.05650693               -9.92638534
              19.19708038                6.55617425               56.41063080                0.00010000                2.51673492                1.26638869               -4.29712605               -8.73396124               64.38039387               -8.15861163
              20.22510831                5.47345031               56.42564670                0.00010000                3.10159646                1.27222463               -5.94625842               -8.58025175               64.07975784               -6.38982100
              21.25911231                4.39242474               56.44173143                0.00010000                3.68884699                1.44358807               -7.75238355               -7.93073748               64.19303372               -4.47100615
              22.29888525                3.32015181               56.46182634                0.00010000                4.28258022                1.79353292               -9.71905336               -6.58821389               64.60668419               -2.18765863
              23.34476391                2.26526844               56.48701310                0.07754411                4.15229777                2.29322016              -11.89654471               -3.69668013               55.57036645                0.70153597
              24.38193120                1.24820452               56.32558093                0.22530469                3.16341295                3.21271455               -8.73528434               -0.83381354               23.84915536               -3.37475158
              25.40803217                0.24788697               55.71064614                0.67411966                2.61009678                4.03580969              -10.86466301                0.19124640                1.63698048              -12.44222899
              16.12950260               11.65631872               57.43168142                0.71582903                0.01642580               -0.46214070                1.31330128               -0.08033200                0.09547849                4.93452545
              17.12966685               10.68509405               56.74976803                0.17082462                0.26087052                0.48819795               -1.41463148                0.04875166                4.99397278               -4.38488246
              18.13472001                9.71358209               56.16580090                0.00020061                1.51406806                1.10775172               -1.82508993               -4.43352033               43.43853184              -11.09191847
              19.15994821                8.64815331               56.25427649                0.00010000                2.65924176                1.33078552               -3.07411914               -8.85428314               76.19677350               -8.72248216
              20.18790484                7.56999343               56.33570041                0.00010000                2.99013741                1.30111144               -4.60299640               -8.88006850               75.23963571               -6.71626903
              21.21975096                6.48775500               56.41313571                0.00010000                3.36009187                1.44360942               -6.34567226               -8.38730622               74.81896138               -4.86440607
              22.25510668                5.40884853               56.49200431                0.00010000                3.74458004                1.78448072               -8.28386287               -7.61136918               75.05261062               -2.82071376
              23.29464256                4.33995366               56.57768305                0.00010000                4.28984532                2.15223948              -10.44068329               -6.40193731               75.81916304               -0.18330717
              24.34090358                3.28908391               56.67289484                0.08416931                4.20422289                2.45729568              -12.89314048               -3.59870491               63.35936383                3.38922719
              25.37872702                2.27970169               56.50762125                0.23372373                3.25848818                3.03031680               -8.71528247               -0.75303012               25.95613687               -1.60766631
              26.40607335                1.28691434               55.84769081                0.67829316                2.73463269                3.76120742              -11.02352529                0.14416214                1.73382697              -10.61941994
              17.09517174               12.65227529               57.29502478                0.70959092                0.16015342               -0.34669333                0.94546996               -0.08190683                0.11878561                4.88890411
              18.09677327               11.69082199               56.56691515                0.16679036                0.46412153                0.65955640               -2.00273220               -0.17389148                6.55426825               -4.43666089
              19.10445417               10.72465742               55.96738868                0.00070400                2.22516648                0.94443713               -1.88862627               -4.96455665               50.91310656              -10.00346172
              20.14127660                9.66092516               56.12790064                0.00010000                3.77115772                0.84646289               -3.16178410               -8.78803515               87.61421349               -6.96736821
              21.17987732                8.58219648               56.27448501                0.00010000                3.86152418                0.84343498               -4.73162671               -8.02729368               86.04164093               -4.93965605
              22.21850709                7.50232250               56.41302079                0.00010000                3.74044669                1.36138709               -6.52242973               -7.09041063               85.37534768               -3.27240075
              23.25468626                6.42811435               56.55350590                0.00010000                3.60520188                2.04751976               -8.54254640               -6.35332196               85.89513183               -1.42746128
              24.29061112                5.36319660               56.70647728                0.00010000                3.91777626                2.64048823              -10.85387304               -5.67765082               87.43444180                1.20664482
              25.33304178                4.31441435               56.87849043                0.09124743                3.92145223                2.76598615              -13.57090646               -3.66238274               71.09340930                5.57999121
              26.36904017                3.30881086               56.70150315                0.24208983                3.17241689                2.75890709               -8.38846440               -0.86833649               27.67055270                0.26921713
              27.39649012                2.32311112               55.99702592                0.68199163                2.74499520                3.47238009              -10.85780612                0.09236200                1.82464114               -8.76415316
              18.05077106               13.64938485               57.15845094                0.70305803                0.30358377               -0.22822986                0.57832538               -0.08315047               -0.07216105                4.25370202
              19.05380690               12.69828518               56.38247978                0.16361984                0.72773240                0.82979341               -2.60061626               -0.66850794                8.79681090               -3.98170513
              20.06532571               11.73247083               55.78365647                0.00184892                3.64207764                0.10601591               -1.77906536               -5.08053115               59.51506033               -7.07211300
              21.12664845               10.66508257               56.02266447                0.00010000                6.03179626               -0.72508289               -3.11985911               -6.70658801               99.20770802               -4.11781472
              22.18596163                9.58686213               56.23114306                0.00010000                5.26882159                0.11512164               -4.67861953               -5.24262806               96.31482326               -2.67661464
              23.23202488                8.51498274               56.42555354                0.00010000                4.06022509                1.15745579               -6.44575931               -4.18297834               95.26561732               -1.65980201
              24.26716613                7.44979893               56.62212303                0.00010000                3.13823339                2.25850714               -8.47506878               -3.73062849               96.11727270               -0.52302671
              25.29478955                6.39276343               56.83804794                0.00010000                2.74377714                3.29041762              -10.87816201               -3.75522501               99.17421828                1.27645540
              26.32204168                5.34440363               57.09499706                0.09927768                2.89369887                3.78236166              -13.87900243               -3.06803677               79.40586500                5.05063683
              27.35266353                4.33487984               56.90932563                0.25086158                2.86391938                2.45472562               -7.80757756               -1.36116966               29.43652127                1.67864885
              28.37932006                3.35636194               56.15879919                0.68514460                2.66565379                3.20150687              -10.43476385               -0.00876811                1.71923624               -6.16825882
              18.99570808               14.64771069               57.00941282                0.84995407                0.46090577               -0.16741589                0.15046409                0.46441884                1.93012091                3.61746227
              20.00031714               13.70741786               56.20804117                0.58205213                2.01690384                0.91326820               -3.15063954               -1.39562357               13.90104491               -3.44023703
              21.03604616               12.72677774               55.64574009                0.47139203                7.62182022               -0.56930924               -1.67616254               -5.97767281               69.70250820               -5.12572536
              22.15275354               11.64642350               55.95265684                0.44445947                9.45392190               -1.86590673               -3.00267895               -4.50343172              109.42223865               -2.11751159
              23.22512459               10.58449892               56.21054164                0.43689955                5.95785926               -0.23632157               -4.43557585               -2.13129809              105.26031195               -1.27833073
              24.27191073                9.52547161               56.45094980                0.44288565                3.85842022                1.04888742               -6.07941252               -1.57213625              103.90436816               -0.67831368
              25.30229300                8.47328450               56.69284739                0.46228195                2.44955958                2.34855716               -8.00816624               -1.31064617              104.77028710               -0.01855841
              26.32090192                7.42900496               56.95672808                0.49608438                1.36358201                3.62415280              -10.37223516               -1.54990840              108.74714882                1.06780932
              27.32956464                6.39006159               57.27719048                0.55252725                0.44782729                4.56579558              -13.50271786               -2.80268287               88.37905136                3.87948315
              28.32985846                5.35790537               57.12033933                0.62861301                1.18929531                2.30255339               -7.05532664               -2.42652253               34.29939654                2.35796121
              29.35335055                4.38714126               56.34849282                0.84353853                2.34920811                3.07793149               -9.74690141                0.32663703                4.04527193               -4.23404358
               9.48443565                4.90863038               59.44373205                0.96532173               -1.09315936               -1.22024406                4.14666829               -0.29049267               -2.98665650                3.44005640
              10.47350405                3.83406859               59.05493540                0.73990894               -1.03635834               -0.73782259                2.85673146               -0.27023632               -4.18683655               -2.28880571
              11.46370848                2.75535916               58.64286561                0.55644892               -1.04730278               -0.39075156                1.45081856               -0.46642627               -4.17858677               -0.83982458
              12.45255800                1.66286934               58.25472505                0.48110849               -1.03429109               -0.03518496                0.12157406               -0.47231254               -2.01682590               -0.44109410
              13.44302266                0.55050245               57.88545289                0.45042919               -0.68627003                0.34566292               -1.26235568               -0.38580830               -0.24426334               -0.28726691
              14.43883260               -0.58148459               57.53150930                0.45320748                0.01881017                0.72953343               -2.68752639               -0.24685543                0.79276456               -0.05585470
              15.44339886               -1.72577063               57.18132288                0.48888501                0.89795525                1.10585910               -4.10453223               -0.18679164                0.51540583                0.17319971
              16.45679170               -2.87195947               56.82042406                0.56362052                1.65869755                1.46605059               -5.46759327               -0.20856978               -0.82160643                0.36404486
              17.47657281               -4.01251466               56.44233021                0.69623298                2.18405666                1.81674272               -6.79248754               -0.22702777               -2.60358801                0.43370074
              18.50047284               -5.14461801               56.04441511                0.92695953                2.54245515                2.16272294               -8.13378213               -0.22124626               -3.22028997                1.05480308
              19.52742192               -6.26929231               55.65209011                1.00000000                2.69490805                2.58763453               -9.45732514               -0.51049584               -2.81895738               -2.33527868
              10.55609251                5.89642794               59.28387082                0.84843375               -0.86552118               -1.20200400                3.64345053               -0.12510224                1.55707811                4.55264338
              11.54743730                4.82669036               58.88921155                0.35693908               -0.57243346               -0.60437281                2.34785626               -0.22333122                3.95906218               -4.04409270
              12.54464384                3.75145165               58.54318364                0.04807100                0.14129643                0.10672165                1.34551631               -1.05964483                7.04410372               -7.60738266
              13.55026323                2.66251749               58.21037377                0.01038450                0.83488500               -0.55816645                0.23665505               -2.02648607                8.46632548               -6.95311045
              14.56134154                1.55395908               57.89320888                0.01286836                1.21186780               -0.65895930               -0.86825447               -2.81424338                9.97296387               -6.16510691
              15.57450058                0.42581075               57.59110724                0.01720665                1.27134226               -0.38591281               -2.01681272               -3.20084690               10.85758849               -5.71226113
              16.58676839               -0.71471203               57.29198292                0.02280647                1.17887189                0.10581939               -3.15526259               -2.94988839               10.46387079               -5.08829820
              17.59807802               -1.85729896               56.98157990                0.04954064                1.19317105                0.65331299               -4.24766331               -2.07928378                9.04311416               -3.40213960
              18.61063181               -2.99434723               56.65287641                0.22233350                1.42855903                1.22856779               -5.31722019               -0.96809320                7.48618731                3.32276437
              19.62664920               -4.12299078               56.30986501                0.51116309                1.81797268                1.80301871               -6.40266957               -0.35849259                5.10367101                3.38000064
              20.64699126               -5.24341597               55.93203357                0.87823362                2.03420591                2.55435411               -7.58755870               -0.54410984                3.43786853               -4.00394343
              11.62140875                6.88459030               59.14711615                0.76209691               -0.73950323               -1.11810922                3.28954389               -0.10651088                0.29700978                5.43350519
              12.61401372                5.82198113               58.68884978                0.22279752               -0.73601492               -0.36398948                1.61451685               -0.05808950                4.16340553               -5.47424284
              13.60668845                4.75749360               58.30841963                0.00777087               -0.22464397                0.81298126                0.55906731               -2.26416932               13.38690926              -16.54918202
              14.60952084                3.65170601               58.03571527                0.00010000                0.83780418               -0.60793977               -0.57686575               -4.86544691               19.65408579              -13.69942865
              15.62344454                2.53732327               57.78308177                0.00010000                1.69829684               -1.19579326               -1.79615126               -5.77404502               20.89421785              -12.22243374
              16.64348678                1.41079716               57.53695524                0.00010000                2.20331330               -1.15514805               -3.05796256               -6.31030759               21.45954550              -11.31604878
              17.66751080                0.27634576               57.29648153                0.00010000                2.56772228               -0.70857975               -4.29850945               -5.89039645               22.25906831              -10.20686912
              18.69484122               -0.85889321               57.06617344                0.00010000                2.76959826               -0.07704691               -5.37907464               -4.47310019               26.98992083               -7.74807370
              19.72290277               -1.98794330               56.91965620                0.05091347                2.37652499                0.71814492               -5.48755719               -2.55871289               23.57200211               -4.44336163
              20.74237172               -3.10855764               56.61995771                0.19149567                1.72436622                1.98760734               -4.61842994               -0.93345179                8.81643707               -2.16238378
              21.75739009               -4.21820523               56.17647892                0.65529585                1.50183706                3.73007534               -6.15928098               -0.67279310                1.64532756              -12.89370655
              12.67918062                7.87406575               59.00577569                0.74141206               -0.58084131               -0.98306855                2.88738738               -0.08755405                0.08108745                5.17637893
              13.67337221                6.81941057               58.49470113                0.19590783               -0.47725253               -0.17430023                0.98115746                0.21534074                2.32005984               -5.02605193
              14.66963557                5.76771127               58.02878950                0.00149079               -0.01237972                0.90649106               -0.13522954               -2.61187821               19.18667513              -16.51607057
              15.67312462                4.65035870               57.85621424                0.00010000                0.85669622                0.20782393               -1.30840988               -5.83971589               32.91426472              -13.69349968
              16.68676950                3.53004322               57.66932049                0.00010000                1.80736602               -0.29047952               -2.64388876               -6.31672683               32.13105230              -12.14435814
              17.70927194                2.40270779               57.48435105                0.00010000                2.59406618               -0.39419017               -4.05792654               -6.72062141               32.40849175              -10.95746506
              18.73865082                1.27111637               57.30475534                0.00010000                3.18165720               -0.15574368               -5.47126389               -6.49317695               33.38407030               -9.81261327
              19.77290508                0.14116010               57.13948263                0.00010000                3.52355781                0.36926252               -6.72653366               -5.47018854               34.08761856               -8.88003052
              20.80912198               -0.97998433               56.97252881                0.05227264                3.26685074                1.25597430               -7.79144025               -3.50056512               32.47025115              -11.91181868
              21.83824210               -2.08323863               56.77286834                0.18744066                2.18543051                3.07233653               -7.12209371               -1.03391070               16.02739750              -10.06346618
              22.85283059               -3.16881446               56.27627001                0.65127216                1.45884924                5.13408063               -8.64178045                0.23118935                1.24266435              -19.84587273
              13.72896803                8.86492893               58.86466853                0.73029519               -0.42930154               -0.84973042                2.50381066               -0.08481933                0.09068294                5.20235719
              14.72467502                7.81849513               58.30338673                0.18303988               -0.27326328               -0.00650764                0.35489168                0.24406681                2.66782414               -4.81983273
              15.72350277                6.77562342               57.79392909                0.00010000                0.28597806                0.82268395               -0.62106071               -3.20270037               24.99088260              -13.63817983
              16.73039458                5.65586249               57.68048505                0.00010000                1.06290736                0.75579763               -1.91831297               -6.93908261               44.09351597              -12.77996252
              17.74476091                4.53151368               57.55932037                0.00010000                1.88033099                0.49738738               -3.39022594               -7.25842268               43.33691104              -11.42245998
              18.76800120                3.40291335               57.43547772                0.00010000                2.72170190                0.41337465               -4.98315567               -7.45087414               43.20033800              -10.21799307
              19.79919495                2.27323089               57.31443060                0.00010000                3.42684789                0.61020058               -6.62902821               -7.13103570               43.47952013               -9.15788417
              20.83653815                1.14849204               57.19709041                0.00010000                3.90476251                1.13471734               -8.27240879               -5.98859913               43.81855379               -8.55930928
              21.87729020                0.03717618               57.08216929                0.05748251                3.69927420                2.10103698               -9.86268791               -3.58696598               41.15791672               -7.57882221
              22.91052364               -1.04711091               56.91097322                0.19584860                2.79376663                3.77929589               -9.01146511               -1.03128017               19.93193718               -9.30681254
              23.93316553               -2.11552362               56.36865538                0.65660565                2.26418950                5.24833071              -10.73396012                0.42446065                1.70676197              -18.77592834
              14.77035184                9.85707114               58.72453824                0.72083400               -0.27927783               -0.72401796                2.12586292               -0.08370941                0.09344170                5.24347305
              15.76755906                8.81928042               58.11334154                0.17345430               -0.10688169                0.16405756               -0.26236024                0.19936641                3.57007530               -4.70790159
              16.76821420                7.78416495               57.57185838                0.00010000                0.54468230                0.92469881               -1.00337819               -3.67091499               31.33341596              -12.63651437
              17.77845270                6.66547465               57.51767650                0.00010000                1.31679908                1.12434029               -2.38976690               -7.83470785               54.99714590              -11.51729181
              18.79455018                5.53999097               57.45749749                0.00010000                2.00422696                1.09454126               -4.00660184               -8.13125584               54.23148896              -10.29241972
              19.81853724                4.41097528               57.39410696                0.00010000                2.79506173                1.10953225               -5.78510553               -8.12257480               53.87784759               -9.03394150
              20.85045142                3.28332038               57.33083672                0.00010000                3.53252798                1.33767675               -7.68007815               -7.57191937               53.90129160               -7.80589190
              21.88918780                2.16385445               57.26981709                0.00010000                4.12670942                1.85002176               -9.65801715               -6.17369438               54.10378900               -6.46508649
              22.93298561                1.06203641               57.21076640                0.06303401                4.05642466                2.69487110              -11.69193576               -3.40679780               49.79101368               -4.82130003
              23.97031630               -0.00765272               57.06289673                0.20409521                3.25798098                3.96414864              -10.14800014               -0.77689365               23.53416795               -7.09847140
              24.99814523               -1.06384785               56.47355883                0.66167215                2.78289306                5.03997664              -12.06790255                0.32923949                1.94877057              -16.59337556
              15.80287529               10.85044857               58.58485492                0.71273502               -0.13067540               -0.60213842                1.75159817               -0.08359841                0.09703273                5.23751542
              16.80156854                9.82177628               57.92412899                0.16570812                0.05074724                0.33636233               -0.87535296                0.11551296                4.77292596               -4.63574164
              17.80389024                8.79411739               57.35700099                0.00010000                0.81529341                1.05419347               -1.24421736               -4.06534880               38.12318524              -11.90287649
              18.81787441                7.67834930               57.36544011                0.00010000                1.63724657                1.37895054               -2.71759006               -8.45537737               66.05403996              -10.34167760
              19.83663517                6.55340450               57.36677862                0.00010000                2.21729393                1.46076042               -4.46441950               -8.69968730               65.11742665               -8.90320237
              20.86222028                5.42510400               57.36390286                0.00010000                2.91211140                1.58671220               -6.41259717               -8.46285323               64.62775499               -7.48865298
              21.89487740                4.29998442               57.36047746                0.00010000                3.60639786                1.88990907               -8.52551605               -7.68549857               64.58528412               -5.95594445
              22.93434824                3.18549248               57.35949367                0.00010000                4.28920064                2.37416732              -10.78775712               -6.13008434               64.84596847               -4.11451227
              23.98066141                2.09107361               57.36185929                0.06906806                4.32608896                2.99724473              -13.18453751               -3.18842815               58.33172836               -1.76533764
              25.02087002                1.03217207               57.22955732                0.21244066                3.57395877                3.90257761              -10.68581035               -0.60190418               26.73413728               -4.84246118
              26.05214058               -0.01472409               56.59323460                0.66616735                3.12705632                4.76378540              -12.80136563                0.25836925                2.12147603              -14.28810984
              16.82602445               11.84502838               58.44512756                0.70555763                0.01760462               -0.48273675                1.37679268               -0.08431500                0.09930304                5.17958368
              17.82620049               10.82600767               57.73526576                0.16008725                0.21548807                0.51137862               -1.48639640               -0.02263811                6.30884255               -4.59775505
              18.83033421                9.80524882               57.14957236                0.00035651                1.19287772                1.10048349               -1.33681177               -4.46164945               45.41620680              -11.07763399
              19.85005805                8.69305366               57.22430527                0.00010000                2.17337652                1.40131332               -2.88168312               -8.79557973               77.34612152               -8.99084765
              20.87380174                7.56920617               57.28892840                0.00010000                2.63211054                1.49732122               -4.74072720               -8.76405947               76.09374287               -7.28437123
              21.90270026                6.44270952               57.34733634                0.00010000                3.12756146                1.77955857               -6.82285055               -8.18191210               75.45367257               -5.73473840
              22.93635297                5.32111856               57.40515666                0.00010000                3.63983378                2.26112122               -9.10903478               -7.26779153               75.48403605               -4.01360450
              23.97549693                4.21133779               57.46756725                0.00010000                4.30922436                2.76522365              -11.60949976               -5.84593603               76.02109934               -1.75362652
              25.02253745                3.12198130               57.53684830                0.07545638                4.42894858                3.16183056              -14.34093613               -3.06132424               66.71293563                1.32622757
              26.06407590                2.07039884               57.41145894                0.22061265                3.72837312                3.68635473              -10.74529463               -0.54666467               29.48191548               -2.59063585
              27.09710492                1.03142786               56.72827750                0.67022031                3.30290120                4.45676802              -13.05464101                0.18680263                2.23412432              -11.95440764
              17.83923041               12.84079383               58.30473957                0.69956135                0.16649210               -0.36441154                0.99881522               -0.08608441                0.12427502                5.13159669
              18.84089533               11.83200385               57.54641400                0.15645635                0.41904219                0.69022365               -2.09870057               -0.29158602                8.29284388               -4.65444275
              19.84761125               10.81612706               56.95133313                0.00109866                1.85550634                0.88349386               -1.23550915               -4.99505872               53.39710515               -9.82793181
              20.87800546                9.70637556               57.09747266                0.00010000                3.20434315                0.88391365               -2.88064518               -8.63059985               88.92301868               -7.10400185
              21.91169812                8.58335093               57.22665071                0.00010000                3.43320975                1.05607725               -4.82357423               -7.84195148               87.05174050               -5.32682866
              22.94666965                7.46069517               57.34552040                0.00010000                3.45975891                1.70181051               -6.98388848               -6.83932342               86.14384126               -3.88702281
              23.98089329                6.34520685               57.46396758                0.00010000                3.49485646                2.51203217               -9.38193927               -5.96568632               86.39942450               -2.28721992
              25.01656678                5.24079695               57.59185639                0.00010000                3.97402933                3.24018246              -12.08249052               -5.07208261               87.60186537                0.04516546
              26.06037388                4.15431022               57.73471961                0.08239472                4.19616934                3.45166611              -15.16361018               -3.11099668               75.04031165                3.94949436
              27.10049017                3.10589916               57.60863048                0.22885265                3.67223518                3.38153319              -10.42068351               -0.70326798               31.84204864               -0.29584221
              28.13381858                2.07441127               56.87921367                0.67374070                3.33284163                4.12904773              -12.90975298                0.11475487                2.33482394               -9.65601052
              18.84188272               13.83774015               58.16444330                0.69320695                0.31528209               -0.24308247                0.62109076               -0.08736902               -0.07769931                4.46488503
              19.84503554               12.83981214               57.35587342                0.15434864                0.70892996                0.86819535               -2.72153262               -0.87959212               11.04401431               -4.17944657
              20.85606132               11.82291870               56.76950475                0.00258542                3.25933215               -0.13127893               -0.95136229               -4.93416030               62.58208049               -6.84508418
              21.91022219               10.71073193               56.99309209                0.00010000                5.32908915               -0.59486555               -2.75260393               -6.48617330              100.68788210               -4.17203888
              22.96264310                9.59032772               57.18410837                0.00010000                4.69178413                0.36195702               -4.71656655               -5.05830474               97.54673759               -2.87773673
              24.00405787                8.47674573               57.35901538                0.00010000                3.71471781                1.49867847               -6.86543619               -4.00378567               96.23746709               -1.98501832
              25.03693746                7.37135921               57.53336932                0.00010000                3.04470217                2.68424996               -9.28466622               -3.43808951               96.74582066               -0.98840309
              26.06495191                6.27614144               57.72310004                0.00010000                2.91389251                3.79995750              -12.10855467               -3.26630461               99.27722387                0.61650824
              27.09521531                5.19101462               57.94730572                0.09036643                3.24787884                4.38592814              -15.59524484               -2.60559502               83.85102747                4.05674332
              28.12990949                4.13802950               57.82251743                0.23753850                3.35802388                3.04437076               -9.77267716               -1.23885262               34.18422384                1.46250762
              29.16237579                3.11400882               57.04536792                0.67680610                3.24662993                3.81310268              -12.43780699               -0.00932345                2.21256881               -6.64840788
              19.83333904               14.83593218               58.01105449                0.84514931                0.47858958               -0.18079614                0.17878623                0.48918933                2.02441720                3.79666465
              20.83812494               13.84936776               57.17582400                0.57765789                2.23346067                0.95556185               -3.29380625               -1.81259563               16.66648808               -3.61235440
              21.87800825               12.81350148               56.63308611                0.47073976                7.13740172               -0.94172137               -0.74281136               -5.54978198               73.36778137               -4.94059210
              22.98087297               11.69447825               56.92456355                0.44427058                8.32549847               -1.62536809               -2.58164637               -4.08049233              111.18208643               -2.14487776
              24.04451822               10.59059007               57.16620833                0.43698633                5.23447405                0.02623484               -4.42011160               -2.00296377              106.82204244               -1.37908373
              25.08556245                9.49066874               57.38838989                0.44268279                3.41087860                1.39230058               -6.43492493               -1.43445267              105.18414902               -0.84154921
              26.11273579                8.39889185               57.60911823                0.46125571                2.30114104                2.75326404               -8.74211543               -1.11379838              105.64187552               -0.25999206
              27.13158527                7.31679610               57.84719164                0.49369136                1.68190644                4.06546584              -11.52220533               -1.17981728              108.91028395                0.70526591
              28.14637392                6.24202878               58.13326872                0.54807556                1.05668266                5.10141559              -15.19682209               -2.38461482               92.97615337                3.25197862
              29.15271893                5.16678658               58.04150306                0.62175079                1.76497796                2.87570773               -8.90741801               -2.28682892               39.37541192                2.35593536
              30.18167348                4.15067333               57.24237330                0.83929830                2.89545577                3.66645126              -11.64007822                0.31844472                4.61320069               -4.45666395
               9.84917444                5.10609183               60.48593173                0.95919306               -1.13005796               -1.26341272                4.29392762               -0.30325652               -3.11810266                3.57985423
              10.83787386                3.97883928               60.08396476                0.73158691               -1.06708352               -0.76142815                2.94989874               -0.28232092               -4.37802779               -2.41247307
              11.82783277                2.84731094               59.65753688                0.55246102               -1.04978608               -0.40407226                1.48354807               -0.45917895               -4.39161194               -0.81158003
              12.81687814                1.70218004               59.25582037                0.47977038               -0.99451253               -0.03204585                0.09811721               -0.45892334               -2.22391556               -0.45221529
              13.80794252                0.53788774               58.87242228                0.45039603               -0.61563288                0.36195185               -1.34282792               -0.37183785               -0.50495240               -0.29010157
              14.80456548               -0.64501986               58.50393742                0.45334609                0.09511633                0.76089474               -2.82546876               -0.24331435                0.51226701               -0.05978604
              15.80984484               -1.83946534               58.13929244                0.48838110                0.96416139                1.15316204               -4.30180017               -0.18609360                0.26801201                0.17043501
              16.82384871               -3.03557369               57.76447181                0.56170468                1.72478916                1.52828383               -5.72431400               -0.20439882               -1.01949256                0.36521667
              17.84434063               -4.22610413               57.37281150                0.69216497                2.26771505                1.89496395               -7.11032693               -0.22191183               -2.78732522                0.43483970
              18.86920301               -5.40815246               56.96118289                0.91949539                2.65166661                2.25662031               -8.51163734               -0.22147072               -3.39900471                1.06213485
              19.89737396               -6.58247203               56.55535772                1.00000000                2.81709512                2.69437120               -9.88945598               -0.54180726               -2.98668858               -2.44668965
              10.97339442                6.09345771               60.32095038                0.83678275               -0.89533279               -1.24665907                3.77202538               -0.13370247                1.67882732                4.76843879
              11.96444110                4.97122500               59.91307028                0.34245328               -0.59119104               -0.62030979                2.42340614               -0.23715917                4.22986720               -4.28310939
              12.96157060                3.84327022               59.55680566                0.04226739                0.12797045                0.12374236                1.37991611               -1.08561059                7.41237927               -7.91975865
              13.96700050                2.70185958               59.21271223                0.01096796                0.81267435               -0.55139540                0.23137960               -2.08589189                8.78830995               -7.43593513
              14.97782409                1.54150726               58.88429496                0.01349675                1.19041852               -0.64320284               -0.91504368               -2.86703544               10.27881101               -6.85194527
              15.99080888                0.36258908               58.57051144                0.01806082                1.27183655               -0.36751479               -2.10280757               -3.22890239               11.14937019               -6.61533674
              17.00326082               -0.82793372               58.25981267                0.02419012                1.21576196                0.13032495               -3.28179337               -2.96174424               10.78170835               -6.20194256
              18.01512411               -2.02029085               57.93830420                0.04601710                1.25750374                0.70746779               -4.41200919               -2.09593852                9.38986461               -4.66557975
              19.02841090               -3.20715449               57.59870872                0.21400730                1.50240701                1.33221939               -5.51950569               -0.98426051                7.83344969                2.34422129
              20.04517225               -4.38558626               57.24466733                0.49455095                1.89322809                1.89590858               -6.64055197               -0.35647748                5.39224778                3.39976840
              21.06627546               -5.55552832               56.85477057                0.86637299                2.11032028                2.66876599               -7.86899738               -0.57944311                3.67711348               -4.35599273
              12.09096580                7.08115865               60.18060860                0.75104496               -0.76476354               -1.16171605                3.40827468               -0.11161990                0.28535494                5.69874978
              13.08331816                5.96643309               59.70522863                0.20993005               -0.77399081               -0.36951454                1.66097622               -0.06007449                4.47649970               -5.77592293
              14.07548598                4.84978579               59.31418116                0.00689319               -0.31974514                0.85753715                0.59256606               -2.33386624               13.96472546              -17.12387927
              15.07692326                3.69115213               59.02986387                0.00010000                0.71931610               -0.57438458               -0.58538669               -5.02493621               20.11330764              -14.61436133
              16.08987230                2.52502369               58.76459818                0.00010000                1.62525740               -1.15170518               -1.89812702               -5.90996222               21.26160273              -13.55835951
              17.10942841                1.34762984               58.50535272                0.00010000                2.18087948               -1.10326394               -3.26568153               -6.40083608               21.79801206              -13.09932443
              18.13348989                0.16314116               58.25194187                0.00010000                2.58611501               -0.63662006               -4.62106729               -5.92088577               22.67336526              -12.44461914
              19.16115071               -1.02142433               58.01026647                0.00010000                2.82304658                0.06035375               -5.83008157               -4.44203420               27.92397339              -10.38452829
              20.18995083               -2.19945974               57.86122386                0.04351447                2.46482923                0.97457724               -6.29231848               -2.54336054               25.69952456               -7.31243749
              21.21044729               -3.37023429               57.57301868                0.17800157                1.78591974                2.40384027               -4.78357500               -0.93217944               10.30713574               -4.50580886
              22.22566922               -4.52909671               57.11384069                0.64619558                1.52219272                4.14439905               -6.37397896               -0.62074327                1.78400211              -15.63967826
              13.20061315                8.07022339               60.03517853                0.73053295               -0.60006854               -1.02118423                2.99446797               -0.09144260                0.08477294                5.42423181
              14.19461247                6.96383471               59.50462174                0.18347266               -0.52194580               -0.17505002                1.00351530                0.21794738                2.76777153               -5.27115669
              15.19017424                5.86042096               59.02811702                0.00102802               -0.16742916                0.92423218                0.03663237               -2.67318373               19.96640137              -16.94175061
              16.19126389                4.69037189               58.84313501                0.00010000                0.64864479                0.27448926               -1.29145522               -5.99436385               33.48123419              -14.49897417
              17.20314713                3.51847316               58.64215963                0.00010000                1.67053948               -0.19065871               -2.78253276               -6.44500255               32.54386884              -13.38316609
              18.22467468                2.34052380               58.44225108                0.00010000                2.53750722               -0.25301245               -4.36657298               -6.80181901               32.75442889              -12.67022295
              19.25389728                1.15933388               58.24768353                0.00010000                3.21048279                0.04522911               -5.96162156               -6.49474813               33.78884237              -12.03797343
              20.28888433               -0.01908378               58.06899438                0.00010000                3.62281814                0.66592993               -7.41642615               -5.36306280               34.69776444              -11.68510818
              21.32635364               -1.18766294               57.89121610                0.04462799                3.36406542                1.72772451               -8.54727227               -3.31149321               34.04178677              -15.69198238
              22.35616564               -2.33750945               57.69651913                0.17562911                2.26158970                3.86994509               -8.28702805               -0.91220308               17.46754279              -14.34654811
              23.37158544               -3.47264034               57.18498450                0.64390045                1.54197956                5.92377902               -9.72738792                0.38517024                1.74784549              -24.42709451
              14.30191429                9.06073497               59.89018387                0.71963994               -0.44347613               -0.88262732                2.60003389               -0.08890408                0.09409208                5.46160575
              15.29747953                7.96293209               59.30692802                0.17111512               -0.32145807               -0.00236339                0.35347267                0.22396277                3.33743920               -5.05593337
              16.29548513                6.86827043               58.78882776                0.00010000                0.07521282                0.81849734               -0.35127295               -3.26733797               26.02821319              -13.92517447
              17.29898379                5.69664191               58.66149534                0.00010000                0.76676010                0.83652569               -1.85432156               -7.06415153               44.72400762              -13.45747174
              18.31082034                4.52121051               58.52458700                0.00010000                1.67737556                0.64429269               -3.54812987               -7.36476050               43.77856800              -12.53734650
              19.33253130                3.34256959               58.38372950                0.00010000                2.61910879                0.63413614               -5.37185428               -7.50076176               43.52494247              -11.81381129
              20.36320251                2.16404575               58.24510166                0.00010000                3.41774879                0.92390914               -7.25907557               -7.09169856               43.76273885              -11.29230649
              21.40088628                0.99189427               58.11032116                0.00010000                3.94720635                1.57308946               -9.13159406               -5.82193431               44.14352043              -11.34751659
              22.44214664               -0.16490525               57.97876697                0.04955557                3.81471757                2.73832233              -10.91439458               -3.27263816               42.65503534              -11.17086388
              23.47718063               -1.29283539               57.81285039                0.18368760                3.07438790                4.62016654              -10.80554074               -0.79843865               21.49621055              -12.70019948
              24.50363440               -2.41062113               57.25351313                0.64919315                2.64537677                6.11958762              -12.46276442                0.60538036                2.26678945              -22.57960620
              15.39444083               10.05257084               59.74622647                0.71037495               -0.28845736               -0.75279351                2.21225951               -0.08797609                0.09710099                5.50631712
              16.39155626                8.96378744               59.11059082                0.16165648               -0.16615896                0.17434456               -0.28788115                0.15572998                4.51105156               -4.93697536
              17.39111765                7.87679091               58.56341924                0.00010000                0.27422593                0.92302202               -0.62128915               -3.74168781               32.69782245              -12.80923831
              18.39704078                6.70710240               58.49420702                0.00010000                0.94032967                1.21026070               -2.27373420               -7.91694591               55.71135194              -12.05725628
              19.40992425                5.53135901               58.41657600                0.00010000                1.73917139                1.27343917               -4.16776098               -8.18750266               54.70575557              -11.25548742
              20.43182421                4.35320653               58.33404889                0.00010000                2.64071928                1.39391398               -6.23254484               -8.10568361               54.18411511              -10.45969835
              21.46273863                3.17781207               58.25044932                0.00010000                3.47862162                1.74700803               -8.42111896               -7.44019176               54.09063371               -9.74744790
              22.50139664                2.01237801               58.16835100                0.00010000                4.14459493                2.41085713              -10.68810755               -5.85860247               54.23379733               -9.00079703
              23.54563053                0.86710351               58.08797382                0.05479867                4.22580561                3.43925199              -12.96700936               -2.91479711               51.57512551               -8.04658355
              24.58591275               -0.24510612               57.95160090                0.19165140                3.68169986                4.78142358              -12.34009361               -0.46470414               25.52577435               -9.63993243
              25.61926453               -1.35024859               57.34331215                0.65397052                3.33517783                5.90136180              -14.18415617                0.45938966                2.55636208              -19.53212987
              16.47772156               11.04567910               59.60274685                0.70240107               -0.13475015               -0.62725482                1.82742691               -0.08744110                0.10074817                5.50074434
              17.47637406                9.96641898               58.91513107                0.15460782               -0.01925715                0.35332433               -0.92443397                0.04472089                6.05702456               -4.86101803
              18.47733642                8.88673087               58.34672398                0.00010000                0.48513542                1.04531778               -0.73768357               -4.13424374               39.88788210              -11.93299944
              19.48607677                7.72084713               58.33901157                0.00010000                1.18148668                1.46007013               -2.53430377               -8.47888758               66.86411861              -10.72915544
              20.50096616                6.54667929               58.32134241                0.00010000                1.89439008                1.65374555               -4.61320574               -8.67874354               65.64935283               -9.68894658
              21.52396457                5.37044787               58.29739476                0.00010000                2.71305172                1.91180849               -6.89549935               -8.34607199               64.95240309               -8.69603069
              22.55522719                4.19898591               58.27122111                0.00010000                3.52291077                2.36371259               -9.34905701               -7.42593053               64.73831344               -7.62161098
              23.59442279                3.04011141               58.24607119                0.00010000                4.30538208                3.00701992              -11.94581608               -5.65649178               64.86955900               -6.29946089
              24.64133483                1.90387979               58.22332235                0.06053785                4.54079240                3.78223169              -14.61104768               -2.58391252               60.61676404               -4.56326461
              25.68523864                0.80279308               58.11186473                0.19970795                4.08861428                4.69609663              -13.11197655               -0.27251572               29.31253634               -6.68238052
              26.72310712               -0.29259389               57.45461882                0.65850033                3.78684803                5.60478511              -15.15128667                0.35401165                2.76528803              -16.52582814
              17.55121225               12.04002574               59.45921727                0.69535647                0.01866532               -0.50438083                1.44254199               -0.08784091                0.10414265                5.44048194
              18.55139890               10.97085393               58.72004010                0.14951590                0.13961914                0.53532505               -1.55969787               -0.13329736                8.01518822               -4.82252089
              19.55400463                9.89769727               58.13906467                0.00065495                0.80578524                1.07177600               -0.67467271               -4.52744677               47.66409326              -10.93614325
              20.56751461                8.73630380               58.19664283                0.00010000                1.63720013                1.46055895               -2.61778078               -8.74603609               78.27062611               -9.21717759
              21.58674863                7.56443392               58.24088587                0.00010000                2.25407739                1.69003212               -4.85959720               -8.64814296               76.71892867               -7.87676659
              22.61259615                6.39144270               58.27667870                0.00010000                2.89039254                2.12275650               -7.31516626               -7.96225678               75.84773541               -6.68664172
              23.64455648                5.22508632               58.30982362                0.00010000                3.53883812                2.75856937               -9.97770850               -6.89063584               75.65861583               -5.34863820
              24.68337292                4.07251841               58.34549305                0.00010000                4.33570604                3.42278590              -12.84540222               -5.24322817               75.98538292               -3.53754169
              25.73127061                2.94274814               58.38607612                0.06656089                4.67816034                3.95335095              -15.86887915               -2.39817555               69.61496230               -1.03886502
              26.77693612                1.84881581               58.29271536                0.20778087                4.29240567                4.45212233              -13.27708239               -0.23762908               32.73425603               -3.83798302
              27.81711872                0.76184712               57.58659799                0.66252778                4.01825957                5.27471955              -15.52045530                0.24878544                2.89865315              -13.58477294
              18.61430837               13.03559148               59.31500108                0.68967497                0.17282217               -0.38290554                1.05459859               -0.08937066                0.12986998                5.39033735
              19.61603659               11.97712548               58.52494113                0.14676611                0.35146213                0.72161596               -2.19693431               -0.45991284               10.52595105               -4.88489603
              20.62133761               10.90816639               57.94267849                0.00168168                1.41914004                0.80594472               -0.40798739               -5.06615798               56.22419574               -9.49961136
              21.64441939                9.75005831               58.07028773                0.00010000                2.57633936                0.91235504               -2.52496120               -8.46992984               89.96866874               -7.19406386
              22.67286440                8.58047994               58.17801353                0.00010000                2.98238233                1.26579271               -4.89782308               -7.64654230               87.82144054               -5.72384028
              23.70406704                7.41290300               58.27334302                0.00010000                3.17371780                2.04850918               -7.45703856               -6.57027621               86.67224018               -4.55309573
              24.73633876                6.25415729               58.36586711                0.00010000                3.39146816                2.98969500              -10.25246497               -5.54472375               86.64388957               -3.24149186
              25.77189640                5.10856713               58.46482747                0.00010000                4.03675819                3.86199657              -13.34691488               -4.40928874               87.51223527               -1.27520687
              26.81707392                3.98294681               58.57521822                0.07336911                4.47453367                4.21206219              -16.74347065               -2.41786827               78.57419748                2.04648331
              27.86138708                2.89183553               58.49308948                0.21574152                4.24731463                4.12207972              -12.95665571               -0.43483145               35.79735633               -1.02258211
              28.90202021                1.81290050               57.73883086                0.66598403                4.06331365                4.91935232              -15.39790607                0.14408373                3.00629429              -10.73947412
              19.66635684               14.03236763               59.17087276                0.68351933                0.32688950               -0.25849348                0.66576770               -0.09068669               -0.08283934                4.68924383
              20.66962573               12.98528625               58.32804912                0.14504110                0.66959041                0.90720652               -2.84423806               -1.14863954               13.89890130               -4.38844110
              21.67974865               11.91381616               57.76462923                0.00352216                2.80883673               -0.36816114                0.05695636               -4.87053636               66.07251013               -6.48401880
              22.72580247               10.75455090               57.96761239                0.00010000                4.56122243               -0.47376412               -2.31833231               -6.26063635              101.86616526               -4.19439328
              23.77097309                9.58974978               58.13681173                0.00010000                4.08554030                0.61186949               -4.73787628               -4.86316587               98.54688073               -3.08093814
              24.80751327                8.43241288               58.28824481                0.00010000                3.35123950                1.84943048               -7.29220118               -3.81263930               96.99173942               -2.33324250
              25.83799788                7.28488022               58.43642970                0.00010000                2.94421753                3.12147768              -10.11008242               -3.13322669               97.13257030               -1.49781584
              26.86639762                6.14975834               58.59587684                0.00010000                3.08234758                4.31799777              -13.33952100               -2.74150694               99.10001004               -0.12429185
              27.89964484                5.02698938               58.78309216                0.08098851                3.59440930                5.01141736              -17.19439214               -2.03992911               87.93252629                2.86891782
              28.93828581                3.93125741               58.71387209                0.22408019                3.91128131                3.76086367              -12.22312595               -0.99400833               38.80612485                1.17389894
              29.97787046                2.86023416               57.91004305                0.66896858                3.95846523                4.55483610              -14.85948779               -0.00963016                2.86688393               -7.21991637
              20.70665740               15.03042161               59.01298855                0.84040948                0.49578718               -0.19460209                0.20911828                0.51485649                2.12476725                3.98693112
              21.71161528               13.99526961               58.14216505                0.57337183                2.40024152                0.99833608               -3.43891356               -2.28196775               20.11923352               -3.79464426
              22.75466223               12.90080317               57.63088386                0.47015837                6.58288884               -1.30129890                0.36944162               -5.24297050               77.51267894               -4.62643741
              23.84327305               11.74058302               57.90102392                0.44402823                7.15384368               -1.39678791               -2.10845607               -3.65723375              112.63641144               -2.15182311
              24.89773911               10.59271733               58.12213940                0.43704333                4.47053801                0.29675508               -4.39048943               -1.85796939              108.18891544               -1.47659238
              25.93268381                9.44989161               58.32225130                0.44248486                2.92948268                1.74787298               -6.79421056               -1.28947005              106.28874520               -1.01280269
              26.95632876                8.31658685               58.51800508                0.46029137                2.11366440                3.17066290               -9.48041099               -0.91513877              106.31502563               -0.51881954
              27.97495710                7.19492708               58.72628397                0.49140345                1.92237581                4.51687381              -12.64777128               -0.81463676              108.81249550                0.31022086
              28.99477628                6.08317516               58.97325404                0.54325666                1.66525152                5.61857757              -16.71574256               -1.88056976               97.27397744                2.50586451
              30.00826213                4.96705280               58.94219097                0.61477072                2.45489090                3.57953985              -11.19715231               -1.96126493               44.38324251                2.32870726
              31.04387410                3.90399722               58.11569125                0.83527882                3.56119644                4.37630550              -13.90231111                0.29480474                5.34842374               -4.71927501
              10.22600752                5.31019015               61.52961060                0.95328719               -1.16691750               -1.30703049                4.44107956               -0.31603170               -3.25615435                3.72454982
              11.21433834                4.12760809               61.11393338                0.72315433               -1.09934389               -0.78437793                3.04386701               -0.29590488               -4.57968669               -2.54255060
              12.20402064                2.94059001               60.67253657                0.54862581               -1.05720262               -0.41778082                1.51817565               -0.45545458               -4.61805999               -0.78325196
              13.19319429                1.74004132               60.25668740                0.47833470               -0.96070394               -0.02860324                0.07577480               -0.44716409               -2.44136905               -0.46269023
              14.18480656                0.52095506               59.85859633                0.45029275               -0.54932565                0.37892240               -1.42192374               -0.36228583               -0.77736417               -0.29357181
              15.18220778               -0.71582836               59.47499992                0.45360558                0.17090741                0.79170742               -2.96067453               -0.24162127                0.21666810               -0.06383534
              16.18822471               -1.96340238               59.09528687                0.48804775                1.03375050                1.20020617               -4.49553849               -0.18606868                0.00263972                0.16736382
              17.20288279               -3.21231992               58.70593778                0.55998853                1.79452573                1.59147011               -5.97770114               -0.20084921               -1.23484021                0.36678487
              18.22411522               -4.45561230               58.30012367                0.68815895                2.35318678                1.97371374               -7.42345150               -0.21896802               -2.98899055                0.43726272
              19.24994652               -5.69034418               57.87418236                0.91178311                2.76116319                2.35129803               -8.88653783               -0.22339651               -3.59585388                1.07213245
              20.27933849               -6.91705180               57.45430099                1.00000000                2.93919650                2.80330095              -10.32128720               -0.57190755               -3.17196474               -2.56813044
              11.40542926                6.29711984               61.35931133                0.82507756               -0.92498926               -1.29265025                3.90030863               -0.14213968                1.80714977                4.99426656
              12.39617937                5.11976431               60.93767968                0.32774750               -0.60898882               -0.63484374                2.49952283               -0.25374191                4.51428011               -4.53348274
              13.39324948                3.93641220               60.57078197                0.03664249                0.11803792                0.15573217                1.41576251               -1.13409756                7.80292158               -8.23498178
              14.39854012                2.73975528               60.21500136                0.01161620                0.79345308               -0.55226581                0.22572204               -2.17461163                9.13060757               -7.92467361
              15.40911854                1.52474428               59.87490801                0.01419491                1.17150791               -0.63318210               -0.96353977               -2.96426949               10.60583005               -7.58145932
              16.42197028                0.29208871               59.54905109                0.01899532                1.27456272               -0.35503029               -2.19112667               -3.31245259               11.46165728               -7.60517415
              17.43460980               -0.95140032               59.22634705                0.02567133                1.25044870                0.14924494               -3.41261854               -3.03271362               11.11998865               -7.45258822
              18.44697926               -2.19640521               58.89333972                0.04265337                1.31639384                0.75229811               -4.58239512               -2.16594681                9.76138263               -6.12854101
              19.46093767               -3.43587516               58.54248630                0.20592078                1.57265262                1.44564381               -5.72826231               -1.02000789                8.20711573                0.96371598
              20.47843231               -4.66683120               58.17705397                0.47799529                1.96946822                1.99092805               -6.88787356               -0.35962729                5.70360603                3.38475470
              21.50032704               -5.88901879               57.77465362                0.85468202                2.18947303                2.79195376               -8.16184131               -0.61437907                3.93599311               -4.75938653
              12.57787579                7.28433714               61.21528164                0.74000910               -0.79046365               -1.20723665                3.52872722               -0.11457215                0.27438931                5.97925713
              13.56997115                6.11491122               60.72206930                0.19726677               -0.82640352               -0.37381328                1.70801274               -0.05113537                4.81891795               -6.09140049
              14.56134772                4.94370465               60.32027095                0.00598629               -0.43005882                0.89087281                0.63456819               -2.43571861               14.59393091              -17.62157184
              15.56136998                3.72899600               60.02400754                0.00010000                0.59200143               -0.55037673               -0.57744015               -5.26233316               20.57761405              -15.53367779
              16.57318775                2.50829141               59.74511923                0.00010000                1.53666741               -1.11766026               -1.99292499               -6.12563544               21.59465077              -14.97680050
              17.59210332                1.27707103               59.47164161                0.00010000                2.14383074               -1.05810815               -3.47628179               -6.59212820               22.08820328              -15.05456670
              18.61606436                0.03958252               59.20406018                0.00010000                2.59676873               -0.57012864               -4.96217633               -6.06352039               23.01998367              -14.95351873
              19.64403870               -1.19727395               58.94957181                0.00010000                2.90383439                0.19042267               -6.33344149               -4.49667015               28.64086163              -13.41145091
              20.67414105               -2.42669943               58.79380983                0.03599554                2.59294546                1.22540400               -7.27338748               -2.58781870               28.04793815              -10.62235970
              21.69589761               -3.65052562               58.52428621                0.16514049                1.86425266                2.84149436               -5.00118881               -0.95605333               12.21708557               -7.51457587
              22.71142610               -4.86121273               58.04899934                0.63745615                1.55284948                4.59950046               -6.62561154               -0.54222588                1.97095271              -18.99659997
              13.74198967                8.27297511               61.06566505                0.71966262               -0.62005163               -1.06120220                3.10417221               -0.09441683                0.08853939                5.68774506
              14.73578915                7.11228805               60.51477143                0.17129652               -0.57696715               -0.17519189                1.02699018                0.20316496                3.35072632               -5.52844734
              15.73045033                5.95422965               60.02952215                0.00059020               -0.35412288                0.90565277                0.28138224               -2.76941519               20.82518148              -17.24216356
              16.72870670                4.72874775               59.83038514                0.00010000                0.40402395                0.33225271               -1.24006078               -6.20465287               33.95836237              -15.29213474
              17.73853081                3.50239108               59.61366983                0.00010000                1.50649587               -0.09705223               -2.90673701               -6.64554191               32.86512590              -14.69573649
              18.75883661                2.27092655               59.39701959                0.00010000                2.45767836               -0.11158541               -4.67876347               -6.96559547               32.99055134              -14.54470872
              19.78768437                1.03719711               59.18552291                0.00010000                3.22455927                0.25182245               -6.48149792               -6.58648026               34.05261253              -14.51927962
              20.82332780               -0.19259676               58.99115410                0.00010000                3.73742954                0.97295203               -8.18824451               -5.34298174               35.20445477              -14.83364577
              21.86243296               -1.41136708               58.80158337                0.03719078                3.52483734                2.18503066               -9.46165196               -3.18419582               35.37494278              -19.74933760
              22.89382455               -2.61000131               58.60712778                0.16437459                2.42118916                4.71644750               -9.73616514               -0.79288085               18.79101309              -19.71072207
              23.91085675               -3.79702879               58.08172226                0.63696003                1.70322014                6.78846720              -11.03927898                0.58473968                2.45754189              -30.01038351
              14.89736158                9.26311310               60.91666921                0.70902996               -0.45816719               -0.91703001                2.69820392               -0.09179741                0.09821724                5.73649303
              15.89277991                8.11140738               60.31045618                0.15918001               -0.39309345                0.00249085                0.35270773                0.17513852                4.21645518               -5.30425510
              16.88949971                6.96181770               59.78690363                0.00010000               -0.18322061                0.79271579                0.02467514               -3.38310980               27.19792432              -14.12490109
              17.88911550                5.73564105               59.64339862                0.00010000                0.42991999                0.90327734               -1.73996196               -7.23255241               45.21292425              -14.12069500
              18.89809811                4.50635037               59.48835777                0.00010000                1.44349416                0.78673644               -3.68652434               -7.52545582               44.07311926              -13.71967974
              19.91798538                3.27483932               59.32804063                0.00010000                2.48799760                0.85947528               -5.76502291               -7.61108916               43.68769390              -13.56107874
              20.94785806                2.04461897               59.16924908                0.00010000                3.38789390                1.25274327               -7.92502238               -7.11883139               43.86424561              -13.66592757
              21.98574326                0.82218509               59.01445852                0.00010000                4.00018089                2.03426182              -10.08342485               -5.73031653               44.27792783              -14.45570491
              23.02786168               -0.38299881               58.86388140                0.04169559                3.99792167                3.39582222              -12.17009074               -2.97882486               43.65880898              -15.21129588
              24.06570169               -1.55619667               58.69486240                0.17198172                3.46570830                5.52678032              -12.97191661               -0.53878320               22.74609950              -16.87833812
              25.09717585               -2.72544338               58.11940009                0.64193170                3.14741560                7.07163229              -14.52151438                0.82498944                2.99902417              -27.15377953
              16.04356516               10.25463451               60.76878343                0.70010764               -0.29778441               -0.78202228                2.29946849               -0.09165299                0.10084346                5.78452395
              17.04058732                9.11233786               60.10758392                0.15027709               -0.25053540                0.18496271               -0.31308325                0.07007234                5.74369967               -5.17720087
              18.03855446                7.97008397               59.55943260                0.00010000               -0.05321685                0.89971365               -0.11795891               -3.86284492               34.25081546              -12.89135491
              19.03952298                6.74681330               59.47220182                0.00010000                0.51344836                1.28446605               -2.09782742               -8.02676574               56.23598739              -12.58305881
              20.04882342                5.51812580               59.37414227                0.00010000                1.44116243                1.44826694               -4.30831470               -8.27781623               54.99179134              -12.27962679
              21.06834623                4.28811605               59.26945606                0.00010000                2.45692781                1.68571252               -6.68573424               -8.12347827               54.28811858              -12.02369063
              22.09796198                3.06225198               59.16241434                0.00010000                3.39965089                2.17794671               -9.20066810               -7.34592053               54.05096630              -11.90975517
              23.13633925                1.84808848               59.05605494                0.00010000                4.16381205                3.00880599              -11.81822356               -5.59038424               54.12079042              -11.84846624
              24.18123822                0.65654936               58.95142621                0.04659910                4.45771024                4.23524113              -14.46311166               -2.41063522               52.73934980              -11.65759824
              25.22549345               -0.49946570               58.81609486                0.17963097                4.23058766                5.68033298              -14.97769996               -0.10114598               27.10592141              -12.79107918
              26.26584997               -1.65559614               58.18987571                0.64662277                4.03565192                6.84584484              -16.69594254                0.62507172                3.34465004              -23.06277516
              17.18012182               11.24747265               60.62140346                0.69228755               -0.13899181               -0.65253660                1.90427586               -0.09177844                0.10495971                5.77990406
              18.17873190               10.11510663               59.90564031                0.14363641               -0.11772173                0.37046591               -0.97360642               -0.07955678                7.71907447               -5.09796426
              19.17776738                8.97981198               59.34224731                0.00025523                0.09032248                1.02437352               -0.08611042               -4.26586825               41.90232171              -11.85449151
              20.18053835                7.76133038               59.31475403                0.00010000                0.67358250                1.53103224               -2.29262204               -8.51849397               67.44361996              -11.09437764
              21.19123903                6.53531571               59.27451451                0.00010000                1.54256481                1.84369616               -4.74424464               -8.67278936               65.96201415              -10.52501835
              22.21138964                5.30855357               59.22599288                0.00010000                2.48640991                2.24561888               -7.38587058               -8.23834119               65.04699708              -10.02239915
              23.24096723                4.08817790               59.17349632                0.00010000                3.41242724                2.86239133              -10.21096132               -7.17217065               64.63193427               -9.48142035
              24.27963819                2.88236121               59.12057734                0.00010000                4.31179630                3.68711025              -13.19963533               -5.19295265               64.62961838               -8.75766930
              25.32720315                1.70170601               59.06963834                0.05187229                4.80930414                4.63793834              -16.24896087               -1.92875204               62.22126751               -7.68652345
              26.37582427                0.55740999               58.96731778                0.18739385                4.73674995                5.59400632              -16.05040790                0.12566044               31.42946059               -8.99519743
              27.42193815               -0.58852649               58.29020887                0.65122657                4.61138835                6.55582512              -17.95678004                0.47948980                3.60668282              -19.24025602
              18.30646164               12.24158378               60.47397840                0.68549483                0.01952239               -0.52637796                1.50981156               -0.09236514                0.10819252                5.71792868
              19.30665686               11.11974718               59.70407181                0.13925710                0.02758558                0.55951394               -1.63359923               -0.30036484               10.20460916               -5.05998360
              20.30701335                9.99057144               59.13607891                0.00110053                0.34962558                1.03791504                0.14326919               -4.66660261               50.22851194              -10.66701885
              21.31364937                8.77743394               59.17194966                0.00010000                1.05655455                1.50971734               -2.30379234               -8.70331287               78.91812208               -9.40932567
              22.32814444                7.55499973               59.19173646                0.00010000                1.85339201                1.88162748               -4.96728359               -8.52864495               77.10724113               -8.50320744
              23.35071721                6.33302843               59.20103301                0.00010000                2.62832453                2.47567844               -7.81619877               -7.73143493               76.00046328               -7.73016084
              24.38071093                5.11949980               59.20560249                0.00010000                3.41174379                3.27965125              -10.87961132               -6.49391738               75.56255753               -6.83754831
              25.41895209                3.92183068               59.21065921                0.00010000                4.34517313                4.12739074              -14.16259727               -4.61847431               75.68397802               -5.54469683
              26.46761439                2.74930813               59.21947071                0.05765671                4.96435361                4.82589173              -17.55502369               -1.65117943               71.81639892               -3.67241088
              27.51823916                1.61241442               59.14591730                0.19511283                4.98491695                5.34403975              -16.37939567                0.16063102               35.51844770               -5.43620575
              28.56731273                0.47552036               58.41786840                0.65528995                4.90735710                6.23516057              -18.49616188                0.33677152                3.77882499              -15.58827436
              19.42194771               13.23694510               60.32583154                0.68013059                0.17892333               -0.40231112                1.11127698               -0.09423992                0.13420109                5.66466371
              20.42373694               12.12629691               59.50247532                0.13714791                0.24004316                0.75361114               -2.29500208               -0.68872890               13.34285688               -5.12773453
              21.42674857               11.00057028               58.94317338                0.00243060                0.91534311                0.72307581                0.57217664               -5.19186427               59.43432882               -9.03025473
              22.44204380                9.79152472               59.04697344                0.00010000                1.91615367                0.93369724               -2.13652784               -8.29542028               90.70470852               -7.24462622
              23.46507164                8.57294826               59.12869425                0.00010000                2.51085341                1.47916753               -4.96763226               -7.43268627               88.34958037               -6.13630532
              24.49226087                7.35806714               59.19637962                0.00010000                2.86074936                2.40720835               -7.93826064               -6.28099294               86.96890729               -5.27752057
              25.52228663                6.15377093               59.25891828                0.00010000                3.25997532                3.48825598              -11.14608654               -5.09561067               86.62704149               -4.29781126
              26.55746038                4.96490902               59.32491809                0.00010000                4.06545966                4.51842129              -14.66042623               -3.71047592               87.17070379               -2.75226746
              27.60359582                3.79822385               59.39985020                0.06396504                4.76821391                5.05245165              -18.40620580               -1.61810190               81.42552497               -0.07142828
              28.65282465                2.66429079               59.34949737                0.20285412                4.94329407                4.99957797              -16.07627233               -0.06025955               39.30002306               -1.99001330
              29.70246171                1.53617672               58.57125555                0.65877440                4.96370504                5.86148680              -18.40402864                0.19153399                3.90218466              -12.09205266
              20.52587321               14.23353756               60.17775866                0.67390722                0.33838949               -0.27529348                0.71222749               -0.09513123               -0.08806820                4.92761286
              21.52925710               13.13481941               59.29898866                0.13617222                0.60375240                0.94730558               -2.96793485               -1.48136237               17.44456487               -4.60906094
              22.53794825               12.00503296               58.77064388                0.00458990                2.30529438               -0.60534058                1.16369215               -4.80285623               70.02746041               -5.99551726
              23.57536299               10.79610789               58.94672544                0.00010000                3.75000217               -0.34529887               -1.86423638               -6.00740121              102.70198557               -4.18915254
              24.61294830                9.58458308               59.08935085                0.00010000                3.44558482                0.87273064               -4.75994424               -4.64688941               99.32498314               -3.28666854
              25.64427468                8.38117260               59.21317135                0.00010000                2.95042693                2.21662834               -7.72370257               -3.60536741               97.54825337               -2.70760266
              26.67195684                7.18926492               59.33116767                0.00010000                2.80074847                3.57968853              -10.94415667               -2.81282406               97.29435337               -2.05423629
              27.70028965                6.01219911               59.45630962                0.00010000                3.19568766                4.86386214              -14.57900434               -2.18909596               98.69697233               -0.93792908
              28.73587059                4.85035716               59.60341788                0.07110828                3.93957189                5.67992296              -18.76812604               -1.37212393               91.37359532                1.53973547
              29.77908109                3.71240598               59.57805491                0.21076240                4.57504767                4.62160836              -15.23176410               -0.62425741               43.00453488                0.75520676
              30.82737154                2.59275010               58.74817816                0.66143034                4.82904505                5.44073546              -17.76925461               -0.00660344                3.73585818               -7.93493283
              21.61748139               15.23143923               60.01523686                0.83570423                0.51329075               -0.20983311                0.24121655                0.54119789                2.23238470                4.19026942
              22.62261429               14.14524302               59.10704573                0.56922534                2.59607891                1.04236190               -3.58628658               -2.81306860               24.33079646               -3.98823259
              23.66940296               12.98846347               58.64047495                0.46949810                5.98656812               -1.65694890                1.51809792               -4.88574282               82.17458094               -4.18121191
              24.74234566               11.78461875               58.88239443                0.44391986                5.88330900               -1.14891406               -1.62205219               -3.20476298              113.75800384               -2.13534218
              25.78706914               10.59040287               59.07839854                0.43707871                3.65630113                0.58197930               -4.36720637               -1.69886713              109.38638128               -1.56848046
              26.81547168                9.40239971               59.25250568                0.44224210                2.39672476                2.12271106               -7.15255076               -1.13220915              107.25314635               -1.19200936
              27.83500364                8.22536470               59.41951001                0.45934440                1.85572702                3.60997775              -10.21001531               -0.70599168              106.82487927               -0.79304412
              28.85258622                7.06218627               59.59423621                0.48910797                2.04714146                4.99871586              -13.74843827               -0.44746316              108.54242723               -0.10593013
              29.87594647                5.91182230               59.79895387                0.53812254                2.26801741                6.14651446              -18.11693995               -1.26557742              101.01430119                1.69670352
              30.89794657                4.75672296               59.81756002                0.60786730                3.28474676                4.43169731              -13.98333165               -1.45499599               49.00653473                2.23817175
              31.94164140                3.64499143               58.96432707                0.83143768                4.36948369                5.22413338              -16.58379160                0.25383391                6.29882665               -5.04426373
              10.61540580                5.52118138               62.57475332                0.94732209               -1.20516474               -1.35093805                4.58972983               -0.32907889               -3.40006633                3.87715370
              11.60335415                4.28049567               62.14484210                0.71519171               -1.13441275               -0.80762493                3.13842801               -0.31112282               -4.78993290               -2.67724775
              12.59271755                3.03515512               61.68790039                0.54473101               -1.06815778               -0.43189063                1.55399503               -0.45088888               -4.85501327               -0.75568501
              13.58199100                1.77629830               61.25733586                0.47705854               -0.93174173               -0.02523306                0.05524565               -0.43854678               -2.66922444               -0.47178215
              14.57408271                0.49939295               60.84398380                0.45023403               -0.48913502                0.39622263               -1.49827010               -0.35403509               -1.05910451               -0.29644290
              15.57220830               -0.79439891               60.44472393                0.45382162                0.24385336                0.82428165               -3.09246824               -0.24210012               -0.08835475               -0.06753218
              16.57895978               -2.09823841               60.04938167                0.48758639                1.10534029                1.24796247               -4.68481246               -0.19092965               -0.27536532                0.16268332
              17.59431510               -3.40304187               59.64491779                0.55830325                1.86782269                1.65461742               -6.22515337               -0.20254411               -1.46667025                0.36744316
              18.61631623               -4.70208412               59.22434247                0.68421501                2.43967534                2.05177948               -7.72771724               -0.21828466               -3.20998455                0.43959725
              19.64310861               -5.99245302               58.78345214                0.90390175                2.86905864                2.44580145               -9.25282651               -0.22594507               -3.81091765                1.08441970
              20.67369741               -7.27453990               58.34893198                1.00000000                3.05887948                2.91255039              -10.74533088               -0.59882774               -3.37443669               -2.69757098
              11.85280072                6.50767200               62.39895656                0.81358486               -0.95446619               -1.33956556                4.03015989               -0.15163457                1.94424345                5.23413419
              12.84325606                5.27241942               61.96306074                0.31354917               -0.62466874               -0.64911759                2.57662046               -0.27413650                4.81255773               -4.79497093
              13.84030735                4.03083621               61.58512091                0.03105903                0.11152780                0.17295279                1.45022594               -1.18323195                8.21156063               -8.54286176
              14.84548661                2.77604597               61.21722667                0.01232722                0.77918100               -0.56017488                0.21902551               -2.29223863                9.49085253               -8.40851586
              15.85589097                1.50335518               60.86502417                0.01496277                1.15581821               -0.63335490               -1.01397456               -3.10767663               10.95253865               -8.34541193
              16.86860298                0.21384391               60.52668891                0.02001233                1.27404991               -0.35155415               -2.28415084               -3.45353716               11.79454970               -8.67647299
              17.88137196               -1.08575879               60.19156030                0.02725155                1.28047699                0.15666722               -3.54847431               -3.16700045               11.48017597               -8.84169065
              18.89421252               -2.38649570               59.84665630                0.04134548                1.37334990                0.77870688               -4.76056620               -2.29521784               10.15527256               -7.80900228
              19.90883896               -3.68156633               59.48414348                0.19806577                1.64322659                1.55400604               -5.94482115               -1.08101778                8.60252028               -0.89128785
              20.92707705               -4.96799501               59.10690986                0.46187254                2.04785232                2.09267028               -7.14463622               -0.36785920                6.03416102                3.31009545
              21.94979601               -6.24541440               58.69153375                0.84310952                2.27189582                2.92212787               -8.46625474               -0.64370905                4.21124388               -5.22908562
              13.08287826                7.49439007               62.25118314                0.72922271               -0.81710483               -1.25406415                3.65096911               -0.11915176                0.26152803                6.27727504
              14.07470721                6.26751332               61.73938888                0.18470047               -0.87259492               -0.37702714                1.75641187               -0.06310274                5.19914957               -6.42154665
              15.06542636                5.03861417               61.32687252                0.00506647               -0.55399772                0.90543988                0.69294375               -2.58308510               15.28317887              -18.00803769
              16.06362726                3.76509480               61.01831507                0.00010000                0.43524384               -0.54539300               -0.55059582               -5.55457427               21.04923675              -16.43821886
              17.07413124                2.48672585               60.72473968                0.00010000                1.43121296               -1.10176477               -2.07737645               -6.43002800               21.89433569              -16.46361753
              18.09225152                1.19857001               60.43582708                0.00010000                2.09140666               -1.03066478               -3.68273572               -6.89006363               22.33019210              -17.17160011
              19.11595937               -0.09510507               60.15269835                0.00010000                2.59833841               -0.52409124               -5.31050179               -6.32973449               23.28711795              -17.73259747
              20.14421829               -1.38746773               59.88359764                0.00010000                3.01179066                0.29261441               -6.87323375               -4.65992440               29.07768954              -16.85063592
              21.17619519               -2.67100400               59.71575611                0.02877378                2.76906050                1.44225345               -8.39099364               -2.70460110               30.59989979              -14.45441102
              22.19959950               -3.95059962               59.47299490                0.15252964                1.97334090                3.28474579               -5.30097944               -1.01616900               14.59709114              -11.31329868
              23.21566201               -5.21609734               58.98132846                0.62920554                1.60625081                5.10828181               -6.93266670               -0.46220758                2.22189680              -23.05961195
              14.30417118                8.48259072               62.09726198                0.70921709               -0.64012800               -1.10218112                3.21333268               -0.09986220                0.09116306                5.96502042
              15.29776990                7.26487888               61.52516154                0.15920965               -0.65535082               -0.17394112                1.05132198                0.16106461                4.10528303               -5.79647140
              16.29106417                6.04894501               61.03374467                0.00019278               -0.57432258                0.86238941                0.60487704               -2.93329770               21.78889564              -17.38855891
              17.28628345                4.76513811               60.81833380                0.00010000                0.13755176                0.36582642               -1.15307286               -6.47321274               34.32809603              -16.05568324
              18.29381520                3.48131988               60.58402488                0.00010000                1.31745883               -0.01906871               -3.01266314               -6.91990158               33.09502633              -16.07221939
              19.31263263                2.19323061               60.34867581                0.00010000                2.34999077                0.01707666               -4.98364485               -7.22090728               33.12016883              -16.57313686
              20.34081502                0.90375939               60.11805357                0.00010000                3.21401691                0.44704153               -7.01259112               -6.78819316               34.16415190              -17.25341800
              21.37691296               -0.38064341               59.90522949                0.00010000                3.85319034                1.26735305               -9.01798556               -5.44432080               35.56281247              -18.33478323
              22.41787882               -1.65272126               59.70198306                0.02968236                3.74670243                2.60149959              -10.51982146               -3.14664662               36.37864597              -24.10940559
              23.45184701               -2.90230009               59.50179583                0.15339916                2.68342455                5.56151920              -11.48587097               -0.67715384               19.96521527              -26.32978522
              24.47154731               -4.14324876               58.96419892                0.63029858                1.97003001                7.71235850              -12.60802736                0.84900772                3.43936851              -36.77160938
              15.51630469                9.47234645               61.94414795                0.69856689               -0.47304747               -0.95318234                2.79674756               -0.09691731                0.10160180                6.02576772
              16.51157422                8.26403450               61.31398217                0.14757598               -0.49017533                0.00902117                0.35267876                0.07633507                5.36191393               -5.56389632
              17.50650118                7.05586196               60.78932127                0.00010000               -0.48930418                0.73375602                0.50303735               -3.55856362               28.53218760              -14.22895725
              18.50178813                5.77241133               60.62669610                0.00010000                0.05697614                0.94738519               -1.57873742               -7.43750386               45.52819516              -14.75852208
              19.50764071                4.48634448               60.45085651                0.00010000                1.18028675                0.91449285               -3.80397374               -7.74045794               44.22247059              -14.96514029
              20.52539387                3.19891154               60.26842904                0.00010000                2.32144124                1.07749294               -6.14998452               -7.79134168               43.69710762              -15.45518394
              21.55406953                1.91383576               60.08660122                0.00010000                3.32093254                1.58051697               -8.60490292               -7.23440742               43.77916417              -16.27650934
              22.59181252                0.63787933               59.90865267                0.00010000                4.04247030                2.49666387              -11.10290459               -5.74610832               44.16791148              -17.89171842
              23.63491894               -0.61897401               59.73536515                0.03404285                4.23857028                4.04579311              -13.62172702               -2.73748852               44.06435035              -19.74616612
              24.67658392               -1.83936923               59.55341206                0.16032760                3.98102812                6.44585028              -15.49450141               -0.25707479               23.63876391              -21.97377922
              25.71453950               -3.06185017               58.96308284                0.63481386                3.79555762                8.04679479              -16.93045396                1.10433151                3.94468528              -32.65236139
              16.71885673               10.46352707               61.79221584                0.68978073               -0.30756415               -0.81321164                2.38789952               -0.09465794                0.10503471                6.07920429
              17.71578109                9.26505931               61.10432915                0.13911547               -0.36703342                0.19686546               -0.33728203               -0.07847307                7.32611062               -5.42987521
              18.71151606                8.06362013               60.56106006                0.00010000               -0.43651171                0.85663864                0.49768694               -4.06027738               36.01989312              -12.86965196
              19.70705086                6.78408581               60.45225047                0.00010000                0.04948840                1.34002040               -1.87739782               -8.15582739               56.54321487              -13.09648509
              20.71250583                5.49960974               60.33040971                0.00010000                1.11318264                1.61201302               -4.43053661               -8.39892286               55.09467035              -13.36664961
              21.72931451                4.21478047               60.20033420                0.00010000                2.23266250                1.97556992               -7.13196131               -8.18555873               54.20619948              -13.72552576
              22.75715908                2.93536973               60.06643596                0.00010000                3.27430313                2.61667913               -9.99556038               -7.31393628               53.78280944              -14.29423388
              23.79480057                1.66928987               59.93198653                0.00010000                4.16092653                3.62372145              -13.02546426               -5.40572515               53.70941901              -15.01922402
              24.84037761                0.42819460               59.79871158                0.03853010                4.73905556                5.05394170              -16.18357762               -1.92860753               53.15584642              -15.69154103
              25.88958168               -0.77338309               59.65204690                0.16767832                4.91091082                6.62179644              -18.05455441                0.30829606               28.21872906              -16.70068400
              26.93859583               -1.98231287               59.00939330                0.63936842                4.90141456                7.82292358              -19.63414956                0.85297712                4.37165294              -27.33309205
              17.91134706               11.45608221               61.64083237                0.68231623               -0.14353667               -0.67854181                1.98189268               -0.09441288                0.10984816                6.07615830
              18.90991170               10.26797181               60.89565894                0.13296991               -0.25389667                0.38799712               -1.02216214               -0.27389973                9.83105797               -5.34710617
              19.90626913                9.07299473               60.34500177                0.00056401               -0.36148606                0.99053473                0.67069523               -4.47895582               44.19714552              -11.65560642
              20.90268198                7.79921174               60.29315912                0.00010000                0.13492310                1.59060352               -2.01917076               -8.56206758               67.75985708              -11.45203087
              21.90896759                6.51858474               60.22645752                0.00010000                1.16203643                2.02901473               -4.86523419               -8.67422641               66.07137524              -11.41840634
              22.92592270                5.23842294               60.14967735                0.00010000                2.21569079                2.58361317               -7.87219874               -8.14952578               64.93603964              -11.47142375
              23.95328141                3.96616935               60.06700189                0.00010000                3.24752177                3.37718309              -11.08862310               -6.95234118               64.27357491              -11.54097724
              24.99087314                2.71035376               59.98207849                0.00010000                4.28691668                4.39969314              -14.53419176               -4.78404182               64.07284987              -11.50148323
              26.03901974                1.48210482               59.89834313                0.04339806                5.11920875                5.54467286              -18.12487331               -1.26620876               62.98252101              -11.15454159
              27.09325731                0.29306670               59.79085657                0.17527736                5.52194301                6.56475994              -19.50929820                0.59145916               33.00184457              -11.94182089
              28.14945860               -0.90539170               59.09548322                0.64397036                5.62012874                7.56739059              -21.26095070                0.66401967                4.70810762              -22.58764790
              19.09318929               12.44995623               61.48941350                0.67580469                0.02012906               -0.54888581                1.57680975               -0.09580979                0.11235248                6.01115843
              20.09339058               11.27281925               60.68736812                0.12902409               -0.12461340                0.58410644               -1.70612515               -0.54426075               12.94325916               -5.30857381
              21.09069702               10.08343082               60.14193005                0.00165238               -0.15855386                1.00007976                1.03861853               -4.88322129               53.15364032              -10.27916375
              22.09021950                8.81589788               60.15056698                0.00010000                0.45565419                1.55891300               -1.98315860               -8.64650352               79.27080456               -9.58965605
              23.09981010                7.54019003               60.14154019                0.00010000                1.42599433                2.07773498               -5.07690567               -8.39814590               77.28715233               -9.17201816
              24.11873939                6.26645273               60.12035472                0.00010000                2.31856693                2.83956547               -8.31650220               -7.49890976               75.94627560               -8.87107786
              25.14618144                5.00291339               60.09223139                0.00010000                3.22224351                3.82332695              -11.79515870               -6.10546436               75.21087388               -8.48856803
              26.18318426                3.75728373               60.06224111                0.00010000                4.30795278                4.87588052              -15.55302541               -4.01599513               75.08145228               -7.78269437
              27.23234050                2.53908806               60.03497565                0.04867259                5.28615683                5.77331260              -19.47426316               -0.86931088               73.11059624               -6.57546657
              28.28890739                1.35791211               59.96512745                0.18285763                5.82262620                6.34154781              -20.05982059                0.63358766               37.68418587               -7.53146741
              29.34879302                0.16903495               59.21667475                0.64823218                5.98856270                7.30706907              -22.01332773                0.46672998                4.93059893              -18.10532525
              20.26370484               13.44510450               61.33722662                0.67057028                0.18470515               -0.42208293                1.16794048               -0.09774685                0.14052154                5.95532313
              21.26555189               12.27965394               60.47904109                0.12761951                0.09106141                0.78576862               -2.39171049               -0.99334689               16.80961314               -5.38317717
              22.26552607               11.09299633               59.95412203                0.00324819                0.37204013                0.65867126                1.57637297               -5.36999445               63.09441973               -8.46547564
              23.27299270                9.83039000               60.02755718                0.00010000                1.24618767                0.97244901               -1.77416770               -8.09705908               91.12054593               -7.26674015
              24.29044982                8.56013944               60.07866088                0.00010000                2.01142286                1.70610386               -5.05222913               -7.19795024               88.68244290               -6.56899289
              25.31322115                7.29521425               60.11457780                0.00010000                2.49456499                2.78410217               -8.42040174               -5.97907122               87.07846786               -6.06574419
              26.34034112                6.04263588               60.14294538                0.00010000                3.05787062                4.01451891              -12.04648571               -4.63888175               86.37833758               -5.46480929
              27.37437857                4.80787137               60.17161895                0.00010000                4.03320097                5.21989550              -16.02626847               -3.00811003               86.56336778               -4.38791836
              28.42100514                3.59757108               60.20709411                0.05445034                5.08018086                5.97961776              -20.25910052               -0.74713784               83.36569436               -2.38403940
              29.47598218                2.41989765               60.17156403                0.19010278                5.77711963                6.01933883              -19.82879989                0.39437190               42.16054373               -3.29006049
              30.53654754                1.24074968               59.37075029                0.65182311                6.05653526                6.97145195              -22.00134402                0.26260773                5.09049568              -13.79760585
              21.42213547               14.44151458               61.18511731                0.66456384                0.34963377               -0.29169480                0.76000014               -0.09887012               -0.09347189                5.18130785
              22.42563181               13.28853462               60.26869043                0.12748932                0.52127992                0.98684400               -3.09169794               -1.87345531               21.69962507               -4.84358311
              23.43256107               12.09660425               59.78790307                0.00562956                1.77517002               -0.77397654                2.21095198               -4.79543372               74.46665575               -5.45379436
              24.46113521               10.83534686               59.93032766                0.00010000                2.92328886               -0.19258939               -1.46590763               -5.73876510              103.21425632               -4.13636072
              25.49102685                9.57431211               60.04161284                0.00010000                2.77631532                1.15564451               -4.80684074               -4.41532112               99.93867628               -3.49804925
              26.51666151                8.32213478               60.13377076                0.00010000                2.48599204                2.60842665               -8.15374365               -3.38471102               97.96529279               -3.11080158
              27.54074669                7.08320377               60.21754657                0.00010000                2.57126743                4.07027073              -11.77175935               -2.48492232               97.27989486               -2.66334286
              28.56808686                5.86168164               60.30429676                0.00010000                3.23123828                5.45419658              -15.83892556               -1.62700689               98.09366076               -1.82789436
              29.60537145                4.65868042               60.40772964                0.06100995                4.27646823                6.42330844              -20.43401034               -0.63247011               93.94254812                0.11304378
              30.65361623                3.47829889               60.40923681                0.19743042                5.34848347                5.64541835              -18.87235428               -0.15894947               46.57389383                0.15666401
              31.71234112                2.30846399               59.55465796                0.65429890                5.87248938                6.50322185              -21.26058542                0.00495861                4.91285997               -8.83055004
              22.56768735               15.43927060               61.01781288                0.83094781                0.53057632               -0.22439732                0.27390055                0.56720956                2.34576282                4.40689193
              23.57299311               14.29939082               60.07043932                0.56495216                2.75589010                1.08561979               -3.73314796               -3.35155962               29.27161942               -4.19551270
              24.62280515               13.07751680               59.66124582                0.46897528                5.37582089               -1.90874504                2.55152587               -4.61822202               87.25001400               -3.65019368
              25.68050953               11.82653821               59.86858287                0.44363383                4.62751670               -0.88086528               -1.21368540               -2.77579115              114.60226267               -2.07882442
              26.71535549               10.58325233               60.03479528                0.43711000                2.80628717                0.89402180               -4.37361813               -1.52490735              110.48436146               -1.65650124
              27.73663528                9.34738278               60.17920029                0.44205008                1.78701626                2.52480047               -7.50156105               -0.96317540              108.15890808               -1.38083496
              28.75109581                8.12404130               60.31380477                0.45828811                1.48632518                4.08375317              -10.91114409               -0.48646164              107.24420865               -1.08589384
              29.76636178                6.91695530               60.45131521                0.48684638                2.03213399                5.52736569              -14.82755465               -0.07271116              108.17600908               -0.54796221
              30.79173849                5.72603725               60.61091524                0.53289594                2.83289225                6.73568291              -19.51329922               -0.57075998              103.98452472                0.88135347
              31.82301962                4.53280602               60.66252434                0.60102579                4.22890119                5.45071303              -17.32125261               -0.82081688               53.01813691                2.04783702
              32.87631652                3.37081412               59.78401542                0.82776631                5.32968917                6.23501307              -19.75585318                0.19834900                7.56580376               -5.44921751
              11.01782862                5.73932675               63.62140520                0.94160481               -1.24360090               -1.39540414                4.73947924               -0.34237345               -3.55191221                4.03490334
              12.00539261                4.43762587               63.17670194                0.70721119               -1.17009999               -0.83077519                3.23359760               -0.32721778               -5.00925729               -2.81659961
              12.99442662                3.13103528               62.70361647                0.54107849               -1.08331076               -0.44524398                1.58961479               -0.45127536               -5.10058417               -0.72826909
              13.98372639                1.81082406               62.25779231                0.47574325               -0.90951044               -0.02183039                0.03729519               -0.43173753               -2.90453630               -0.47941795
              14.97623641                0.47294547               61.82863093                0.45024760               -0.43417879                0.41346961               -1.57032118               -0.34958563               -1.34896265               -0.29904802
              15.97504282               -0.88110898               61.41315055                0.45407814                0.31435670                0.85650711               -3.21914846               -0.24433883               -0.40370168               -0.07139772
              16.98252354               -2.24450596               61.00159062                0.48745323                1.17728808                1.29551591               -4.86668764               -0.19471587               -0.56602179                0.15924802
              17.99858858               -3.60844807               60.58143471                0.55670688                1.94288198                1.71829637               -6.46322034               -0.20452509               -1.70959615                0.36786572
              19.02138118               -4.96642236               60.14556933                0.68008141                2.52750434                2.13078010               -8.02440120               -0.22082305               -3.44392046                0.44090730
              20.04913866               -6.31557122               59.68912583                0.89564511                2.97544450                2.53991655               -9.60844325               -0.23056002               -4.04096747                1.09830475
              21.08089007               -7.65620676               59.23939437                1.00000000                3.17514070                3.02097649              -11.15615793               -0.62214753               -3.59095809               -2.83485736
              12.31610576                6.72537271               63.43991452                0.80246434               -0.98395946               -1.38747616                4.15967614               -0.16214651                2.08654260                5.48452569
              13.30626617                5.42931812               62.98921209                0.29941205               -0.63954973               -0.66231942                2.65297478               -0.29588588                5.12124078               -5.06553036
              14.30331477                4.12658284               62.59978648                0.02563314                0.10938761                0.19424323                1.48397280               -1.25269336                8.63687446               -8.83347230
              15.30845392                2.81060576               62.21938187                0.01310120                0.76961536               -0.58497853                0.21068953               -2.43707516                9.86813350               -8.87475032
              16.31870707                1.47708017               61.85462852                0.01579497                1.14356145               -0.64635638               -1.06618001               -3.29118146               11.31364922               -9.13456008
              17.33132515                0.12745609               61.50336807                0.02110140                1.27694289               -0.36194479               -2.38149940               -3.64626473               12.14271381               -9.81905448
              18.34424593               -1.23155081               61.15537756                0.02891951                1.30881896                0.14716314               -3.68955247               -3.36042893               11.85547040              -10.35863371
              19.35750153               -2.59126511               60.79812840                0.04391707                1.42442959                0.77941056               -4.94653969               -2.48088077               10.56806503               -9.70456389
              20.37273452               -3.94511456               60.42358987                0.19042868                1.71118674                1.63975679               -6.17294867               -1.17731717                9.02155645               -3.26093778
              21.39172526               -5.29017205               60.03416124                0.44595622                2.12848064                2.19468283               -7.41307189               -0.38770065                6.38335891                3.14600860
              22.41530414               -6.62599699               59.60532853                0.83170824                2.35788746                3.05683049               -8.78128639               -0.66715188                4.50103294               -5.77248576
              13.60669486                7.71157722               63.28830102                0.71862832               -0.84301038               -1.30309990                3.77098462               -0.12437247                0.24724052                6.58830250
              14.59826476                6.42437948               62.75719754                0.17242008               -0.93048788               -0.37763951                1.80480245               -0.07555627                5.62307806               -6.76321009
              15.58808511                5.13492014               62.33412982                0.00415357               -0.68886027                0.87134473                0.77261437               -2.77568845               16.04004916              -18.23685213
              16.58448756                3.79912449               62.01299562                0.00010000                0.27386698               -0.56763518               -0.50595448               -5.91836578               21.53078407              -17.30648424
              17.59356245                2.46001835               61.70357170                0.00010000                1.31304707               -1.11251579               -2.15076465               -6.80450621               22.16496380              -18.00112275
              18.61074850                1.11165213               61.39798690                0.00010000                2.02368597               -1.02971204               -3.87890873               -7.28474441               22.53197897              -19.42950807
              19.63403617               -0.24156270               61.09785014                0.00010000                2.58931111               -0.51116580               -5.65340382               -6.71720919               23.47488530              -20.76138977
              20.66253472               -1.59285986               60.81210713                0.00010000                3.13528069                0.34588274               -7.42425086               -4.94557468               29.19744135              -20.69582633
              21.69674178               -2.93362723               60.62598996                0.02146766                2.98661809                1.59751629               -9.55787231               -2.90563372               33.32707736              -18.85658586
              22.72226708               -4.27167756               60.41826662                0.14035530                2.12275670                3.65789405               -5.71598145               -1.11275977               17.46544952              -16.03544855
              23.73919691               -5.59507015               59.91034601                0.62093487                1.69298329                5.58908208               -7.31302249               -0.36256942                2.57197756              -27.93677344
              14.88801380                8.69931071               63.12993171                0.69856930               -0.66016738               -1.14513185                3.32167659               -0.10302278                0.09556544                6.25635980
              15.88141212                7.42176533               62.53579787                0.14757505               -0.74789071               -0.17088200                1.07713166                0.06395662                5.07304854               -6.07547494
              16.87305598                6.14400973               62.04161969                0.00010000               -0.82118639                0.75015100                1.00286708               -3.15839192               22.86408784              -17.32987074
              17.86498840                4.79925306               61.80732368                0.00010000               -0.14833339                0.37147251               -1.04126876               -6.77616381               34.57033470              -16.77593680
              18.87008932                3.45482985               61.55341657                0.00010000                1.11114548                0.03221972               -3.10179659               -7.25695357               33.24568251              -17.49966663
              19.88721131                2.10686185               61.29734669                0.00010000                2.21622093                0.12125634               -5.27152598               -7.55848229               33.16169224              -18.73734368
              20.91441374                0.75822588               61.04527108                0.00010000                3.17216256                0.61345486               -7.53280738               -7.10138762               34.12951212              -20.22004916
              21.95065456               -0.58434746               60.81079439                0.00010000                3.95129054                1.52267699               -9.86575050               -5.67936425               35.74875940              -22.17874177
              22.99343955               -1.91316424               60.59118694                0.02230148                4.01292136                2.94882837              -11.67754647               -3.25095994               36.95238383              -28.79192076
              24.03091298               -3.21701417               60.37741036                0.14270349                3.06991868                6.28771181              -13.47592178               -0.62794555               20.92621368              -34.32438858
              25.05483792               -4.51421535               59.82956171                0.62365430                2.39249347                8.56925817              -14.40462351                1.15643579                4.71684956              -44.88168783
              16.15972517                9.68867459               62.97260416                0.68843870               -0.48803004               -0.98882627                2.89524398               -0.10000285                0.10543848                6.33194468
              17.15484487                8.42096184               62.31750976                0.13622825               -0.61478163                0.01491335                0.35356247               -0.09491209                6.81775869               -5.83450084
              18.14742954                7.14992316               61.79696438                0.00010000               -0.83503576                0.65003479                1.05578999               -3.82164379               30.03915941              -14.20651574
              19.13814416                5.80655394               61.61182387                0.00010000               -0.33074795                0.95837558               -1.39434203               -7.66055907               45.65837797              -15.37095009
              20.14081458                4.46066274               61.41227830                0.00010000                0.90193350                1.01809757               -3.90623374               -7.99664571               44.24620851              -16.26466936
              21.15618283                3.11407725               61.20504094                0.00010000                2.12015703                1.27476895               -6.51547498               -8.03618382               43.58472749              -17.47988528
              22.18321772                1.77070640               60.99715103                0.00010000                3.20773613                1.88703745               -9.27093084               -7.44657349               43.52626364              -19.10427783
              23.22033755                0.43759368               60.79240043                0.00010000                4.05857879                2.93128148              -12.14679974               -5.88798061               43.78691702              -21.64320984
              24.26438930               -0.87465066               60.59144686                0.02644525                4.52108673                4.64524006              -15.21102920               -2.63308840               43.78640931              -24.80693903
              25.31075928               -2.14592332               60.38497238                0.14881084                4.61693458                7.30451380              -18.27165206               -0.03804922               24.11899696              -28.06686237
              26.35672799               -3.42368498               59.78079101                0.62767916                4.59687046                8.97784937              -19.64341060                1.41145014                5.09480519              -39.20381817
              17.42143924               10.67953418               62.81654142                0.67992083               -0.31739250               -0.84382140                2.47453787               -0.10003600                0.10757763                6.38971278
              18.41826531                9.42206359               62.10083828                0.12821566               -0.52041149                0.20818522               -0.35937009               -0.30924887                9.31030040               -5.69305076
              19.41103101                8.15701043               61.56938634                0.00010000               -0.86138373                0.79533505                1.18019450               -4.34312293               38.03005188              -12.74576034
              20.40103764                6.81842057               61.43465386                0.00010000               -0.41989560                1.37096501               -1.65123076               -8.28415175               56.62009372              -13.60338570
              21.40263309                5.47519181               61.28553154                0.00010000                0.77031695                1.75771785               -4.54550152               -8.53648021               55.04915624              -14.51163177
              22.41644397                4.13235723               61.12681684                0.00010000                1.96663734                2.25136613               -7.55962368               -8.29209685               53.98313449              -15.55234695
              23.44196584                2.79596663               60.96250313                0.00010000                3.09040129                3.04282632              -10.77517252               -7.36295950               53.31585052              -16.88510582
              24.47825200                1.47427817               60.79554566                0.00010000                4.11644694                4.22416438              -14.26340542               -5.34048340               52.97714433              -18.50944851
              25.52429478                0.17974057               60.62775466                0.03063925                5.04671616                5.85008875              -18.07145476               -1.57579363               52.72066656              -20.17675615
              26.57918632               -1.07092389               60.45500377                0.15573632                5.71477306                7.57081757              -21.48102518                0.67814292               28.80538131              -21.51408333
              27.63859024               -2.33465836               59.79719272                0.63201210                5.94039168                8.80620424              -22.98185205                1.13250394                5.64755434              -32.50784229
              18.67266563               11.67179816               62.66104131                0.67245520               -0.14819790               -0.70607464                2.05884233               -0.09925038                0.11359685                6.38758451
              19.67118365               10.42512555               61.88519706                0.12263415               -0.42277617                0.40649794               -1.06872756               -0.56140564               12.42417114               -5.60713160
              20.66421011                9.16582986               61.35566122                0.00092835               -0.84519544                0.94287412                1.44627368               -4.76480069               46.78664633              -11.36350088
              21.65427974                7.83397324               61.27437062                0.00010000               -0.40308967                1.64111001               -1.76768188               -8.57975385               67.81761731              -11.81156137
              22.65614831                6.49581710               61.17720983                0.00010000                0.76431623                2.20820984               -4.99210510               -8.67010097               66.02479926              -12.36781018
              23.66956607                5.15910458               61.06854890                0.00010000                1.89446369                2.91745922               -8.34333170               -8.08733117               64.67758376              -13.03455472
              24.69403759                3.83156292               60.95172386                0.00010000                3.00939381                3.89091601              -11.95118717               -6.79757131               63.70110759              -13.79155275
              25.72975394                2.52207696               60.82989351                0.00010000                4.20189529                5.11790792              -15.90602654               -4.48134639               63.17872432              -14.53277268
              26.77807549                1.24235112               60.70714087                0.03501852                5.44835629                6.46536267              -20.20573080               -0.69693694               62.76248540              -15.01307934
              27.83872107                0.00549303               60.57713182                0.16325965                6.43857546                7.60007534              -23.41871614                1.05627203               33.94572739              -15.66374333
              28.90684700               -1.24756090               59.86498986                0.63675289                6.81259331                8.64025766              -25.05800858                0.90660095                6.09982186              -26.70339121
              19.91279946               12.66541269               62.50551459                0.66607275                0.02060393               -0.57252021                1.64330858               -0.09873538                0.11753165                6.32141311
              20.91300550               11.43019355               61.66994930                0.11910187               -0.29560817                0.60927590               -1.77676959               -0.88473175               16.24123191               -5.56948372
              21.90688729               10.17586791               61.15685128                0.00221000               -0.67750864                0.97289442                1.86346223               -5.15200049               56.43488279               -9.81280989
              22.89945532                8.85124277               61.13228649                0.00010000               -0.13937750                1.62279962               -1.72167041               -8.54378901               79.34929488               -9.77335763
              23.90409974                7.51935600               61.09019834                0.00010000                0.97481018                2.28393265               -5.20813276               -8.24923963               77.32354617               -9.88501908
              24.91895153                6.19070642               61.03470297                0.00010000                1.94711406                3.21158219               -8.80619000               -7.27956969               75.75430136              -10.10524872
              25.94304202                4.87378495               60.96969932                0.00010000                2.94426760                4.37983224              -12.69582141               -5.76477152               74.65084728              -10.30008474
              26.97783688                3.57663633               60.89959870                0.00010000                4.19489767                5.65090204              -16.98550643               -3.49560327               74.14986761              -10.25997652
              28.02693998                2.30904782               60.82998545                0.03986916                5.61934495                6.77189749              -21.62863270               -0.13347937               73.35015681               -9.78531114
              29.09022378                1.08107761               60.74472089                0.17052435                6.79450665                7.44435950              -24.29137148                1.13786248               39.16210341              -10.26699721
              30.16283011               -0.16185321               59.97760184                0.64122665                7.26063331                8.49011455              -26.10474331                0.65952308                6.42869264              -21.26712418
              21.14112920               13.66034776               62.34919035                0.66109349                0.19046005               -0.44176161                1.22466384               -0.10076547                0.14784864                6.26476640
              22.14303380               12.43731106               61.45464111                0.11835977               -0.05041581                0.81779837               -2.48773869               -1.38008307               20.88393470               -5.65331324
              23.14012088               11.18528775               60.97470084                0.00396966               -0.15589646                0.64826846                2.39576185               -5.60624957               67.15751642               -7.85548711
              24.13991587                9.86642924               61.01149008                0.00010000                0.57894961                1.05561041               -1.51389868               -7.86544919               91.28045014               -7.28471938
              25.15169987                8.54149575               61.02764967                0.00010000                1.48149293                1.95658475               -5.17481990               -6.94570181               88.90306143               -7.02622066
              26.16954573                7.22333622               61.02797159                0.00010000                2.05561826                3.18138332               -8.89521865               -5.68204471               87.08219443               -6.91640171
              27.19281224                5.91915957               61.01798857                0.00010000                2.75166397                4.56768615              -12.92929124               -4.21272502               85.95371711               -6.74566381
              28.22457901                4.63509501               61.00439272                0.00010000                3.90761935                5.96543143              -17.43137884               -2.36137914               85.67533531               -6.19782129
              29.27096463                3.37778907               60.99466819                0.04514773                5.39001696                6.98745392              -22.34027082                0.10633664               84.19401538               -4.88292447
              30.33237935                2.15438022               60.95292137                0.17760012                6.74672401                7.17506711              -24.20603592                0.89295975               44.26496005               -5.08172627
              31.40589911                0.92224139               60.13122867                0.64484706                7.35197601                8.23635885              -26.23525093                0.38393383                6.65217563              -16.01741663
              22.35685753               14.65657746               62.19295866                0.65538687                0.36063085               -0.30809166                0.80715841               -0.10206522               -0.10047311                5.45041182
              23.36046384               13.44654952               61.23715470                0.11825265                0.43932987                1.02619633               -3.21357541               -2.30821182               26.58608816               -5.09075598
              24.36564413               12.18883328               60.81486292                0.00638868                1.27372496               -0.82568280                2.98169950               -4.90278680               79.36333234               -4.88078094
              25.38593834               10.87235498               60.91740729                0.00010000                2.13172978                0.00513040               -1.21547103               -5.47099985              103.52012546               -4.07905491
              26.40827872                9.55848770               60.99321403                0.00010000                2.08542385                1.47061161               -4.90311607               -4.17909054              100.49694711               -3.71432911
              27.42764682                8.25433408               61.05009648                0.00010000                1.93750064                3.02938696               -8.57534774               -3.16272055               98.33885750               -3.54273522
              28.44702874                6.96513867               61.09573249                0.00010000                2.21664906                4.59854217              -12.57244560               -2.17142321               97.15927015               -3.32958962
              29.47197980                5.69594496               61.13953111                0.00010000                3.13763808                6.10475598              -17.11878298               -1.09624249               97.31740799               -2.80439380
              30.50978150                4.44879690               61.19473767                0.05105715                4.58254240                7.26445493              -22.27602984                0.10485972               95.39743294               -1.39164237
              31.56363065                3.22457895               61.20060782                0.18416704                6.25024691                6.83622075              -23.16652445                0.34534278               49.33701155               -0.71287854
              32.63478644                2.00287397               60.32296645                0.64736249                7.11557918                7.75253872              -25.40680554                0.03331225                6.48998148              -10.00598057
              23.55914377               15.65418592               62.02071487                0.82644574                0.54699729               -0.23915359                0.30627785                0.59353052                2.46725171                4.63495063
              24.56461374               14.45783499               61.03238277                0.56049809                2.85579599                1.12854698               -3.87671275               -3.85560123               34.85662147               -4.41222406
              25.61625969               13.16877409               60.69150546                0.46814501                4.81138553               -2.00591839                3.26780041               -4.50360130               92.86168078               -3.07098488
              26.66084145               11.86653184               60.85812072                0.44345750                3.49396342               -0.58231323               -0.98071103               -2.40299424              115.31489857               -2.00945391
              27.68613896               10.57090798               60.99092618                0.43706546                1.93994450                1.24202855               -4.43189532               -1.34437102              111.62435368               -1.74087552
              28.69964034                9.28392396               61.10247445                0.44188513                1.08169687                2.95898764               -7.83380523               -0.78952599              109.12456060               -1.58245103
              29.70777289                8.01113041               61.20128713                0.45744818                0.96777939                4.59917393              -11.56333258               -0.26227591              107.67475510               -1.40521921
              30.71899593                6.75719013               61.29768512                0.48461264                1.83274662                6.12451637              -15.88450439                0.29900099              107.78534978               -1.02129699
              31.74442783                5.52307816               61.40868789                0.52753981                3.31065998                7.42812667              -21.00741134                0.16035818              105.98459683                0.06025133
              32.78520913                4.29110463               61.47113497                0.59402166                5.27737482                6.65256780              -21.26237518               -0.13145135               56.26418899                1.71652808
              33.84997532                3.07729217               60.56921001                0.82414700                6.47661933                7.44181988              -23.52549879                0.13764209                9.27836367               -5.98150688
              11.43377408                5.96486080               64.66954290                0.93604040               -1.28163470               -1.43941047                4.88627381               -0.35550408               -3.70821541                4.19602411
              12.42095773                4.59914338               64.20951406                0.69912327               -1.20792960               -0.85301683                3.32822021               -0.34543619               -5.23628997               -2.96139511
              13.40961549                3.22824971               63.71969269                0.53737683               -1.10359579               -0.45962956                1.62813965               -0.45467298               -5.35527932               -0.70035592
              14.39888582                1.84353081               63.25808177                0.47453731               -0.89351369               -0.01831590                0.02200233               -0.42950148               -3.14433164               -0.48724123
              15.39174522                0.44141681               62.81257738                0.45028323               -0.38556247                0.43063920               -1.63758985               -0.34638190               -1.64365413               -0.30077575
              16.39117457               -0.97626190               62.38034096                0.45442814                0.38049859                0.88883721               -3.33824792               -0.24884329               -0.72392529               -0.07488327
              17.39935519               -2.40262733               61.95204792                0.48711988                1.24849545                1.34363482               -5.03969057               -0.20391506               -0.86282512                0.15492004
              18.41614448               -3.82907192               61.51565338                0.55500353                2.01957583                1.78125302               -6.69286204               -0.21228408               -1.96534723                0.36547879
              19.43974670               -5.24930707               61.06385445                0.67599068                2.61598685                2.21013552               -8.31258974               -0.22523722               -3.69313342                0.44302870
              20.46846422               -6.66055775               60.59128327                0.88706310                3.07972282                2.63421279               -9.95133066               -0.23577818               -4.28236327                1.11429933
              21.50134116               -8.06310536               60.12580882                1.00000000                3.28769453                3.12896119              -11.55209148               -0.64066714               -3.81736438               -2.97794821
              12.79593645                6.95046669               64.48215008                0.79117625               -1.01275372               -1.43609286                4.28728177               -0.17254942                2.23596233                5.74456845
              13.78580891                5.59061322               64.01612023                0.28589311               -0.65307029               -0.67400259                2.72935456               -0.32155163                5.44276308               -5.34590935
              14.78287505                4.22365342               63.61480037                0.02586069                0.10991695                0.18971079                1.51859112               -1.32258929                9.08056323               -9.09354350
              15.78800725                2.84334765               63.22144046                0.01393523                0.76513534               -0.62537502                0.20075139               -2.60074822               10.25978065               -9.31384161
              16.79817775                1.44572320               62.84370057                0.01668795                1.13504774               -0.67507333               -1.12114864               -3.50135793               11.68756743               -9.93834518
              17.81070821                0.03262647               62.47905892                0.02225736                1.27716484               -0.38684369               -2.48057148               -3.87380521               12.50307043              -11.01940586
              18.82372105               -1.38919098               62.11776925                0.03067338                1.33266498                0.12004737               -3.83674943               -3.59521025               12.24366942              -11.99051163
              19.83736151               -2.81125939               61.74772550                0.04657729                1.47580971                0.75108340               -5.14100028               -2.70659565               10.99434343              -11.80541334
              20.85323724               -4.22720572               61.36068450                0.18311663                1.78220340                1.67871444               -6.41250404               -1.30628405                9.45666675               -6.12396495
              21.87300558               -5.63421562               60.95864842                0.43005019                2.21224267                2.30000233               -7.69489571               -0.42609000                6.74898794                2.84109072
              22.89748210               -7.03181574               60.51590802                0.82026541                2.44765215                3.20196810               -9.10859801               -0.67993146                4.80524266               -6.41743729
              14.15003004                7.93613894               64.32660283                0.70813312               -0.86900656               -1.35259582                3.89091998               -0.12687526                0.23324885                6.91535499
              15.14133998                6.58566333               63.77548493                0.16017600               -0.98003877               -0.37780275                1.85421746               -0.11805170                6.10452291               -7.11596113
              16.13042927                5.23204393               63.34232481                0.00327184               -0.82694554                0.79298108                0.87452880               -3.03474755               16.86251146              -18.27172219
              17.12480107                3.83102331               63.00819598                0.00010000                0.10049856               -0.62782665               -0.45098573               -6.31212854               22.01968957              -18.12641887
              18.13243924                2.42791535               62.68172438                0.00010000                1.19057934               -1.15516279               -2.21500450               -7.22469998               22.41604262              -19.57059896
              19.14861265                1.01600123               62.35824891                0.00010000                1.94488058               -1.05983892               -4.06112419               -7.74189912               22.70609022              -21.80004622
              20.17133685               -0.40022638               62.03963027                0.00010000                2.57073233               -0.53757468               -5.97822319               -7.19074871               23.59095958              -24.00579292
              21.20002730               -1.81405026               61.73511262                0.00010000                3.26201998                0.33739239               -7.96052323               -5.34478051               29.00899462              -24.91331627
              22.23657725               -3.21573278               61.52459867                0.01444989                3.22625720                1.65945723              -10.65007569               -3.17170781               36.15647174              -23.83536073
              23.26455244               -4.61455770               61.35867527                0.12836203                2.31827653                3.93609992               -6.31759072               -1.21711353               20.77171669              -21.72569685
              24.28294278               -5.99906599               60.83506801                0.61307553                1.83903364                6.02441091               -7.82215382               -0.24585411                3.07551487              -33.69085297
              15.49435016                8.92341477               64.16369551                0.68824179               -0.68072662               -1.18816578                3.43011062               -0.10715020                0.10005321                6.56402829
              16.48754289                7.58305716               63.54670418                0.13565999               -0.87650209               -0.16796283                1.10417170               -0.08362697                6.28405965               -6.36464141
              17.47682012                6.23951304               63.05380201                0.00010000               -1.08248137                0.59605349                1.44437149               -3.48625232               24.07837558              -17.06259634
              18.46589326                4.83079112               62.79750842                0.00010000               -0.40571387                0.33194154               -0.92725662               -7.10261912               34.68427331              -17.45230386
              19.46870584                3.42261995               62.52198895                0.00010000                0.90593457                0.05103882               -3.18048169               -7.62264289               33.34178322              -18.96324164
              20.48401196                2.01142969               62.24324529                0.00010000                2.06258602                0.19212306               -5.53616373               -7.94796940               33.14434210              -21.00983463
              21.50995756                0.60005752               61.96739742                0.00010000                3.09801709                0.73722717               -8.02116679               -7.50213876               33.97221813              -23.38070515
              22.54597230               -0.80451155               61.70791448                0.00010000                4.01764871                1.71570601              -10.68292212               -6.04231843               35.75022724              -26.32723213
              23.59031053               -2.19401657               61.46843213                0.01509220                4.30121098                3.20261355              -12.87177518               -3.47420718               37.04761475              -33.80844845
              24.63199652               -3.55549362               61.23227739                0.13175115                3.56355339                6.81289043              -15.57180157               -0.61218447               21.65218495              -43.67325545
              25.66158160               -4.91132753               60.67610645                0.61658865                2.95850838                9.27542238              -16.35869621                1.50938695                6.29852810              -54.41745794
              16.82860226                9.91237562               64.00205283                0.67843335               -0.50330904               -1.02652995                2.99170266               -0.10393379                0.10696982                6.65197219
              17.82356917                8.58230408               63.32105342                0.12497216               -0.78160015                0.02269123                0.35719421               -0.34056653                8.61091423               -6.11563256
              18.81297026                7.24396500               62.81043707                0.00010000               -1.19637009                0.52475217                1.61549363               -4.15802668               31.76580505              -14.09626369
              19.79964177                5.83766214               62.59880926                0.00010000               -0.68112274                0.93401160               -1.22663768               -7.88073040               45.61313533              -15.95790818
              20.79934781                4.42893612               62.37273184                0.00010000                0.62869589                1.09128134               -4.00535255               -8.25991556               44.18743737              -17.60605147
              21.81221569                3.01984369               62.13811954                0.00010000                1.89437543                1.43979380               -6.85435779               -8.32121568               43.39740276              -19.60757685
              22.83723531                1.61451816               61.90118260                0.00010000                3.05196682                2.15186278               -9.89554701               -7.73950555               43.14420843              -22.11020089
              23.87325503                0.22026386               61.66571667                0.00010000                4.04199330                3.30596835              -13.16068588               -6.15395211               43.13676280              -25.67230706
              24.91807518               -1.15168051               61.43114457                0.01893337                4.81823410                5.14910205              -16.83366052               -2.67707299               42.82137877              -30.37892529
              25.96961971               -2.47829989               61.18797902                0.13705325                5.33615731                7.98347120              -21.10504471                0.11888495               24.18591919              -35.15466302
              27.02479833               -3.81355755               60.57021463                0.61994108                5.51786191                9.73294862              -22.52797208                1.75360553                6.40034206              -46.88498660
              18.15241457               10.90288418               63.84170660                0.66984779               -0.32723883               -0.87574435                2.55960142               -0.10205725                0.11354901                6.71479172
              19.14914219                9.58351099               63.09714175                0.11737143               -0.70565293                0.22070386               -0.37919497               -0.63350275               11.70773708               -5.96605306
              20.13830152                8.25000808               62.58466395                0.00022038               -1.29173278                0.71473884                1.81344408               -4.70906955               40.30177624              -12.55841336
              21.12330753                6.84947135               62.41922585                0.00010000               -0.84877669                1.38428727               -1.47533587               -8.38592811               56.49534305              -14.11088709
              22.12132598                5.44444558               62.23949968                0.00010000                0.43490368                1.88128024               -4.67055123               -8.66541488               54.91653338              -15.70292115
              23.13200560                4.04022557               62.04914173                0.00010000                1.67106450                2.50010124               -7.96120977               -8.43030695               53.68396402              -17.47771207
              24.15474727                2.64309478               61.85093250                0.00010000                2.85431613                3.43119716              -11.50839375               -7.49470557               52.70496224              -19.64694241
              25.18909193                1.26160782               61.64671842                0.00010000                4.02927789                4.76906977              -15.46730293               -5.41768613               51.93621978              -22.28415165
              26.23533283               -0.09103453               61.43728249                0.02279718                5.35796620                6.56464805              -20.01516428               -1.42380304               51.41404304              -25.12487759
              27.29625125               -1.39582420               61.22242640                0.14361504                6.59180947                8.41873039              -25.00616444                0.95345727               28.84207619              -27.28702426
              28.36716902               -2.71666855               60.54975625                0.62429370                7.09177682                9.68444479              -26.55692214                1.46259646                7.11984060              -38.66545208
              19.46530750               11.89486074               63.68200921                0.66282270               -0.15322849               -0.73243588                2.13455181               -0.10146187                0.11803866                6.71684090
              20.46377521               10.58671815               62.87428439                0.11216652               -0.62394972                0.42372714               -1.11235505               -0.94323088               15.48129247               -5.87880393
              21.45282850                9.25825977               62.37392724                0.00124160               -1.31447490                0.90634621                2.09369995               -5.13071453               49.68430977              -11.04647909
              22.43748572                7.86534789               62.25780549                0.00010000               -0.87716064                1.69199544               -1.61020215               -8.55736225               67.66788106              -12.18221155
              23.43528529                6.46656173               62.12661542                0.00010000                0.37373159                2.38021174               -5.14577128               -8.64818075               65.90378666              -13.36179893
              24.44496035                5.06984571               61.98281071                0.00010000                1.53368310                3.23497508               -8.79202208               -8.05503945               64.35143799              -14.68891072
              25.46595895                3.68314210               61.82797814                0.00010000                2.70351333                4.37761022              -12.76567453               -6.73225356               62.98249846              -16.20489370
              26.49903061                2.31564526               61.66395796                0.00010000                4.05360928                5.79885849              -17.24998136               -4.33630523               61.95428030              -17.83289897
              27.54703114                0.97961245               61.49422851                0.02690328                5.76461314                7.34445260              -22.38411042               -0.33409635               61.51969523              -19.28608368
              28.61432288               -0.30992529               61.32248225                0.15080831                7.43539148                8.63034086              -27.57682245                1.44003582               34.25077079              -20.30413277
              29.69573897               -1.61986865               60.59432305                0.62917503                8.14160918                9.70610995              -29.24316586                1.22746038                7.78114659              -31.74788416
              20.76667050               12.88823546               63.52227968                0.65650801                0.02080287               -0.59524872                1.70852352               -0.10235277                0.12248139                6.64932551
              21.76687853               11.59198553               62.65183273                0.10926929               -0.48065055                0.63320615               -1.84450019               -1.30777834               20.01321143               -5.84316240
              22.75705749               10.26813501               62.17919930                0.00261467               -1.15100990                0.98075866                2.43421093               -5.48376750               60.05047177               -9.35943507
              23.74385833                8.88331126               62.11613357                0.00010000               -0.65964742                1.71134587               -1.59768903               -8.39590194               79.24942590               -9.97266920
              24.74386454                7.49204981               62.03737754                0.00010000                0.52330537                2.50188035               -5.38509587               -8.08209668               77.31248486              -10.63301644
              25.75432444                6.10492507               61.94423092                0.00010000                1.52190562                3.58234944               -9.27878934               -7.09185174               75.51648062              -11.41531970
              26.77430265                4.73064698               61.83831496                0.00010000                2.57855185                4.92736673              -13.55024012               -5.51523496               73.95629848              -12.25363022
              27.80589548                3.37758499               61.72253098                0.00010000                3.99593962                6.41686370              -18.40364345               -3.13087114               72.89554226              -12.97351804
              28.85422145                2.05585452               61.60240299                0.03133276                5.93187955                7.77739559              -23.93212946                0.42616451               72.42664180              -13.33138034
              29.92453307                0.77678262               61.47930002                0.15813371                7.86917557                8.61507371              -28.91978317                1.59985726               39.89260257              -13.81915647
              31.01160496               -0.52254635               60.69457988                0.63380404                8.70718910                9.74526935              -30.71294682                0.92897624                8.28228778              -25.26385175
              22.05576030               13.88295576               63.36171990                0.65177705                0.19597982               -0.46185806                1.27943269               -0.10417715                0.15402683                6.59152683
              23.05772010               12.59938228               62.42928632                0.10859706               -0.19664398                0.84961547               -2.58027937               -1.82550157               25.41864494               -5.93660225
              24.05182742               11.27787495               62.00203726                0.00437028               -0.60336139                0.70244999                2.83549729               -5.86449183               71.57760141               -7.28438750
              25.04565287                9.89957481               61.99727920                0.00010000                0.01010628                1.19119333               -1.44103865               -7.59736715               91.32306581               -7.31993598
              26.05202955                8.51659933               61.97516448                0.00010000                0.94366340                2.23496014               -5.35956602               -6.68350241               89.12540670               -7.50161077
              27.06452614                7.14149270               61.93667343                0.00010000                1.54823942                3.59260677               -9.35829670               -5.41570622               87.08141852               -7.81847722
              28.08299434                5.78168944               61.88435956                0.00010000                2.33397571                5.13332172              -13.76841893               -3.86576799               85.43355135               -8.13256860
              29.11120565                4.44398253               61.82299137                0.00010000                3.66812323                6.73581887              -18.83217231               -1.84973584               84.51452978               -8.18386085
              30.15635680                3.13516036               61.76028869                0.03585116                5.67576220                8.04866725              -24.62097849                0.82078025               83.78152385               -7.60713626
              31.22472090                1.86237619               61.68744331                0.16495277                7.83098205                8.45225512              -29.07625139                1.37354946               45.53687513               -7.48746512
              32.31297644                0.57503674               60.84604527                0.63770015                8.82555436                9.64546950              -31.04753667                0.55698144                8.62061269              -18.87649291
              23.33173393               14.87899830               63.20126048                0.64614113                0.37153844               -0.32492802                0.85158804               -0.10523193               -0.10726065                5.73531264
              24.33544931               13.60897784               62.20441892                0.10873359                0.39205982                1.06539599               -3.33138543               -2.75997220               31.90154141               -5.35033499
              25.33957512               12.28218400               61.84753706                0.00658922                0.88686446               -0.75314688                3.23414324               -4.96846570               84.66090979               -4.34455188
              26.35318660               10.90713513               61.90601824                0.00010000                1.43507364                0.26737327               -1.18627530               -5.18505384              103.80247929               -4.02574530
              27.36827660                9.53674901               61.94355052                0.00010000                1.38668048                1.82055949               -5.07241391               -3.94493203              101.13216875               -3.93309738
              28.38092021                8.17677721               61.96226381                0.00010000                1.31104329                3.47425564               -8.98719785               -2.95980960               98.78017786               -3.99777586
              29.39449746                6.83331342               61.96609766                0.00010000                1.72548124                5.15691006              -13.32776923               -1.90449615               97.02705736               -4.05115252
              30.41542984                5.51230137               61.96192110                0.00010000                2.88729663                6.81194039              -18.39157915               -0.65115970               96.38940974               -3.87388435
              31.45224340                4.21682787               61.96220904                0.04125631                4.83489227                8.20907410              -24.33363670                0.75750664               95.62293379               -2.99565342
              32.51212768                2.94582772               61.94590632                0.17094885                7.25900488                8.18530531              -28.02237034                0.82977768               51.23441335               -1.95056220
              33.59742349                1.67036304               61.04652185                0.64020213                8.52958119                9.18300624              -30.18845589                0.09139431                8.54738510              -11.56946802
              24.59369658               15.87645720               63.02393844                0.82193872                0.56383675               -0.25410958                0.33658863                0.61956460                2.59858410                4.87842009
              25.59933495               14.62069020               61.99290506                0.55584486                3.03021192                1.17123578               -4.01782880               -4.29369618               40.85176392               -4.64155787
              26.65430082               13.26281201               61.72660183                0.46694702                4.40259197               -1.93719955                3.38108217               -4.31582697               98.88361384               -2.50335880
              27.68738679               11.90492227               61.84896865                0.44318941                2.45940047               -0.22128571               -0.96869948               -2.07005584              116.10711117               -1.93394031
              28.70348883               10.55301052               61.94615737                0.43721115                1.06893783                1.62615108               -4.56469644               -1.17599988              112.94968362               -1.82687833
              29.70876554                9.21097781               62.02252418                0.44163852                0.29457124                3.42006072               -8.15123055               -0.62461113              110.28009315               -1.80007651
              30.70938025                7.88482764               62.08253812                0.45646702                0.29512341                5.15142211              -12.15682310               -0.04954483              108.24004569               -1.75810968
              31.71466801                6.58022134               62.13362512                0.48231761                1.43001635                6.79199730              -16.90702052                0.64952768              107.43977196               -1.54799789
              32.73798058                5.29934184               62.19076702                0.52248144                3.65566354                8.25139768              -22.66987558                0.86676602              106.90640380               -0.78739925
              33.78778128                4.02608230               62.23727684                0.58713573                6.38765605                8.02545735              -25.72994349                0.53311091               58.67841790                1.13746239
              34.86573370                2.75869686               61.31350544                0.82040230                7.79524180                8.83338253              -27.88099419                0.09247718               11.54033829               -6.76554814
              11.86372200                6.19803288               65.71913067                0.93035196               -1.32049794               -1.48287323                5.03288311               -0.36845708               -3.86830515                4.36429290
              12.85051702                4.76518561               65.24326634                0.69142941               -1.24843392               -0.87565552                3.42241481               -0.36559158               -5.46819576               -3.10937879
              13.83875332                3.32681281               64.73617927                0.53387835               -1.12809751               -0.47329592                1.66877590               -0.45593921               -5.61452443               -0.67367612
              14.82795507                1.87436186               64.25823236                0.47332325               -0.88245928               -0.01471416                0.01007784               -0.42703488               -3.38724408               -0.49304713
              15.82110414                0.40468359               63.79587913                0.45027611               -0.34306478                0.44826763               -1.69972384               -0.34663949               -1.93906044               -0.30298007
              16.82109377               -1.08004258               63.34638560                0.45484437                0.44252405                0.92026003               -3.44981002               -0.25428032               -1.04739395               -0.07765945
              17.82995462               -2.57285022               62.90079681                0.48695168                1.31906633                1.39068331               -5.20414920               -0.21219617               -1.16736867                0.15004006
              18.84747510               -4.06528275               62.44757747                0.55341013                2.09670020                1.84501290               -6.91449703               -0.21878001               -2.22848123                0.36307458
              19.87188862               -5.55122190               61.97931753                0.67184889                2.70309641                2.28838175               -8.58684616               -0.23100624               -3.94746263                0.44545716
              20.90153703               -7.02801552               61.49009922                0.87800229                3.18015344                2.72732820              -10.27782328               -0.24266313               -4.53005519                1.12982885
              21.93549169               -8.49596411               61.00835254                1.00000000                3.39546603                3.23591840              -11.93122896               -0.65504969               -4.05179224               -3.12452473
              13.29288469                7.18320415               65.52566016                0.78018936               -1.04135548               -1.48469917                4.41495724               -0.18382667                2.39291801                6.01735868
              14.28247114                5.75642906               65.04379918                0.27233158               -0.66394439               -0.68546473                2.80594104               -0.35040383                5.77566538               -5.63428157
              15.27960581                4.32207985               64.63015831                0.02646310                0.11390955                0.18356244                1.55037835               -1.41716882                9.53736806               -9.31270828
              16.28474933                2.87421471               64.22339690                0.01482005                0.76170750               -0.69168520                0.18998423               -2.76934409               10.66278435               -9.71881223
              17.29483996                1.40916626               63.83220554                0.01763644                1.12842723               -0.71828034               -1.17827004               -3.71642280               12.07277988              -10.74853517
              18.30731788               -0.07083998               63.45375664                0.02347366                1.28063910               -0.42462960               -2.58292035               -4.11195053               12.87101808              -12.26352196
              19.32045274               -1.55894339               63.07864257                0.03248980                1.35776310                0.07717443               -3.98788225               -3.84778048               12.63805694              -13.71334806
              20.33447314               -3.04683262               62.69530839                0.04930237                1.52461028                0.69837914               -5.34364794               -2.95617893               11.43245851              -14.08103329
              21.35094494               -4.52833808               62.29533979                0.17595589                1.85041843                1.65699150               -6.65969857               -1.47448394                9.90516976               -9.39528620
              22.37148151               -6.00074224               61.88026333                0.41461175                2.29724218                2.40975242               -7.98658169               -0.47859052                7.12610777                2.29628294
              23.39688979               -7.46360493               61.42315657                0.80903756                2.54082818                3.34392361               -9.44695248               -0.66476740                5.11867636               -7.22192697
              14.71359564                8.16833889               65.36611942                0.69772002               -0.89624025               -1.40314351                4.01028173               -0.13061609                0.21703569                7.25836122
              15.70463324                6.75147632               64.79428189                0.14799992               -1.04856788               -0.37625250                1.90549585               -0.16695801                6.64958364               -7.48069394
              16.69262429                5.33048406               64.35162040                0.00243071               -0.95757347                0.62828494                0.99874447               -3.33673614               17.75506241              -18.10491681
              17.68548177                3.86052815               64.00397590                0.00010000               -0.03969582               -0.73105062               -0.39880815               -6.72142446               22.51698087              -18.89436884
              18.69183037                2.39031798               63.65927161                0.00010000                1.07413218               -1.23043470               -2.27456764               -7.63575838               22.65693344              -21.15374168
              19.70696442                0.91146483               63.31676442                0.00010000                1.85806381               -1.11827484               -4.22812482               -8.21264542               22.86679111              -24.25251235
              20.72899165               -0.57130673               62.97828568                0.00010000                2.53908978               -0.59985827               -6.27673197               -7.70219099               23.64785254              -27.41667414
              21.75774621               -2.05131516               62.65289667                0.00010000                3.36584575                0.26682332               -8.45475440               -5.83120380               28.57178450              -29.43782931
              22.79630856               -3.51808207               62.41298845                0.00749226                3.47429288                1.62294861              -11.57869137               -3.47106611               38.95310716              -29.33613086
              23.82723207               -4.97982047               62.29191480                0.11648118                2.58065835                4.04796064               -7.16917113               -1.31013612               24.35125603              -28.37635083
              24.84792173               -6.42908564               61.75390293                0.60501970                2.06896594                6.29469037               -8.49008302               -0.11348895                3.78756199              -40.34730689
              16.12399753                9.15514128               65.19853392                0.67815670               -0.70107089               -1.23179779                3.53567647               -0.11033992                0.10340099                6.88338672
              17.11698682                7.74890401               64.55788131                0.12438593               -1.00891392               -0.16323525                1.13250826               -0.32250257                7.74721204               -6.66191995
              18.10381925                6.33464555               64.07050712                0.00010000               -1.32499508                0.33259417                1.85031166               -3.84723929               25.44812945              -16.60893801
              19.09048692                4.85959370               63.78877855                0.00010000               -0.63155697                0.25750993               -0.83539317               -7.37288280               34.67333132              -18.08660401
              20.09118811                3.38455757               63.48980693                0.00010000                0.71013820                0.03565027               -3.25966609               -7.96882510               33.41141389              -20.44873404
              21.10468968                1.90679453               63.18662342                0.00010000                1.90004014                0.22822241               -5.77636403               -8.33912114               33.09771969              -23.35786036
              22.12918891                0.42905944               62.88484775                0.00010000                2.99673564                0.81370140               -8.46195428               -7.93887824               33.72352885              -26.68560785
              23.16462439               -1.04149615               62.59713595                0.00010000                4.04200084                1.83293777              -11.42599692               -6.47869649               35.57119834              -30.71567358
              24.21002893               -2.49587911               62.33375144                0.00787206                4.58289824                3.35012711              -14.02244711               -3.80204545               36.64736659              -39.15280273
              25.25628236               -3.91978302               62.06597433                0.12029313                4.15607118                7.03274400              -17.60142293               -0.68282378               22.09003990              -54.18106776
              26.29315035               -5.33771112               61.50238778                0.60910842                3.68679943                9.70255637              -18.39101444                1.82428395                8.09421619              -65.34122955
              17.52386338               10.14370294               65.03243821                0.66835722               -0.51844639               -1.06338196                3.08466043               -0.10701348                0.11077412                6.98705055
              18.51867892                8.74821161               64.32465364                0.11411848               -0.94367892                0.03037804                0.36406926               -0.70455604               10.71574215               -6.40554784
              19.50498981                7.33713594               63.82927425                0.00010000               -1.52834132                0.38532175                2.05679999               -4.56850397               33.69001031              -13.92327111
              20.48811209                5.86567835               63.58729112                0.00010000               -0.98683810                0.88064474               -1.12041862               -8.02415489               45.42801772              -16.52859229
              21.48525304                4.39103098               63.33217125                0.00010000                0.37840118                1.13461167               -4.11800369               -8.48946486               44.09314133              -18.97428449
              22.49568012                2.91602928               63.06795379                0.00010000                1.66258573                1.56586455               -7.16550871               -8.60314715               43.18352928              -21.80355832
              23.51850476                1.44496729               62.79924009                0.00010000                2.87153581                2.35863955              -10.45784227               -8.06931032               42.67785432              -25.24084295
              24.55311083               -0.01465641               62.52918671                0.00010000                4.00248840                3.59250034              -14.08930847               -6.50224001               42.25231314              -29.91361847
              25.59855453               -1.45107952               62.25477365                0.01156142                5.11483877                5.50190891              -18.35871894               -2.88352231               41.22254595              -36.38287960
              26.65540761               -2.83916559               61.96287148                0.12457263                6.08545399                8.43077070              -23.74360430                0.16583667               23.83144300              -43.15266758
              27.72026361               -4.23503451               61.33023157                0.61156832                6.48559969               10.28176486              -25.40347230                2.07195668                7.75237294              -55.72067115
              18.91283991               11.13387364               64.86773345                0.66019838               -0.33772132               -0.90705184                2.64458516               -0.10557360                0.11752898                7.05794379
              19.90946270                9.74951157               64.09325438                0.10650859               -0.89287398                0.23234398               -0.39636513               -1.06545538               14.45113808               -6.25029574
              20.89498243                8.34235198               63.60565522                0.00032029               -1.66769625                0.66144990                2.22555023               -5.14597862               42.82318996              -12.34732767
              21.87610877                6.87720660               63.40514715                0.00010000               -1.19672740                1.38714704               -1.40604977               -8.41325400               56.23900415              -14.63172626
              22.87104788                5.40724980               63.19212051                0.00010000                0.12908282                1.98361368               -4.82581069               -8.75645014               54.76706037              -16.92366519
              23.87869043                3.93811182               62.96759264                0.00010000                1.37202545                2.71039430               -8.33590739               -8.57327926               53.37370484              -19.46605565
              24.89848839                2.47623224               62.73233525                0.00010000                2.59679913                3.75576475              -12.17051015               -7.68612034               52.01434960              -22.52670952
              25.93062641                1.03035386               62.48619960                0.00010000                3.91896367                5.21314174              -16.56940050               -5.62974096               50.63299455              -26.27982155
              26.97686767               -0.38584093               62.22745137                0.01512789                5.64638350                7.12942310              -21.84718491               -1.50654429               49.32222249              -30.48375875
              28.04355408               -1.75116761               61.95488048                0.13079319                7.47298350                9.08511698              -28.34188960                1.09997207               28.37057880              -34.05733961
              29.12632734               -3.13207583               61.26605428                0.61563650                8.27732541               10.38461530              -30.16179301                1.83541443                8.69668298              -45.93194133
              20.29047605               12.12556190               64.70373235                0.65332668               -0.15845824               -0.75925619                2.20677218               -0.10518752                0.12114098                7.06180851
              21.28889147               10.75285849               63.86294996                0.10184088               -0.80504232                0.44084033               -1.15104822               -1.41547800               18.88429561               -6.16074926
              22.27437520                9.35036494               63.39753522                0.00136880               -1.69711376                0.91086029                2.40685514               -5.54118743               52.86123949              -10.76955325
              23.25494919                7.89342129               63.24216657                0.00010000               -1.25781918                1.75545358               -1.60499114               -8.47524255               67.41934713              -12.57177893
              24.24921882                6.43070326               63.07429440                0.00010000                0.01414531                2.54484021               -5.34882168               -8.59899603               65.79817997              -14.38441232
              25.25523210                4.97023717               62.89270846                0.00010000                1.16607461                3.52127427               -9.21781818               -8.04836927               64.03764518              -16.40090527
              26.27254031                3.52008259               62.69641037                0.00010000                2.36785401                4.80493476              -13.50540426               -6.76255957               62.19322970              -18.73355008
              27.30258918                2.08960643               62.48489388                0.00010000                3.87023972                6.38893506              -18.49107576               -4.37701845               60.45187657              -21.35245107
              28.34994511                0.69150894               62.25945866                0.01907057                6.05263840                8.11004822              -24.48829611               -0.26167844               59.27820978              -23.96298411
              29.42364195               -0.65746325               62.02559537                0.13800765                8.44216100                9.54505125              -31.60369432                1.67468566               33.87596049              -25.93558993
              30.51878833               -2.02734221               61.28012654                0.62065242                9.51463797               10.66116808              -33.52039190                1.59154440                9.60421802              -37.83125902
              21.65614298               13.11868851               64.53968506                0.64730352                0.02071219               -0.61822047                1.77065398               -0.10597161                0.12701484                6.99179261
              22.65635010               11.75832837               63.63305930                0.09918190               -0.62735490                0.65671686               -1.90693729               -1.79607308               24.08186004               -6.12679810
              23.64359588               10.36056919               63.20553550                0.00269241               -1.50422516                1.04486508                2.58137585               -5.83539417               63.92595679               -9.00380483
              24.62626560                8.91231567               63.10033271                0.00010000               -1.06718972                1.83622772               -1.67780172               -8.20609026               79.11737053              -10.19677142
              25.62225209                7.45814661               62.98249643                0.00010000                0.10390569                2.72936460               -5.63085601               -7.90917033               77.35884923              -11.40157412
              26.62834371                6.00853730               62.84912718                0.00010000                1.08079250                3.93483131               -9.73540353               -6.95343751               75.32349356              -12.77357177
              27.64386794                4.57233093               62.69869451                0.00010000                2.16579902                5.43214569              -14.33306189               -5.38898656               73.21081700              -14.31282267
              28.67165969                3.15813256               62.53152583                0.00010000                3.74179181                7.12106214              -19.73265532               -2.98098031               71.35738743              -15.88888279
              29.71870378                1.77636004               62.35134286                0.02294083                6.21196233                8.71656769              -26.22918303                0.68994549               70.33657943              -17.24525233
              30.79589894                0.43973342               62.16632522                0.14497124                8.96061827                9.77439318              -33.55912533                1.92529103               39.84113547              -18.25496757
              31.89791614               -0.91885246               61.36334291                0.62548209               10.20171995               11.00558871              -35.54672167                1.25736807               10.39204873              -30.15705901
              23.00907689               14.11319749               64.37477900                0.64261757                0.20124367               -0.48116690                1.32997276               -0.10784364                0.16027902                6.93416215
              24.01108933               12.76599283               63.40303552                0.09879289               -0.26984346                0.87978525               -2.66598259               -2.30336362               30.17121694               -6.23197910
              25.00368003               11.37126224               63.03141078                0.00426012               -0.89196821                0.84042454                2.73877988               -6.10899344               76.24441906               -6.86432535
              25.99324997                9.93014585               62.98266931                0.00010000               -0.44331235                1.39174770               -1.61175943               -7.31314132               91.42766037               -7.37578413
              26.99481378                8.48529055               62.92045835                0.00010000                0.43645282                2.53431275               -5.63132026               -6.43938035               89.46518658               -7.98473096
              28.00197902                7.04893379               62.84080566                0.00010000                1.01757735                3.99952549               -9.81432922               -5.21027611               87.17300669               -8.75301146
              29.01516533                5.62872550               62.74262019                0.00010000                1.84807221                5.68030613              -14.54430692               -3.64307330               84.90706541               -9.60217635
              30.03894047                4.23202767               62.62774927                0.00010000                3.34889165                7.48504849              -20.16615279               -1.54441500               83.10358478              -10.33046997
              31.08214316                2.86584029               62.50224862                0.02713313                5.92098993                9.10227325              -26.97026500                1.27740598               82.09627917              -10.59522089
              32.15736027                1.53802461               62.37139634                0.15173977                8.94821441                9.80003859              -34.14362505                1.75182185               45.96518337              -10.62828401
              33.26110745                0.19276957               61.51027794                0.62950622               10.37471802               11.14384495              -36.23754952                0.80384212               10.98632730              -22.51121022
              24.34839544               15.10906517               64.20999042                0.63719201                0.38226495               -0.33995443                0.89149790               -0.10884423               -0.11526666                6.03513667
              25.35221808               13.77592408               63.17052699                0.09879950                0.44337811                1.10193587               -3.44231979               -3.18955999               37.31929660               -5.62323952
              26.35726300               12.37737768               62.87954578                0.00609505                0.68781882               -0.53424284                2.84008578               -5.07925535               90.15842890               -3.95838343
              27.36597446               10.94015062               62.89368178                0.00010000                0.87067692                0.59031898               -1.42508954               -4.91833250              104.28444880               -3.97080371
              28.37467654                9.50883286               62.89176576                0.00010000                0.73643893                2.19330855               -5.34090336               -3.74297454              101.95984349               -4.14977865
              29.38070324                8.08852781               62.87035252                0.00010000                0.66180290                3.92339430               -9.40063025               -2.80066896               99.38999102               -4.46589079
              30.38791259                6.68593705               62.82917710                0.00010000                1.14766828                5.71808906              -14.02960172               -1.71933686               96.97815259               -4.81725870
              31.40365661                5.30783353               62.77169952                0.00010000                2.51711790                7.53972290              -19.61918293               -0.34547733               95.33334241               -5.03370098
              32.43825495                3.95840550               62.70806494                0.03192056                5.01747490                9.21869688              -26.51868781                1.23308417               94.55860488               -4.72799977
              33.50400610                2.63573419               62.64016042                0.15722992                8.31240631                9.65441162              -33.21495882                1.21488647               52.25964850               -3.63169221
              34.60450308                1.30402444               61.71919733                0.63222222               10.04969748               10.76222266              -35.47370471                0.18989630               11.12092545              -13.62966582
              25.67318220               16.10639840               64.02744664                0.81752385                0.58034272               -0.26667707                0.36170240                0.64199086                2.73462150                5.13509034
              26.67898563               14.78803155               62.95202619                0.55071932                3.23430868                1.21074673               -4.15137925               -4.61429672               46.87700857               -4.88428346
              27.73786838               13.36057738               62.75912711                0.46539433                4.22212523               -1.68002961                2.81972729               -4.24342829              105.07987153               -2.08205963
              28.76342813               11.94195223               62.83874673                0.44291066                1.68543611                0.18016029               -1.22648557               -1.82566579              117.22974788               -1.86452803
              29.77157710               10.52915672               62.89963225                0.43719315                0.27166596                2.03238600               -4.79601507               -1.03747125              114.56445655               -1.92134021
              30.76886145                9.12740168               62.93944984                0.44138115               -0.50521119                3.88738648               -8.47512662               -0.48765062              111.72937934               -2.03568404
              31.76147287                7.74308728               62.95815066                0.45559969               -0.46494892                5.71502301              -12.70301462                0.12705050              109.05289666               -2.15003753
              32.75956247                6.38282213               62.95954471                0.48010418                0.87156545                7.49886006              -17.88929550                0.94693412              107.19211243               -2.14254017
              33.77890418                5.05021423               62.95529038                0.51756516                3.82382936                9.18087279              -24.46263026                1.47945892              106.74486914               -1.72061344
              34.83603906                3.73111285               62.95653610                0.58007881                7.47103474                9.53786583              -30.54966055                1.09328531               60.35620598                0.27875827
              35.92832488                2.40801402               62.01159013                0.81644172                9.22858158               10.39895835              -32.74425370                0.07229720               14.47876475               -7.86507373
              12.30813665                6.43908768               66.77020056                0.92481729               -1.35914181               -1.52625655                5.17900495               -0.38174132               -4.03336171                4.53480271
              13.29454523                4.93589014               66.27796235                0.68394130               -1.28888310               -0.89780987                3.51571040               -0.38559414               -5.70429046               -3.25962744
              14.28235898                3.42681811               65.75306821                0.53024009               -1.15520778               -0.48599880                1.70904371               -0.46089816               -5.87539866               -0.64737055
              15.27144107                1.90334078               65.25828332                0.47214516               -0.87741081               -0.01129185                0.00173050               -0.42822287               -3.63025735               -0.49689315
              16.26481077                0.36270439               64.77858290                0.45029259               -0.30660319                0.46556379               -1.75666694               -0.34861386               -2.23273002               -0.30397554
              17.26530901               -1.19255718               64.31134476                0.45505141                0.50025859                0.95343955               -3.55656552               -0.26286902               -1.36771732               -0.08134295
              18.27481594               -2.75531805               63.84796493                0.48671411                1.38725626                1.43712419               -5.36051762               -0.22430431               -1.47293958                0.14456865
              19.29305413               -4.31727227               63.37736344                0.55173442                2.17298818                1.90730152               -7.12459727               -0.23028737               -2.49636679                0.35882816
              20.31827570               -5.87244245               62.89211753                0.66757050                2.78869828                2.36600969               -8.84869886               -0.23985638               -4.20752459                0.44634484
              21.34882810               -7.41828939               62.38572681                0.86857264                3.27614804                2.81838455              -10.58741151               -0.24978641               -4.78340761                1.14416177
              22.38379866               -8.95520390               61.88718424                1.00000000                3.49705651                3.33992284              -12.29014258               -0.66440242               -4.29078036               -3.27180922
              13.80751678                7.42382512               66.57044922                0.76957721               -1.06927038               -1.53276396                4.54004807               -0.19584894                2.55369925                6.29764432
              14.79682407                5.92691204               66.07223906                0.25885474               -0.67460487               -0.69614069                2.88048932               -0.37907768                6.11518886               -5.92733514
              15.79402468                4.42195812               65.64580793                0.02710140                0.11958148                0.13893372                1.58015498               -1.51033320               10.00485672               -9.47274756
              16.79921570                2.90322786               65.22524014                0.01575325                0.76244643               -0.77932445                0.17806881               -2.92748474               11.07740223              -10.09228392
              17.80927361                1.36736002               64.82013517                0.01863613                1.12379171               -0.77326318               -1.23561607               -3.91360094               12.46692430              -11.55979677
              18.82169154               -0.18302279               64.42740052                0.02474885                1.28284159               -0.46793067               -2.69081793               -4.33407214               13.24947667              -13.53737560
              19.83493044               -1.74094681               64.03801160                0.03435675                1.38109601                0.02765077               -4.14146794               -4.09153799               13.03933102              -15.50679263
              20.84931346               -3.29819926               63.64085255                0.05206136                1.57276292                0.63189344               -5.55021496               -3.20647264               11.87537320              -16.49542810
              21.86638570               -4.84878235               63.22749053                0.16875177                1.91987495                1.57877053               -6.91421963               -1.67803690               10.36144583              -12.96849471
              22.88771096               -6.39010555               62.79891678                0.39915960                2.38417232                2.52468377               -8.28511714               -0.55936657                7.50874530                1.39445722
              23.91406915               -7.92180467               62.32696897                0.79807820                2.63581886                3.49802738               -9.79053980               -0.62395726                5.43578431               -8.24234941
              15.29804582                8.40843240               66.40680847                0.68769568               -0.92151518               -1.45307008                4.12304130               -0.13617688                0.19893911                7.61173464
              16.28883067                6.92196732               65.81359485                0.13632579               -1.11046639               -0.37325164                1.95583731               -0.25728819                7.26958966               -7.85107908
              17.27583650                5.42959678               65.36229970                0.00164103               -1.06706002                0.38611530                1.14968506               -3.66761244               18.73406314              -17.80841384
              18.26748947                3.88775429               65.00021982                0.00010000               -0.15235505               -0.87420171               -0.36378911               -7.07566447               23.00632937              -19.60479955
              19.27278940                2.34723912               64.63623303                0.00010000                0.97224646               -1.33071973               -2.33715971               -7.99272245               22.89642995              -22.74105351
              20.28693440                0.79808421               64.27368641                0.00010000                1.76861268               -1.19470494               -4.38171921               -8.63850823               23.02168140              -26.75578618
              21.30816165               -0.75476504               63.91409563                0.00010000                2.49129107               -0.68311127               -6.54537577               -8.18667225               23.65989226              -30.94611170
              22.33676022               -2.30463440               63.56601753                0.00010000                3.42298030                0.15420942               -8.89246075               -6.34614423               27.95937466              -34.19150110
              23.37662126               -3.84086704               63.29302484                0.00028336                3.69514290                1.49622634              -12.29482196               -3.75637632               41.55866374              -35.26153503
              24.41066308               -5.36779572               63.21529185                0.10409009                2.90482551                4.00169448               -8.37901866               -1.34631504               28.01546863              -35.87849973
              25.43471777               -6.88524335               62.66526635                0.59670974                2.40546844                6.36619542               -9.39908528                0.08372957                4.82668433              -47.89017838
              16.77772340                9.39476372               66.23440904                0.66810863               -0.72094678               -1.27576524                3.63707917               -0.11461783                0.10649960                7.21428902
              17.77051393                7.91944701               65.56935434                0.11316192               -1.14189682               -0.15736388                1.16270690               -0.64329915                9.41199339               -6.96566291
              18.75488546                6.42968042               65.09080824                0.00010000               -1.52269299                0.03773464                2.12192619               -4.27033409               26.93123067              -16.01390614
              19.74006007                4.88574383               64.78080056                0.00010000               -0.78981095                0.14837028               -0.79834225               -7.55595693               34.56886067              -18.69579614
              20.73908925                3.34074563               64.45679563                0.00010000                0.54327307               -0.00511336               -3.35307747               -8.24510718               33.47505372              -21.94519549
              21.75092554                1.79308312               64.12771801                0.00010000                1.74131790                0.23595449               -5.99609123               -8.67358162               33.04362819              -25.75104672
              22.77391560                0.24539096               63.79815834                0.00010000                2.87835205                0.84894165               -8.84808727               -8.34001796               33.41145893              -30.08090224
              23.80849258               -1.29511507               63.47939454                0.00010000                4.02519417                1.87811229              -12.06544776               -6.91206436               35.22350811              -35.26803510
              24.85441949               -2.81885783               63.18798319                0.00097498                4.83341944                3.39144990              -15.06591936               -4.13682556               35.80371952              -44.76253167
              25.90516097               -4.31007166               62.88024893                0.10794415                4.81097593                6.87681575              -19.35725879               -0.77476847               22.21787414              -65.47233746
              26.95063901               -5.79448076               62.30828617                0.60047888                4.54780409                9.68029445              -20.36524753                2.07948145                9.90613808              -77.49693346
              18.24638689               10.38291710               66.06374604                0.65853242               -0.53389073               -1.10073993                3.17619715               -0.10971033                0.11517508                7.33726042
              19.24104798                8.91882005               65.32833481                0.10324140               -1.11269474                0.03808732                0.37350700               -1.14181876               13.03236685               -6.70417150
              20.22413299                7.43035147               64.85157307                0.00010000               -1.78714257                0.25600677                2.25962197               -5.00556328               35.77281969              -13.72974281
              21.20530513                5.89072170               64.57640088                0.00010000               -1.17925148                0.81087719               -1.12526264               -8.08261863               45.17575323              -17.09694322
              22.20054796                4.34713686               64.29037176                0.00010000                0.17561535                1.15517451               -4.26205269               -8.63929769               44.00523644              -20.35631129
              23.20881744                2.80280330               63.99480937                0.00010000                1.45057546                1.65333332               -7.45412210               -8.82918195               42.97751090              -24.03412980
              24.22955947                1.26221379               63.69202575                0.00010000                2.69751447                2.49996727              -10.94758704               -8.36818738               42.16378229              -28.43915380
              25.26276773               -0.26707216               63.38393050                0.00010000                3.96409302                3.77096442              -14.88930227               -6.85543578               41.18425708              -34.28295716
              26.30884133               -1.77303804               63.06397019                0.00434002                5.40114590                5.67315544              -19.66128165               -3.22551676               39.12562773              -42.67229677
              27.37079064               -3.23025940               62.71310693                0.11132498                6.81421351                8.51883876              -25.89365286                0.06497721               23.06071854              -51.84025216
              28.44512560               -4.69163746               62.06214518                0.60223256                7.43349596               10.46392067              -27.99761969                2.26799824                8.93545475              -65.57385587
              19.70372330               11.37274892               65.89459830                0.65082278               -0.34801174               -0.93859023                2.72419200               -0.10860645                0.11860051                7.41357619
              20.70024318                9.92020875               65.08921445                0.09614025               -1.04253760                0.24391015               -0.40821887               -1.56690409               17.37556558               -6.54137029
              21.68287255                8.43480056               64.62917496                0.00025628               -1.93104314                0.63184778                2.28065082               -5.57718460               45.50009083              -12.16764565
              22.66162232                6.90196137               64.39110486                0.00010000               -1.43254276                1.40025269               -1.49195861               -8.35715474               55.96072707              -15.16747839
              23.65422169                5.36384912               64.14298346                0.00010000               -0.11786813                2.06803556               -5.03168611               -8.78262751               54.65693320              -18.15863193
              24.65926496                3.82614978               63.88242358                0.00010000                1.11028072                2.87448860               -8.68974727               -8.68394827               53.09821943              -21.48137289
              25.67642731                2.29539031               63.60752230                0.00010000                2.36853701                3.99490239              -12.74874090               -7.88834539               51.29483587              -25.46485758
              26.70663570                0.78030422               63.31533041                0.00010000                3.83345444                5.51710804              -17.51119712               -5.92664510               49.14337219              -30.40492975
              27.75309640               -0.70539472               63.00033879                0.00775073                5.92121143                7.47496628              -23.39980007               -1.84732952               46.57365639              -36.14679143
              28.82505993               -2.13969488               62.65558860                0.11703828                8.28293472                9.50887881              -31.11406860                1.02879686               27.35570445              -41.66227208
              29.91875509               -3.58520235               61.94652039                0.60609544                9.36951646               10.89274993              -33.47369885                2.13102285               10.12137219              -54.23176746
              21.14929509               12.36414529               65.72614466                0.64391745               -0.16368333               -0.78621319                2.27413431               -0.10775310                0.12677405                7.41957711
              22.14765826               10.92369825               64.85126342                0.09129976               -0.92292034                0.45776283               -1.18391466               -1.93673747               22.40550350               -6.45003086
              23.13083668                9.44298843               64.42206435                0.00121075               -1.92723901                0.96913906                2.25970916               -5.97704135               56.16832554              -10.56590573
              24.10911348                7.91872675               64.22570566                0.00010000               -1.50648399                1.84558618               -1.79588314               -8.34341850               67.21827416              -12.99642273
              25.10070700                6.38849757               64.01963898                0.00010000               -0.27580964                2.70026312               -5.62060523               -8.52041632               65.77509260              -15.42036261
              26.10359728                4.86029307               63.79845435                0.00010000                0.84655616                3.76033298               -9.62802093               -8.05272300               63.79151483              -18.13548344
              27.11763813                3.34211184               63.55787006                0.00010000                2.07112836                5.13952000              -14.15614726               -6.86650124               61.39657358              -21.31960655
              28.14501985                1.84327000               63.29413644                0.00010000                3.71278597                6.83238609              -19.56056677               -4.59456884               58.73842844              -25.00959669
              29.19189385                0.37646128               63.00446259                0.01141660                6.30771792                8.67771191              -26.31408697               -0.51472903               56.21893421              -28.97723695
              30.27117421               -1.04008182               62.69040836                0.12389738                9.34335742               10.27885891              -35.06396457                1.70260300               32.88727294              -32.48445439
              31.37876099               -2.47378246               61.92391521                0.61094847               10.75867847               11.46817056              -37.52722185                1.96270994               11.38003568              -44.95795026
              22.58246233               13.35702465               65.55769276                0.63827966                0.02029693               -0.64058229                1.82780917               -0.10817644                0.13057105                7.34936998
              23.58266530               11.92936401               64.61369398                0.08861691               -0.70795546                0.67883768               -1.96212282               -2.29934552               28.18668130               -6.42004860
              24.56830322               10.45418334               64.23082681                0.00232718               -1.67102422                1.17948622                2.19899287               -6.21227926               67.93374973               -8.79250465
              25.54924481                8.93887309               64.08257754                0.00010000               -1.30280850                1.99916466               -1.99151525               -8.01419589               79.11923115              -10.46449193
              26.54224705                7.41785438               63.92476042                0.00010000               -0.23242959                2.95689097               -5.96358015               -7.75133606               77.54465548              -12.18122609
              27.54459622                5.90135644               63.74952285                0.00010000                0.69366478                4.24570315              -10.18590457               -6.87232644               75.23740467              -14.15051337
              28.55612035                4.39818071               63.55165373                0.00010000                1.78993290                5.85257405              -15.03162413               -5.39252992               72.48324840              -16.42739261
              29.58039488                2.91695194               63.32787787                0.00010000                3.50166497                7.69647176              -20.89915511               -3.06960585               69.59504629              -18.94315645
              30.62615364                1.46815952               63.07781933                0.01489406                6.44804252                9.50362898              -28.29598837                0.58359119               67.21717179              -21.47729370
              31.70935573                0.06588230               62.80811751                0.13075325                9.96284602               10.80285692              -37.72875995                2.04112892               39.03923951              -23.65162504
              32.82541057               -1.35583894               61.98364545                0.61566835               11.60548346               12.13702822              -40.21935906                1.63681655               12.57088147              -36.10251746
              24.00245285               14.35133365               65.38831936                0.63376813                0.20598078               -0.49956291                1.37525427               -0.11120832                0.16700464                7.29045926
              25.00451266               12.93727500               64.37596667                0.08835494               -0.26854194                0.90791827               -2.74296930               -2.75704552               34.83152047               -6.53705035
              25.99708201               11.46657815               64.05681286                0.00356750               -0.96770701                1.05583363                2.07311158               -6.36396348               80.97901793               -6.66020216
              26.98515852                9.95871004               63.96504401                0.00010000               -0.69425385                1.63842695               -2.04500468               -7.07659886               91.78752252               -7.47082695
              27.98319693                8.44763539               63.86253808                0.00010000                0.03329556                2.83625762               -6.00883206               -6.24736177               90.00899244               -8.47385537
              28.98582443                6.94520713               63.74038685                0.00010000                0.54975457                4.37293808              -10.27870864               -5.08798001               87.42275499               -9.69962801
              29.99419203                5.45916332               63.59347342                0.00010000                1.39122464                6.16285314              -15.25078249               -3.57072608               84.44322365              -11.11783442
              31.01364892                3.99719944               63.41966831                0.00010000                3.02216446                8.14399858              -21.36687999               -1.49077470               81.49449546              -12.59602737
              32.05463531                2.56653386               63.22088339                0.01892038                6.11731602               10.05332955              -29.16059184                1.37884155               79.20219762              -13.82986100
              33.13599524                1.17597531               63.00457081                0.13712849               10.01522382               11.10859124              -38.95343341                1.96283839               45.55104950              -14.61904169
              34.25493979               -0.23104190               62.12129428                0.62001774               11.89445492               12.61482334              -41.50242290                1.11615890               13.60137277              -27.09657354
              25.40835545               15.34703340               65.21909043                0.62823652                0.39244279               -0.35435395                0.92548634               -0.11224961               -0.12318701                6.34776298
              26.41227988               13.94752237               64.13557252                0.08817608                0.56167274                1.13655592               -3.54376199               -3.55256944               42.50097239               -5.90571709
              27.41958891               12.47530001               63.90433877                0.00492318                0.71878616               -0.22849927                1.88019338               -5.18925205               95.67690907               -3.75136092
              28.42665561               10.97164163               63.87751645                0.00010000                0.56069093                0.93958864               -1.94505330               -4.72011994              105.17600258               -3.95187701
              29.43080273                9.47457953               63.83673246                0.00010000                0.23265398                2.56076708               -5.73144972               -3.59742594              103.06591341               -4.36362815
              30.43130868                7.98881520               63.77425120                0.00010000                0.09553934                4.34311823               -9.84096514               -2.70657374              100.22973105               -4.93734785
              31.43271351                6.52143777               63.68550562                0.00010000                0.59500809                6.23582223              -14.68720730               -1.64159959               97.07697081               -5.60763352
              32.44320885                5.07983192               63.56953744                0.00010000                2.11205436                8.22403674              -20.75496047               -0.22450179               94.18544140               -6.26468737
              33.47495460                3.66922611               63.43183529                0.02306862                5.14897055               10.19724193              -28.64500676                1.47367317               92.23328209               -6.59421695
              34.54618826                2.28805412               63.28160714                0.14279580                9.34067824               11.14653931              -38.31098517                1.49209152               52.41805661               -5.87232868
              35.66176817                0.89645753               62.33704776                0.62293209               11.55799087               12.38258489              -40.94558010                0.35339795               14.10689275              -16.36026205
              26.79922990               16.34424657               65.03117248                0.81316737                0.59647501               -0.27868259                0.38051583                0.66339975                2.87937998                5.40318165
              27.80519465               14.96000612               63.90987748                0.54530887                3.49739053                1.24837467               -4.27555852               -4.82044321               52.61612216               -5.13556909
              28.86917771               13.46200817               63.78299637                0.46337103                4.31409742               -1.32918452                1.72738191               -4.16633504              111.36684334               -1.84137615
              29.89147660               11.97750182               63.82443894                0.44269053                1.24485675                0.58601827               -1.76018451               -1.67577273              118.86596483               -1.84003857
              30.89407485               10.49885073               63.85023707                0.43716587               -0.33209403                2.42711931               -5.15499688               -0.94440425              116.54039359               -2.02993173
              31.88483472                9.03206950               63.85302165                0.44123420               -1.18657618                4.32542917               -8.84586315               -0.39594467              113.51507210               -2.29069805
              32.87034332                7.58387977               63.82847783                0.45461527               -1.17320862                6.24419970              -13.24020393                0.24351475              110.16773045               -2.57829037
              33.86137055                6.16168017               63.77583921                0.47797742                0.27716244                8.18482595              -18.82907911                1.14611658              107.08577756               -2.81177753
              34.87588657                4.77047870               63.70151441                0.51303589                3.86175529               10.12525904              -26.28125137                1.95449323              105.52059025               -2.77344854
              35.93860565                3.39890610               63.62628363                0.57264938                8.46571810               11.08519778              -35.31220623                1.54829438               61.30123331               -1.00008601
              37.04520093                2.01660980               62.65862037                0.81180733               10.65952816               12.01522694              -37.75198141                0.11364669               18.01861687               -9.47494414
              12.76753119                6.68823161               67.82271077                0.91928892               -1.39676217               -1.56824848                5.32063918               -0.39441293               -4.20103931                4.70564516
              13.75356357                5.11143966               67.31358055                0.67629791               -1.33034054               -0.91897993                3.60737800               -0.40701934               -5.94294586               -3.41203106
              14.74092438                3.52838595               66.77036014                0.52672149               -1.18641694               -0.49925404                1.75032700               -0.46871762               -6.13771883               -0.62051303
              15.72983523                1.93051035               66.25826697                0.47082040               -0.87681377               -0.00778115               -0.00332674               -0.43082823               -3.87041143               -0.50008824
              16.72338810                0.31549955               65.76074579                0.45040844               -0.27389148                0.48206484               -1.80860556               -0.35156873               -2.52379722               -0.30342770
              17.72435740               -1.31378096               65.27525429                0.45534809                0.55445198                0.98518113               -3.65615114               -0.27022947               -1.68656710               -0.08497329
              18.73447714               -2.95005219               64.79358646                0.48661646                1.45188865                1.48422484               -5.50895373               -0.23415299               -1.77860434                0.14118227
              19.75339517               -4.58508439               64.30508553                0.55024677                2.24488093                1.96891227               -7.32052573               -0.23879131               -2.76597429                0.35459451
              20.77937476               -6.21304101               63.80234356                0.66320558                2.87034953                2.44257238               -9.09502429               -0.24790586               -4.46621949                0.44746859
              21.81080216               -7.83151223               63.27835099                0.85846332                3.36932268                2.90941004              -10.88349695               -0.25885552               -5.03512608                1.15668644
              22.84676121               -9.44096975               62.76254969                1.00000000                3.59590522                3.44357212              -12.63676340               -0.67176260               -4.53010294               -3.42200968
              14.34037902                7.67254913               67.61646112                0.75873333               -1.09628081               -1.58089209                4.66139519               -0.20640327                2.71993080                6.58268162
              15.32941621                6.10224986               67.10140896                0.24570980               -0.68385809               -0.70501044                2.95376092               -0.40927437                6.46303837               -6.22544161
              16.32670185                4.52339341               66.66176141                0.02779766                0.12769678                0.04647623                1.61197706               -1.60305571               10.48561076               -9.56135707
              17.33197014                2.93043254               66.22695828                0.01673197                0.76581079               -0.88193045                0.16440433               -3.06167031               11.50393228              -10.44440022
              18.34201807                1.32032020               65.80749322                0.01967743                1.12304150               -0.83315542               -1.29413110               -4.07287074               12.86555357              -12.37225259
              19.35443097               -0.30392914               65.39994028                0.02606543                1.28846305               -0.50937167               -2.79953258               -4.51760459               13.63109170              -14.82872397
              20.36778733               -1.93520994               64.99581322                0.03626485                1.40353487               -0.01617575               -4.29800500               -4.30424477               13.44553288              -17.34650389
              21.38250167               -3.56539527               64.58430409                0.05481981                1.61611461                0.56986067               -5.75653418               -3.43980138               12.32007341              -19.00954387
              22.40010962               -5.18861529               64.15705540                0.16177752                1.98381531                1.46177948               -7.16903187               -1.90950533               10.82363045              -16.71238039
              23.42217798               -6.80241813               63.71456099                0.38415645                2.46957411                2.63948111               -8.58911933               -0.67104875                7.90027797               -0.07666382
              24.44950110               -8.40653403               63.22734577                0.78723312                2.73231283                3.63816724              -10.14075868               -0.52432990                5.76013082               -9.63080275
              15.90400166                8.65661377               67.44858025                0.67731095               -0.94678615               -1.50298235                4.23451427               -0.13453745                0.18350784                7.97684587
              16.89453380                7.09733945               66.83339863                0.12463273               -1.16605422               -0.36995358                2.00712518               -0.39435125                7.97751792               -8.22768955
              17.88068058                5.52931547               66.37461410                0.00091210               -1.14293878                0.08503245                1.31629084               -4.00859569               19.75526097              -17.43237634
              18.87167503                3.91287174               65.99670012                0.00010000               -0.21941031               -1.04679156               -0.36176295               -7.32862157               23.46115136              -20.28789290
              19.87629237                2.29883644               65.61252841                0.00010000                0.89302089               -1.44026363               -2.41059398               -8.25432365               23.13802779              -24.32962449
              20.88953545                0.67603161               65.22913003                0.00010000                1.67829991               -1.27101091               -4.52684425               -8.97217886               23.17464390              -29.28645142
              21.90985837               -0.95037570               64.84737817                0.00010000                2.42345237               -0.76393932               -6.78389388               -8.58822787               23.63207316              -34.54785463
              22.93800449               -2.57368718               64.47504745                0.00010000                3.41745727                0.03127239               -9.27254393               -6.83308430               27.25124178              -39.09475461
              23.97820752               -4.18380542               64.16709201                0.00010000                3.86477182                1.32700983              -12.79883536               -3.99480634               43.69037366              -41.48537041
              25.01529993               -5.77872261               64.12433443                0.09189997                3.31494451                3.76866403              -10.07754860               -1.31210491               31.46851204              -44.00839690
              26.04450641               -7.36820641               63.56592122                0.58831507                2.92064787                6.10027047              -10.65994961                0.33649768                6.29725891              -56.20709518
              17.45623691                9.64248948               67.27127550                0.65825816               -0.74094289               -1.31774464                3.73636416               -0.11448539                0.11072205                7.55954322
              18.44882748                8.09485079               66.58113544                0.10196542               -1.26196341               -0.15356887                1.19526216               -1.02150006               11.18818917               -7.27424440
              19.43099764                6.52509406               66.11294564                0.00010000               -1.64753722               -0.25705542                2.17881024               -4.68272671               28.51815163              -15.41700810
              20.41587674                4.90949671               65.77281170                0.00010000               -0.86129572                0.02817218               -0.84382112               -7.62128461               34.43453180              -19.31327114
              21.41377173                3.29151493               65.42274538                0.00010000                0.41614008               -0.05597590               -3.47285650               -8.40945786               33.55205458              -23.45053405
              22.42419954                1.67065064               65.06670159                0.00010000                1.59849167                0.23047518               -6.20211460               -8.89813777               32.99051161              -28.16765149
              23.44574156                0.04951127               64.70788600                0.00010000                2.75350816                0.85979766               -9.18017238               -8.63097820               33.05193467              -33.52295754
              24.47926970               -1.56476982               64.35582699                0.00010000                3.97536824                1.87178788              -12.58909674               -7.23696608               34.71013345              -39.90309532
              25.52524893               -3.16207509               64.03243305                0.00010000                5.05335795                3.34621794              -15.97225583               -4.42959484               34.61616916              -50.55267960
              26.58033686               -4.72704485               63.67882915                0.09438449                5.49748592                6.37061537              -20.68600906               -0.96532349               22.00540479              -76.85861422
              27.63519865               -6.28452862               63.09508283                0.59070731                5.48617837                9.17302734              -22.12961824                2.07111279               11.45722540              -90.31077134
              18.99698935               10.63025888               67.09596216                0.64897833               -0.54901181               -1.13714696                3.26333398               -0.11194498                0.11740811                7.69849624
              19.99149923                9.09426807               66.33212378                0.09251498               -1.23046128                0.04523791                0.38608358               -1.62573234               15.41136980               -7.00705455
              20.97238012                7.52417436               65.87446669                0.00010000               -1.93353835                0.17068659                2.14322635               -5.43683433               37.95476909              -13.61019981
              21.95282846                5.91343519               65.56478586                0.00010000               -1.27154160                0.75277694               -1.27004412               -8.04096840               44.95157519              -17.68351024
              22.94694929                4.29771693               65.24693019                0.00010000                0.03739400                1.16475078               -4.45158181               -8.68489909               43.95947523              -21.74883455
              23.95357634                2.68064111               64.91887134                0.00010000                1.28549890                1.70943699               -7.72854774               -8.94901170               42.79233768              -26.27600293
              24.97265927                1.06682025               64.58028834                0.00010000                2.56375972                2.57897526              -11.36381151               -8.55779104               41.61743550              -31.65795323
              26.00485154               -0.53625142               64.23140067                0.00010000                3.96156918                3.84095727              -15.53760292               -7.11468258               39.98341120              -38.69431549
              27.05189065               -2.11688106               63.86154802                0.00010000                5.67977259                5.64029674              -20.64514425               -3.61126049               36.71811478              -49.04136262
              28.11844699               -3.65131031               63.44499842                0.09720219                7.45027730                8.26651867              -27.33345625               -0.18575465               21.90560025              -60.81766769
              29.20089620               -5.18474586               62.77027918                0.59197248                8.24492089               10.30237082              -30.03480359                2.24107214                9.71859248              -76.05650874
              20.52597963               11.61974654               66.92221729                0.64137281               -0.35822745               -0.96999443                2.79752533               -0.10986752                0.12189955                7.78066691
              21.52239735               10.09575555               66.08509000                0.08518513               -1.14428932                0.25551349               -0.41416122               -2.08280704               20.27694292               -6.83821344
              22.50309384                8.52850779               65.65126823                0.00010000               -2.04412727                0.66103018                1.94623667               -6.01419720               48.23371262              -12.09880980
              23.48151481                6.92455225               65.37530797                0.00010000               -1.51130099                1.42924828               -1.75951916               -8.23931327               55.78298360              -15.73141915
              24.47286782                5.31480994               65.09148679                0.00010000               -0.26994138                2.14010636               -5.30116870               -8.73450881               54.62710413              -19.40050717
              25.47611598                3.70483938               64.79379770                0.00010000                0.93052285                2.98935547               -9.03244195               -8.72320935               52.87256941              -23.49863855
              26.49147828                2.10109078               64.47736044                0.00010000                2.22806929                4.13693910              -13.24110238               -8.03298157               50.56986650              -28.40976868
              27.52067737                0.51204932               64.13597566                0.00010000                3.83021612                5.65592274              -18.25508544               -6.22231296               47.53134410              -34.56216456
              28.56808260               -1.04926916               63.75945537                0.00059316                6.19046001                7.56823596              -24.54322893               -2.38012918               43.40826642              -41.93291720
              29.64448657               -2.56171448               63.33259911                0.10243104                8.94042988                9.58145296              -32.93842773                0.71378732               25.83536115              -49.80688604
              30.74689120               -4.07848120               62.59658030                0.59548197               10.24046324               11.05597962              -36.04031439                2.24728448               11.07158853              -63.36763929
              22.04277399               12.61085899               66.74921503                0.63483051               -0.16921482               -0.81226657                2.33755692               -0.10944887                0.13157101                7.79098008
              23.04108185               11.09937834               65.83927167                0.08071764               -0.97372598                0.47343064               -1.21123473               -2.44558541               25.79607770               -6.74632565
              24.02329947                9.53739497               65.44272940                0.00073294               -1.96709024                1.07313959                1.66758617               -6.35323548               59.48260817              -10.50758884
              25.00174004                7.94202015               65.20624891                0.00010000               -1.56637438                1.95676149               -2.19612649               -8.18370518               67.19938160              -13.46190775
              25.99197199                6.34051905               64.96188229                0.00010000               -0.44543610                2.84065232               -5.97171249               -8.41299344               65.87678966              -16.46321011
              26.99283132                4.74042822               64.70014804                0.00010000                0.64088525                3.93775803              -10.03408115               -8.04387505               63.62897797              -19.86758278
              28.00478969                3.14955903               64.41328742                0.00010000                1.89669479                5.35444697              -14.71568177               -6.99307915               60.61760210              -23.90876083
              29.03076521                1.57686703               64.09368255                0.00010000                3.66310899                7.08441163              -20.40958749               -4.91788654               56.89172780              -28.70928916
              30.07805187                0.03448366               63.73317692                0.00391262                6.55847844                8.98312598              -27.68238619               -1.09116541               52.54796815              -34.17114284
              31.16193478               -1.45968125               63.32431608                0.10879659               10.06617323               10.71264712              -37.49143182                1.41305623               31.23866108              -39.74032155
              32.27937534               -2.96362627               62.52958210                0.59978970               11.74405525               12.00996620              -40.76393882                2.17483271               12.70502273              -53.02164623
              23.54675195               13.60350121               66.57624125                0.62930197                0.01977208               -0.66249960                1.87864639               -0.11028696                0.13413771                7.71960880
              24.54694967               12.10522416               65.59381684                0.07788567               -0.66823146                0.69974701               -2.00911319               -2.76931229               32.03962040               -6.71998406
              25.53338732               10.54997058               65.24951535                0.00155238               -1.61165259                1.35756341                1.32559783               -6.53265578               71.88457312               -8.75660145
              26.51471662                8.96368748               65.06050240                0.00010000               -1.35937187                2.18851191               -2.52381040               -7.84062132               79.39879909              -10.79244738
              27.50619988                7.37162299               64.86322482                0.00010000               -0.42590596                3.16611767               -6.39203545               -7.62070667               77.90739625              -12.97140888
              28.50619850                5.78359454               64.64540909                0.00010000                0.44890021                4.48923295              -10.64467501               -6.83879029               75.27358836              -15.52466652
              29.51517789                4.20817972               64.39806203                0.00010000                1.55982568                6.14789426              -15.64585861               -5.49491718               71.80039140              -18.54616577
              30.53739501                2.65373756               64.11354273                0.00010000                3.38148422                8.07902621              -21.84696000               -3.35655831               67.67893344              -22.04679753
              31.58280757                1.13039336               63.78542309                0.00729742                6.67313010               10.03717308              -29.90436361                0.10168238               63.28234751              -25.91263614
              32.67085762               -0.34746154               63.41175002                0.11514710               10.77351626               11.59176966              -40.88196833                1.86801691               37.47054812              -29.86201955
              33.79827790               -1.83828188               62.55895572                0.60453171               12.74202819               13.05310271              -44.21509700                1.93359737               14.41475528              -43.04655140
              25.03712236               14.59760900               66.40228409                0.62496466                0.21038707               -0.51669538                1.41462054               -0.11279322                0.17500665                7.65997386
              26.03922623               13.11337328               65.34817613                0.07740329               -0.14696628                0.93373851               -2.81124575               -3.15116219               39.11958884               -6.85084204
              27.03418304               11.56454623               65.07287302                0.00238990               -0.79755151                1.30981847                0.94506895               -6.60564820               85.61893558               -6.66382402
              28.02327520                9.98579039               64.94176922                0.00010000               -0.72661213                1.90153385               -2.70681727               -6.91603077               92.53300290               -7.63497576
              29.01965079                8.40384141               64.80028170                0.00010000               -0.18882101                3.11191586               -6.49997347               -6.12586687               90.79395884               -8.97679122
              30.01949878                6.83021288               64.63523148                0.00010000                0.25487679                4.67757570              -10.77157693               -5.04991464               87.84193063              -10.64407342
              31.02474833                5.27251692               64.43760454                0.00010000                1.09608109                6.53001254              -15.89476237               -3.63887202               84.06419468              -12.63771453
              32.04142041                3.73844756               64.20041167                0.00010000                2.82681409                8.63156662              -22.37620639               -1.68245227               79.74271654              -14.90656606
              33.08128461                2.23522712               63.91903678                0.01089328                6.32749803               10.77483879              -30.96234782                1.08749535               75.27388031              -17.24141082
              34.16797037                0.77215415               63.59232767                0.12148425               10.92016781               12.20181693              -42.77936350                1.92529092               44.20948745              -19.39117737
              35.29968797               -0.70256421               62.68022948                0.60882164               13.17176031               13.88874928              -46.14496878                1.40225446               15.96412079              -32.60957107
              26.51296752               15.59316731               66.22850015                0.61961094                0.40216719               -0.36555315                0.95330033               -0.11496488               -0.13149008                6.67234015
              27.51698919               14.12389893               65.09965175                0.07743471                0.79448636                1.16684869               -3.63515994               -3.83712038               47.19521989               -6.19885973
              28.52885725               12.57616695               64.91714965                0.00327459                1.00558203                0.09442135                0.54158225               -5.28600156              101.05958445               -3.72872942
              29.53710083               11.00171816               64.85478072                0.00010000                0.52014041                1.27580450               -2.69995451               -4.60370549              106.57688839               -3.97967511
              30.53926006                9.43386131               64.77713676                0.00010000               -0.02880688                2.88537274               -6.25588349               -3.52103206              104.47763548               -4.58750060
              31.53652469                7.87714605               64.67353322                0.00010000               -0.25471409                4.69169690              -10.33898799               -2.68289934              101.29626280               -5.40564799
              32.53416577                6.33877997               64.53543296                0.00010000                0.22555371                6.65300706              -15.32266778               -1.67577847               97.32882428               -6.39855635
              33.54103577                4.82636889               64.35660032                0.00010000                1.83425578                8.77677423              -21.75874685               -0.30343966               92.96598772               -7.51941910
              34.57085089                3.34589014               64.13516481                0.01479173                5.30594981               11.00799440              -30.49143935                1.38964343               88.78899220               -8.57096777
              35.64715477                1.89657480               63.87394071                0.12665292               10.24544098               12.48020065              -42.62583624                1.52951852               51.66983043               -8.56222277
              36.77575971                0.43949310               62.90028573                0.61184472               12.86049434               13.89670617              -45.98083694                0.50861846               17.13285183              -19.63092794
              27.97335982               16.59029794               66.03505696                0.80887241                0.61243649               -0.28693685                0.39197806                0.68046180                3.02656530                5.68216015
              28.97948418               15.13671026               64.86651502                0.53967359                3.86419800                1.28113276               -4.38832457               -4.94366462               57.82683126               -5.39877319
              30.05064378               13.56643466               64.79367475                0.46123199                4.70112759               -0.97322864                0.30533806               -4.09153559              117.51843267               -1.79570603
              31.07350674               12.01130648               64.80354304                0.44245067                1.15792400                0.95883255               -2.51757516               -1.60369979              121.08658032               -1.86397785
              32.07380226               10.46154886               64.79653231                0.43724184               -0.62923009                2.76875540               -5.66331670               -0.90876277              118.86456493               -2.16463293
              33.06092213                8.92404682               64.76253258                0.44091608               -1.58961664                4.69007689               -9.31121707               -0.35884624              115.59418131               -2.56392368
              34.04200993                7.40557706               64.69334659                0.45367733               -1.63403450                6.67970891              -13.82030641                0.28122623              111.54832154               -3.03438266
              35.02824144                5.91398304               64.58296312                0.47580222               -0.15691786                8.76141538              -19.74049528                1.21106472              107.08165142               -3.53459833
              36.03887157                4.45538701               64.42966535                0.50871947                3.83581635               10.94968666              -27.96132703                2.19082385              103.41816845               -3.96923148
              37.10495777                3.02175816               64.25029197                0.56474160                9.25760805               12.51833595              -39.57680871                1.77944571               61.73269518               -2.58388883
              38.22402373                1.57536991               63.25655050                0.80637631               11.90659592               13.58768048              -42.58783167                0.18757704               22.10837718              -11.43317868
              13.24237631                6.94569989               68.87661335                0.91366252               -1.43393653               -1.60906147                5.45872750               -0.40638010               -4.37145927                4.87993119
              14.22803694                5.29199269               68.35010991                0.66861120               -1.37290604               -0.94075657                3.69799208               -0.42996761               -6.18463773               -3.56747575
              15.21491819                3.63160531               67.78807475                0.52348708               -1.21948760               -0.51282946                1.79399964               -0.47487557               -6.39973256               -0.59250871
              16.20364719                1.95595639               67.25821679                0.46970347               -0.87853419               -0.00496908               -0.00519094               -0.43168288               -4.10634429               -0.50295162
              17.19734750                0.26314097               66.74241079                0.45044424               -0.24550970                0.49913783               -1.85474399               -0.35373468               -2.81043459               -0.30078620
              18.19873700               -1.44362864               66.23822173                0.45574794                0.60325544                1.01556326               -3.74663036               -0.27880658               -2.00388649               -0.08893983
              19.20941261               -3.15694792               65.73778586                0.48666071                1.51202771                1.52793249               -5.64215324               -0.24297546               -2.08359748                0.13777195
              20.22897755               -4.86861751               65.23095292                0.54861195                2.31366184                2.02654518               -7.50149884               -0.24892373               -3.03581516                0.34727007
              21.25568585               -6.57291677               64.71021704                0.65881873                2.94709437                2.51383575               -9.32277841               -0.25635106               -4.72883160                0.44634004
              22.28791944               -8.26757566               64.16805687                0.84816343                3.45566731                2.99533940              -11.15926712               -0.26530304               -5.29152925                1.16835703
              23.32479920               -9.95323625               63.63444897                1.00000000                3.68797569                3.54439936              -12.96308451               -0.67575970               -4.77519341               -3.56494761
              14.89201971                7.92960928               68.66367713                0.74796370               -1.12351546               -1.62724751                4.78123616               -0.21727035                2.89208238                6.87779774
              15.88078456                6.28258512               68.13131427                0.23266462               -0.69160655               -0.71528185                3.02707357               -0.44110106                6.82062640               -6.52793898
              16.87818758                4.62647702               67.67804747                0.02854976                0.13889888               -0.09201466                1.64238624               -1.69781907               10.97462055               -9.57490353
              17.88356253                2.95590670               67.22852823                0.01774936                0.77075476               -0.99066914                0.15061849               -3.15968384               11.93299799              -10.79330038
              18.89360268                1.26813235               66.79425254                0.02075183                1.12154221               -0.88732506               -1.35456904               -4.18035869               13.26806830              -13.18816302
              19.90599338               -0.43347301               66.37140986                0.02740217                1.29373086               -0.53887440               -2.90521582               -4.64802078               14.01155525              -16.13119120
              20.91947729               -2.14166860               65.95205150                0.03818106                1.42396813               -0.04234986               -4.45282699               -4.47029843               13.84458619              -19.21267586
              21.93447274               -3.84835206               65.52572186                0.05752727                1.65620603                0.52825566               -5.95786694               -3.65080776               12.76129275              -21.59172325
              22.95260141               -5.54777842               65.08410990                0.15448136                2.04767029                1.34823384               -7.41975891               -2.19071524               11.28148579              -20.53043748
              23.97542615               -7.23762226               64.62713440                0.36912079                2.55503889                2.76719195               -8.88598629               -0.83645862                8.28727939               -2.37126693
              25.00370219               -8.91779225               64.12415379                0.77650938                2.82760442                3.80569660              -10.48586620               -0.38249126                6.08054579              -11.55808589
              16.53207921                8.91315494               68.49149875                0.66732496               -0.97320302               -1.55183028                4.34477812               -0.13687670                0.16482078                8.35478720
              17.52234718                7.27768705               67.85373735                0.11320643               -1.22194916               -0.36740773                2.06092235               -0.57834497                8.77211687               -8.60971069
              18.50764023                5.62976502               67.38862552                0.00024638               -1.17744978               -0.24946732                1.47149641               -4.30796902               20.81096436              -17.10819386
              19.49879818                3.93614301               66.99298456                0.00010000               -0.22600921               -1.22570197               -0.40503625               -7.44910591               23.85974610              -20.97043235
              20.50312004                2.24539447               66.58802115                0.00010000                0.83896719               -1.53995903               -2.49956918               -8.39556846               23.38385540              -25.92563947
              21.51557753                0.54559387               66.18314953                0.00010000                1.58828251               -1.32691086               -4.66760769               -9.17938086               23.32335081              -31.83236878
              22.53488569               -1.15779492               65.77841775                0.00010000                2.32468442               -0.81548860               -6.99540952               -8.86473314               23.56937731              -38.18778834
              23.56207122               -2.85805240               65.38056665                0.00010000                3.31280285               -0.05890667               -9.59302354               -7.22408600               26.50666537              -44.08257339
              24.60114175               -4.54595210               65.03704813                0.00010000                3.95664448                1.17054938              -13.16781900               -4.15200602               45.04560824              -47.91163454
              25.64120411               -6.21223182               65.01374088                0.07916444                3.81738025                3.48571639              -12.40203042               -1.19885459               34.41055306              -52.50657639
              26.67748936               -7.87712232               64.45206736                0.57977543                3.62852489                5.63690562              -12.43742285                0.68964785                8.33955561              -65.11678790
              18.16021796                9.89857267               68.30913632                0.64845449               -0.76103788               -1.36048540                3.83166638               -0.11694091                0.11308915                7.91246490
              19.15260758                8.27523697               67.59325958                0.09076866               -1.33228580               -0.14813269                1.23038663               -1.43306669               12.94376078               -7.58663372
              20.13357224                6.62148767               67.13438444                0.00010000               -1.68283058               -0.49700677                1.97614116               -5.04591188               30.14242190              -14.96613032
              21.11895097                4.93139266               66.76392414                0.00010000               -0.86658968               -0.07938955               -0.97629677               -7.55397791               34.34406283              -19.97249728
              22.11624045                3.23733317               66.38733850                0.00010000                0.33220916               -0.09878553               -3.62576427               -8.44359720               33.65117903              -24.97251727
              23.12559515                1.53998877               66.00367572                0.00010000                1.47942246                0.22966311               -6.40059410               -8.97915133               32.93679749              -30.59838779
              24.14582890               -0.15797837               65.61455489                0.00010000                2.62765248                0.86876065               -9.46097497               -8.75128996               32.65148175              -36.98414164
              25.17814820               -1.84953019               65.22761261                0.00010000                3.89559088                1.84726340              -13.00011822               -7.36419985               34.02476018              -44.56149913
              26.22374071               -3.52436743               64.86853807                0.00010000                5.22355378                3.25322377              -16.73112133               -4.49568098               33.21518906              -56.40990884
              27.28261927               -5.16790793               64.46652875                0.08018079                6.17677155                5.59245518              -21.59740920               -1.08596672               21.48709707              -87.56367377
              28.34727614               -6.80505414               63.86569380                0.58003921                6.46568701                8.14286083              -23.65187787                1.85770873               12.50109491             -103.02013263
              19.77641180               10.88594523               68.12901272                0.63955141               -0.56409535               -1.17316461                3.34489288               -0.11218779                0.11969094                8.06898777
              20.77077084                9.27472440               67.33605648                0.08134005               -1.29227519                0.05298151                0.40268193               -2.09984128               17.67187379               -7.31312860
              21.75056629                7.61982488               66.89443759                0.00010000               -1.94488575                0.15369904                1.70132647               -5.82062946               40.12499754              -13.60518336
              22.73187313                5.93455522               66.55100000                0.00010000               -1.24571529                0.72386396               -1.55080131               -7.91468270               44.85235503              -18.32656578
              23.72565199                4.24341876               66.20134013                0.00010000               -0.02835455                1.17768526               -4.69017608               -8.61672406               43.97189522              -23.15983100
              24.73130604                2.55018713               65.84023841                0.00010000                1.18634349                1.74557699               -7.99553390               -8.92954581               42.62258772              -28.52312804
              25.74937886                0.85958029               65.46474952                0.00010000                2.49351203                2.60871123              -11.70989653               -8.57382390               41.03487185              -34.87113159
              26.78117628               -0.82110713               65.07317844                0.00010000                4.01135079                3.81546219              -16.02412427               -7.17242359               38.69368507              -43.08312459
              27.82960587               -2.48088762               64.65106731                0.00010000                5.94976033                5.43427289              -21.27772931               -3.91890137               34.19412123              -55.27931661
              28.90017149               -4.10038271               64.16643781                0.08283053                7.96650350                7.63788387              -27.94546181               -0.56772644               20.40660328              -69.56169090
              29.98893594               -5.71426510               63.46144911                0.58107706                8.87644582                9.65980430              -31.19964273                1.85917839                9.89829987              -86.45475577
              21.38041587               11.87510938               67.95054881                0.63208918               -0.36847720               -1.00021457                2.86622799               -0.11120595                0.12609414                8.15976431
              22.37673110               10.27629660               67.08093123                0.07426708               -1.15435214                0.26602495               -0.41527236               -2.56265629               22.95528218               -7.13906105
              23.35732883                8.62456165               66.66809969                0.00010000               -1.98338313                0.73823240                1.25790663               -6.37406727               50.91253915              -12.17510491
              24.33706344                6.94586994               66.35591447                0.00010000               -1.45273881                1.48694752               -2.18359857               -8.07998474               55.79894643              -16.34859354
              25.32827405                5.26088687               66.03696009                0.00010000               -0.31103698                2.20382852               -5.63489981               -8.61389770               54.69303806              -20.65760663
              26.33084270                3.57490031               65.70177474                0.00010000                0.86863128                3.05714431               -9.37115627               -8.66126704               52.68362217              -25.51214167
              27.34564668                1.89419586               65.34270025                0.00010000                2.21624726                4.18273674              -13.64983346               -8.05222277               49.83253639              -31.33249680
              28.37516764                0.22677905               64.95022870                0.00010000                3.94957965                5.63121387              -18.78255908               -6.40445998               45.84670943              -38.66985666
              29.42463827               -1.41568197               64.50947421                0.00010000                6.47372906                7.39791638              -25.20384306               -2.96577543               40.08036725              -47.66725873
              30.50464222               -3.01515026               63.99682005                0.08749408                9.37931061                9.31717726              -33.61344402                0.15973394               23.85964919              -57.94151699
              31.61222448               -4.61185806               63.22571411                0.58412050               10.75822595               10.88371433              -37.43033083                1.99889314               11.28571800              -72.67994582
              22.97181324               12.86594094               67.77289579                0.62579299               -0.17477963               -0.83808022                2.39519093               -0.11070347                0.13477728                8.17360021
              23.97006544               11.28004490               66.82703873                0.06980435               -0.91508178                0.48816324               -1.23145464               -2.89494544               28.84090347               -7.04719198
              24.95351160                9.63458953               66.45541607                0.00010000               -1.80586151                1.21730218                0.73143403               -6.68852155               62.66912086              -10.63383046
              25.93394821                7.96429417               66.18178313                0.00010000               -1.45839704                2.08169489               -2.76263058               -8.03231567               67.44887591              -13.97805773
              26.92434366                6.28749533               65.90020473                0.00010000               -0.45882490                2.95699601               -6.39987185               -8.28749601               66.10922114              -17.52250068
              27.92477172                4.61133002               65.59777273                0.00010000                0.60559999                4.04396792              -10.44392906               -7.99361090               63.52816334              -21.59094357
              28.93645566                2.94323503               65.26355642                0.00010000                1.90965953                5.43722086              -15.18644688               -7.07325061               59.84417264              -26.46713415
              29.96296491                1.29151715               64.88594469                0.00010000                3.78820059                7.12539069              -21.00892294               -5.23597386               54.95451349              -32.36592589
              31.01221968               -0.33292929               64.45081487                0.00010000                6.82886723                8.98644542              -28.47892740               -1.83006438               48.58550929              -39.36447521
              32.09954225               -1.91403917               63.94057972                0.09287230               10.50548645               10.78902851              -38.52253452                0.84651585               29.01860114              -47.25074460
              33.22232940               -3.49659081               63.10863644                0.58795887               12.27871535               12.22203562              -42.65819441                2.09832478               13.25324640              -61.56002274
              24.54999389               13.85834777               67.59526568                0.62046140                0.01897066               -0.68333574                1.92417975               -0.11100842                0.13911529                8.10136048
              25.55018360               12.28605986               66.57351172                0.06731375               -0.53423843                0.71891788               -2.04872966               -3.15950062               35.41726063               -7.02569138
              26.53930912               10.64890770               66.25733877                0.00053925               -1.33361364                1.55389224                0.15605700               -6.80999937               75.59438051               -8.91076647
              27.52351133                8.98750384               66.03210133                0.00010000               -1.19104202                2.37190205               -3.22675424               -7.72096142               80.02589295              -11.18567937
              28.51548828                7.32002679               65.79691971                0.00010000               -0.41402734                3.33461464               -6.91008674               -7.52269929               78.43701533              -13.78481008
              29.51523078                5.65577967               65.53662935                0.00010000                0.42531256                4.64357569              -11.12158496               -6.82590150               75.40063897              -16.89025671
              30.52399454                4.00294027               65.23873655                0.00010000                1.56908543                6.29015389              -16.17967377               -5.63263700               71.13965102              -20.63224299
              31.54661249                2.36928687               64.89093867                0.00010000                3.47993830                8.22466917              -22.53791234               -3.73936146               65.65285806              -25.11323524
              32.59359330                0.76404694               64.47973206                0.00010000                6.93107859               10.24466127              -30.89460655               -0.63396537               58.84052507              -30.38971626
              33.68523406               -0.79936969               63.99047815                0.09874551               11.28504830               12.00001227              -42.48148680                1.39928784               35.13171483              -36.49322154
              34.81929427               -2.36741734               63.09934351                0.59216253               13.40602068               13.60137430              -46.82272075                1.99969369               15.42258420              -50.62165851
              26.11416889               14.85227423               67.41661177                0.61624683                0.21466140               -0.53202206                1.44753242               -0.11366971                0.18304592                8.04261845
              27.11631551               13.29442325               66.31974175                0.06651757                0.08493725                0.95732142               -2.87115044               -3.46278362               42.82918449               -7.17291256
              28.11586764               11.66566738               66.07571424                0.00101216               -0.39528105                1.55080001               -0.42495339               -6.81742684               89.94938902               -6.83407818
              29.10840989               10.01173221               65.91090767                0.00010000               -0.51268966                2.13852342               -3.52933839               -6.83924098               93.70262299               -7.88563309
              30.10561385                8.35418762               65.73253861                0.00010000               -0.15348407                3.32760589               -7.09711711               -6.07080143               91.79118669               -9.50963468
              31.10534021                6.70420153               65.52495531                0.00010000                0.23409411                4.88107373              -11.30647162               -5.07212751               88.38518720              -11.58312078
              32.11029573                5.06903811               65.27557817                0.00010000                1.08654030                6.73921622              -16.48467339               -3.79813145               83.73266123              -14.12733033
              33.12707101                3.45601053               64.97214419                0.00010000                2.89505963                8.88026083              -23.15378781               -2.04449557               77.86059295              -17.18166831
              34.16819692                1.87196393               64.60163643                0.00308127                6.59606386               11.15656233              -32.16576354                0.48756456               70.66210977              -20.69888387
              35.25899229                0.32596108               64.14898354                0.10446412               11.51108349               12.91075278              -44.96549191                1.63513099               42.00494975              -24.66484025
              36.39841859               -1.22456333               63.19839490                0.59615681               13.94263015               14.74676491              -49.36079037                1.56960449               17.59337077              -38.77173382
              27.66342244               15.84770733               67.23815644                0.61121356                0.41123316               -0.37490358                0.97365985               -0.11629534               -0.14113879                7.00510124
              28.66753478               14.30520629               66.06286932                0.06628692                1.11145931                1.19404296               -3.71516421               -4.04928290               51.24728487               -6.49714598
              29.68565163               12.67992370               65.91517042                0.00148682                1.53357430                0.36882408               -0.95087569               -5.41406377              106.12195411               -3.83151674
              30.69820626               11.03027431               65.82351736                0.00010000                0.79756518                1.54827018               -3.61060610               -4.57020182              108.47357793               -4.08003979
              31.70160293                9.38657891               65.71161479                0.00010000                0.03657415                3.12896697               -6.90755248               -3.50552018              106.14514601               -4.83517315
              32.69893775                7.75340115               65.56747144                0.00010000               -0.26900142                4.92953858              -10.91544036               -2.71452232              102.51726703               -5.87132382
              33.69622291                6.13772460               65.37905227                0.00010000                0.19295035                6.91633751              -15.95525930               -1.79627910               97.66063554               -7.16790180
              34.70279675                4.54689208               65.13436250                0.00010000                1.85855711                9.11260295              -22.59971795               -0.54663081               91.64645497               -8.74828557
              35.73339405                2.98717818               64.82200650                0.00678912                5.58335935               11.50645249              -31.84015953                1.03387282               84.48620034              -10.53445676
              36.81446394                1.45884537               64.42909042                0.10974939               10.91705580               13.42823644              -45.40428718                1.38609432               49.96427328              -11.73345776
              37.95173516               -0.07248205               63.41743102                0.59923484               13.72712247               14.99900102              -49.71823640                0.68890021               19.61052646              -23.53334506
              29.19684507               16.84477615               67.03901205                0.80477283                0.62684148               -0.29311778                0.39603459                0.69505849                3.17813694                5.96465581
              30.20311349               15.31830411               65.82211098                0.53425637                4.28366375                1.30978221               -4.48589661               -5.02874378               62.38729183               -5.66350628
              31.28251835               13.67304386               65.78910313                0.45907971                5.36185748               -0.68798377               -1.20709727               -4.09365337              123.39130317               -1.88548195
              32.31035064               12.04269761               65.77408744                0.44221627                1.49291294                1.24233058               -3.43652090               -1.59940750              123.83046263               -1.95387187
              33.31237661               10.41676696               65.73697073                0.43723206               -0.52232810                3.01880500               -6.32193908               -0.91789845              121.44703673               -2.33133034
              34.29990407                8.80279230               65.66679731                0.44082920               -1.57486978                4.93911575               -9.90471803               -0.37347238              117.83613845               -2.85342567
              35.28087921                7.20736486               65.55207170                0.45280493               -1.66096323                6.96402595              -14.48354980                0.23914476              113.03711160               -3.50061434
              36.26668481                5.63826259               65.38102930                0.47381054               -0.19790588                9.13705084              -20.62712083                1.12521191              107.07018330               -4.28249984
              37.27692109                4.10209298               65.14228787                0.50473941                3.98447985               11.49147971              -29.36033943                2.16586509              100.45208952               -5.18738377
              38.34637441                2.59452581               64.83474745                0.55611513                9.89651654               13.56804371              -42.63258962                1.85723226               61.31394894               -4.69348366
              39.47485142                1.07541669               63.80686374                0.80014052               12.84770166               14.78987390              -46.45038825                0.40071469               25.94349253              -14.07812377
              13.73310887                7.21170268               69.93188532                0.90817774               -1.46994618               -1.64830006                5.59192124               -0.41837637               -4.54233152                5.05408262
              14.71840941                5.47768142               69.38754039                0.66136531               -1.41430114               -0.96177808                3.78449547               -0.45072040               -6.42443229               -3.72339731
              15.70482285                3.73659032               68.80624013                0.52006604               -1.25185568               -0.52457522                1.83777434               -0.47690331               -6.65755814               -0.56493046
              16.69337230                1.97982844               68.25816315                0.46874316               -0.88241928               -0.00296742               -0.00357457               -0.43422624               -4.33914554               -0.50234923
              17.68717446                0.20580033               67.72365091                0.45068044               -0.22338478                0.51462556               -1.89343103               -0.35588917               -3.09307937               -0.29857144
              18.68890460               -1.58193601               67.20032168                0.45622570                0.64497677                1.04552523               -3.82606879               -0.28556627               -2.31450263               -0.08919187
              19.70007400               -3.37582803               66.68074340                0.48619647                1.56715414                1.57326854               -5.76906515               -0.25773683               -2.38613161                0.12958417
              20.72024769               -5.16767686               66.15505555                0.54708571                2.38100921                2.08334013               -7.67525801               -0.26144959               -3.30715724                0.34041431
              21.74769418               -6.95189992               65.61588799                0.65389559                3.02459793                2.58447887               -9.54290692               -0.26790251               -4.98834249                0.43872820
              22.78073964               -8.72630015               65.05516565                0.83721934                3.53894754                3.07726682              -11.42001348               -0.27491925               -5.54463853                1.17600671
              23.81847314              -10.49167835               64.50328800                0.99578248                3.77334917                3.63642097              -13.26361828               -0.67781056               -5.01750288               -3.70873018
              15.46294637                8.19521968               69.71208584                0.73764624               -1.14879814               -1.67261792                4.89489258               -0.23000355                3.06550825                7.17592926
              16.45145839                6.46806364               69.16195043                0.21995258               -0.69830301               -0.72407483                3.09650993               -0.47175732                7.18098356               -6.83030887
              17.44898031                4.73134457               68.69460913                0.02934895                0.14833228               -0.28878488                1.66765970               -1.77175330               11.46718728               -9.52276613
              18.45442503                2.97979877               68.22997065                0.01879757                0.77587457               -1.08806244                0.13873516               -3.21479860               12.36410118              -11.15898716
              19.46449780                1.21094658               67.78040184                0.02185509                1.12190432               -0.92813146               -1.41316729               -4.23247398               13.66773525              -14.01403219
              20.47686312               -0.57148076               67.34183597                0.02876137                1.29346286               -0.54728033               -3.00633999               -4.71703360               14.38961579              -17.43929187
              21.49036706               -2.36009535               66.90675668                0.04010302                1.44030059               -0.04034101               -4.60677058               -4.58039546               14.24586886              -21.09214556
              22.50566913               -4.14684346               66.46514675                0.06020317                1.69798726                0.52237366               -6.15892568               -3.83500245               13.20343533              -24.20526864
              23.52432680               -5.92605513               66.00866022                0.14707879                2.11052665                1.27168155               -7.67069757               -2.52163735               11.74309333              -24.37611190
              24.54787966               -7.69552748               65.53684126                0.35411589                2.63732112                2.90258283               -9.17557115               -1.07534433                8.67839457               -5.85331114
              25.57707322               -9.45531414               65.01762845                0.76588856                2.91935604                3.97980874              -10.81411842               -0.17009445                6.39855886              -14.35672191
              17.18282088                9.17825032               69.53547581                0.65737157               -0.99715045               -1.59974335                4.44546872               -0.13974978                0.14434021                8.73752647
              18.17284938                7.46319993               68.87461708                0.10197431               -1.25841106               -0.36323283                2.11315295               -0.82197561                9.63565909               -8.99096565
              19.15765266                5.73081462               68.40404403                0.00010000               -1.16875318               -0.56925992                1.57164262               -4.54657568               21.86391967              -16.92961556
              20.14947431                3.95806719               67.98859940                0.00010000               -0.19240740               -1.38837223               -0.49308945               -7.40990104               24.18705193              -21.68824309
              21.15380451                2.18723770               67.56253703                0.00010000                0.80657736               -1.61004867               -2.60696471               -8.42014426               23.63640893              -27.54137901
              22.16560586                0.40711838               67.13577788                0.00010000                1.50121400               -1.34626206               -4.80630474               -9.25082832               23.46760411              -34.39135950
              23.18382879               -1.37663485               66.70746998                0.00010000                2.19507784               -0.82039906               -7.18021472               -8.99402570               23.48180799              -41.84416292
              24.20950742               -3.15722939               66.28318698                0.00010000                3.10583321               -0.08840665               -9.85871861               -7.48594203               25.75342977              -49.10651611
              25.24594546               -4.92646629               65.90373563                0.00010000                3.94921726                1.08813447              -13.46531101               -4.23546704               45.27585127              -54.47802901
              26.28849176               -6.66824849               65.87629382                0.06710955                4.43495482                3.22561127              -15.43270800               -1.02862366               36.52261250              -61.20762744
              27.33464455               -8.41208217               65.31717277                0.57135798                4.61527907                5.05005565              -14.96456576                1.10749326               11.04131740              -74.56640412
              18.89025217               10.16322481               69.34790883                0.63900714               -0.77975937               -1.40120888                3.91945442               -0.11884475                0.11491831                8.27223794
              19.88245458                8.46079898               68.60574318                0.07963705               -1.35353193               -0.14330335                1.26703104               -1.83014947               14.54121230               -7.89857056
              20.86318153                6.71995937               68.15246846                0.00010000               -1.63253178               -0.62295879                1.55321729               -5.32418871               31.71496271              -14.77664382
              21.84980394                4.95203132               67.75328577                0.00010000               -0.80689018               -0.15768274               -1.18733835               -7.38575225               34.36554732              -20.70718891
              22.84704373                3.17874561               67.35023010                0.00010000                0.29575825               -0.11694903               -3.81171504               -8.35465257               33.77353646              -26.52604651
              23.85571910                1.40159400               66.93868971                0.00010000                1.38952938                0.24805764               -6.59462785               -8.91180502               32.88076615              -33.04707916
              24.87483431               -0.37650333               66.51866650                0.00010000                2.50313100                0.89435539               -9.69330479               -8.68088563               32.21673793              -40.45399721
              25.90578172               -2.14861160               66.09582463                0.00010000                3.79011252                1.83496899              -13.30501254               -7.24445362               33.17386368              -49.21238255
              26.95063656               -3.90429244               65.69781062                0.00010000                5.35706749                3.15313759              -17.36279120               -4.29177019               31.67772201              -62.23011779
              28.01292307               -5.63101526               65.24688097                0.06555869                6.81269399                4.77065361              -22.18669429               -1.11575470               20.64486385              -96.81273655
              29.08689044               -7.35431302               64.62204528                0.56896478                7.39673700                6.91104451              -24.89799265                1.37997505               12.82451710             -114.65657844
              20.58529565               11.15022615               69.16286001                0.63033406               -0.57838140               -1.20830295                3.41981920               -0.11500307                0.12037574                8.44735562
              21.57951183                9.46033386               68.34017742                0.07066859               -1.26795475                0.05965451                0.42303373               -2.51865786               19.65627375               -7.61971388
              22.55993655                7.71835545               67.90849322                0.00010000               -1.82694000                0.20339203                1.02507810               -6.11202374               42.17014520              -13.75478976
              23.54297303                5.95491354               67.53376984                0.00010000               -1.13938826                0.73829632               -1.93524913               -7.73136660               44.93463012              -19.05022179
              24.53714879                4.18489872               67.15312667                0.00010000               -0.01771663                1.20237982               -4.97210112               -8.45047082               44.04379014              -24.60922139
              25.54261870                2.41207953               66.75896067                0.00010000                1.16339440                1.77341163               -8.25686709               -8.76586527               42.45660549              -30.78577970
              26.56041667                0.64125225               66.34609041                0.00010000                2.48943785                2.60686380              -11.98763349               -8.38844056               40.41384591              -38.07635273
              27.59240746               -1.12053001               65.91091818                0.00010000                4.10485205                3.72487691              -16.34855867               -6.97999582               37.35078433              -47.41029692
              28.64251371               -2.86340354               65.43599343                0.00010000                6.18948974                5.09652750              -21.56923801               -3.99216869               31.76892733              -61.22451761
              29.71619725               -4.57283542               64.88608919                0.06816892                8.31629359                6.81642595              -27.85708020               -0.89705811               18.78461930              -77.60683947
              30.80883959               -6.27386128               64.14628632                0.56996707                9.26423354                8.75227883              -31.47783620                1.29376418                9.61347053              -95.98354562
              22.26773668               12.13905876               68.97954185                0.62291972               -0.37845655               -1.03060114                2.93002264               -0.11226685                0.13010163                8.54731695
              23.26395212               10.46199208               68.07678456                0.06379696               -1.06876516                0.27600757               -0.41172291               -2.95818684               25.24016962               -7.44166196
              24.24636138                8.72402721               67.67642637                0.00010000               -1.76593881                0.85619156                0.35917761               -6.65969458               53.36317768              -12.40166259
              25.22863334                6.96679725               67.33163600                0.00010000               -1.27465319                1.56793025               -2.71371458               -7.91390702               56.05426415              -17.03840100
              26.22086831                5.20279320               66.97878879                0.00010000               -0.22925388                2.26053525               -6.02038455               -8.43584927               54.84013287              -21.95437499
              27.22404826                3.43706223               66.60637457                0.00010000                0.94033662                3.08376046               -9.70551914               -8.48675310               52.50803624              -27.53575839
              28.23967505                1.67563395               66.20436377                0.00010000                2.33946680                4.14638987              -13.97490753               -7.90458910               49.07087058              -34.23001175
              29.27083760               -0.07411406               65.76032447                0.00010000                4.17117772                5.46842784              -19.08765158               -6.39031263               44.13418524              -42.68399292
              30.32309860               -1.80236189               65.25537851                0.00010000                6.73010294                7.01699197              -25.37269742               -3.39796849               36.86998417              -53.18761023
              31.40543966               -3.49468674               64.66033023                0.07245010                9.58594224                8.72405939              -33.23803309               -0.43087843               21.67657919              -65.67997668
              32.51481745               -5.17926745               63.84797368                0.57264456               10.93777893               10.27025781              -37.52915825                1.51629187               10.86416521              -81.68936897
              23.93718367               13.12961412               68.79711885                0.61692431               -0.18040304               -0.86231525                2.44702154               -0.11073599                0.13837488                8.56723111
              24.93537964               11.46585401               67.81464258                0.05924571               -0.76230911                0.50076164               -1.24507211               -3.24325815               31.39247509               -7.35197390
              25.92193749                9.73547928               67.45735808                0.00010000               -1.47253702                1.37149337               -0.35661495               -6.96289641               65.55152084              -10.89947508
              26.90592890                7.98627214               67.15099630                0.00010000               -1.18853345                2.20260553               -3.42949665               -7.91748287               67.98690201              -14.58335434
              27.89816682                6.23010942               66.83388486                0.00010000               -0.29430014                3.03998544               -6.88674785               -8.14867734               66.44482119              -18.62213423
              28.90004290                4.47375474               66.49126946                0.00010000                0.76671808                4.07722962              -10.85524005               -7.87915986               63.45125295              -23.31948316
              29.91350118                2.72418005               66.10955848                0.00010000                2.12770724                5.39395836              -15.56627462               -7.04648270               59.04815729              -28.98816504
              30.94259704                0.98883854               65.67350409                0.00010000                4.08129227                6.96937065              -21.34652551               -5.43123387               52.97466824              -35.93003943
              31.99512702               -0.72306370               65.16359837                0.00010000                7.09440986                8.70696816              -28.65882604               -2.51063891               44.65399949              -44.39706160
              33.08448524               -2.39835423               64.55386539                0.07697735               10.65999077               10.44784750              -38.17507996                0.15241902               26.41538570              -54.58448762
              34.20832684               -4.06845612               63.67641821                0.57584168               12.38416027               11.93969636              -42.97688581                1.69888144               12.94568146              -70.08938210
              25.59304219               14.12181245               68.61472484                0.61204004                0.01796097               -0.70217554                1.96195074               -0.11353224                0.14147803                8.49167545
              26.59322180               12.47200731               67.55284225                0.05637868               -0.31784340                0.73517085               -2.07881143               -3.45137808               38.22437145               -7.33477268
              27.58668532               10.75145708               67.25263649                0.00010000               -0.87841281                1.72768719               -1.07754989               -7.05452675               78.97099365               -9.21326355
              28.57565354                9.01084936               66.99596732                0.00010000               -0.81365756                2.51947784               -4.02294316               -7.66448831               80.98054050              -11.67345976
              29.57041217                7.26359291               66.72502309                0.00010000               -0.16295525                3.44221077               -7.49496703               -7.44912320               79.09583675              -14.64354675
              30.57239444                5.51860682               66.42297739                0.00010000                0.66247107                4.69768187              -11.61264571               -6.79798653               75.56200222              -18.25892511
              31.58366159                3.78351311               66.07446856                0.00010000                1.85311164                6.27372745              -16.62940258               -5.73109850               70.45410378              -22.67423694
              32.60945667                2.06527335               65.66278448                0.00010000                3.82085065                8.12759083              -22.94935135               -4.08793400               63.54832709              -28.08529031
              33.66007860                0.37177747               65.16753096                0.00010000                7.22118983               10.10193493              -31.19071515               -1.42213580               54.29366610              -34.74368252
              34.75388046               -1.28572979               64.56212029                0.08211801               11.44601270               11.92996510              -42.34714727                0.72873302               32.21908847              -43.10729357
              35.88899886               -2.94047352               63.62250131                0.57940563               13.51183913               13.61848624              -47.51719633                1.74591797               15.37349077              -58.34259753
              27.23452331               15.11557061               68.43123474                0.60780905                0.21841394               -0.54716998                1.47364014               -0.11747882                0.18944210                8.43199181
              28.23670745               13.48055743               67.29075313                0.05589524                0.37407964                0.97897347               -2.92032517               -3.69192376               45.89810489               -7.49747000
              29.24200490               11.77003302               67.06437395                0.00010000                0.18979247                1.73453209               -1.78128496               -6.99663794               93.88887840               -7.13883890
              30.24050330               10.03666170               66.87118245                0.00010000               -0.02890061                2.30441177               -4.43259392               -6.83024505               95.23751706               -8.22840102
              31.24142689                8.29895364               66.65833936                0.00010000                0.18298337                3.45664019               -7.77290573               -6.05782953               92.93838985              -10.09094055
              32.24416296                6.56770838               66.40910205                0.00010000                0.53928934                4.96353764              -11.87853024               -5.11304584               88.97183972              -12.52579174
              33.25221268                4.84965460               66.10791107                0.00010000                1.42055179                6.77076449              -17.01624582               -3.97460906               83.37187865              -15.57254651
              34.27257400                3.15139036               65.73733592                0.00010000                3.27373877                8.86223533              -23.66859003               -2.45628153               75.86133109              -19.36115221
              35.31768745                1.47897500               65.27572151                0.00010000                6.93684440               11.13860466              -32.63606346               -0.26884582               65.76044773              -24.04965509
              36.41131089               -0.15975493               64.69301784                0.08712091               11.75226051               13.09357622              -45.24572438                1.10369231               39.05247179              -30.05609828
              37.55273266               -1.79608640               63.69301367                0.58288996               14.14217729               15.04154458              -50.60037786                1.48136247               18.10968717              -45.14958385
              28.86071898               16.11086905               68.24797334                0.60264683                0.42019304               -0.38453842                0.98587122               -0.11815881               -0.15016163                7.34666499
              29.86492091               14.49158678               67.02534847                0.05549201                1.49646545                1.21996903               -3.78407103               -4.21449237               54.62888462               -6.79997474
              30.89064829               12.78614772               66.89813214                0.00010000                2.26035577                0.54132854               -2.37413173               -5.50803477              110.77413138               -4.01657902
              31.91012803               11.05693759               66.78256860                0.00010000                1.37803037                1.72136007               -4.59013234               -4.58384568              110.75641672               -4.25639448
              32.91820890                9.33272572               66.63898571                0.00010000                0.46522648                3.26283600               -7.65726854               -3.52268938              107.97160332               -5.11894558
              33.91943256                7.61787757               66.45522441                0.00010000                0.11392642                5.03090984              -11.56574883               -2.77081721              103.77406765               -6.34091880
              34.92048742                5.91892840               66.21632777                0.00010000                0.57890400                6.99356510              -16.58163901               -1.95260126               97.94699743               -7.90777287
              35.93101064                4.24251806               65.90460596                0.00010000                2.26797772                9.18045421              -23.24342060               -0.87619494               90.17042342               -9.90270059
              36.96584698                2.59454957               65.49836162                0.00010000                6.00025385               11.60507919              -32.52483605                0.50657157               79.70949726              -12.41520477
              38.05101571                0.97614174               64.96585497                0.09185832               11.27210310               13.81646761              -46.22584386                1.05789013               47.40194838              -15.01254700
              39.19128904               -0.63964263               63.90592100                0.58556746               14.02733288               15.55141988              -51.51725300                0.71798119               21.06546637              -27.53970593
              30.47072468               17.10787984               68.04297765                0.80052340                0.64142516               -0.29892071                0.39382897                0.70826635                3.33793425                6.25619299
              31.47713893               15.50495681               66.77679709                0.52855526                4.78843554                1.33700304               -4.57508014               -5.12921044               66.29835753               -5.93281279
              32.56649339               13.78085959               66.76953280                0.45706942                6.25547285               -0.52881268               -2.63241256               -4.10888529              128.89955723               -2.04503721
              33.60224839               12.07108890               66.73481262                0.44200961                2.17698651                1.41513060               -4.43358373               -1.62042566              126.94508178               -2.10623256
              34.61003312               10.36421036               66.67009353                0.43726896                0.01477738                3.14846395               -7.10828048               -0.95569380              124.15164736               -2.53003548
              35.60254394                8.66832658               66.56443822                0.44067735               -1.07564780                5.04490005              -10.62413949               -0.42308474              120.05806521               -3.15485163
              36.58852016                6.98952590               66.40367559                0.45202035               -1.15574979                7.05974989              -15.22729159                0.13691749              114.41479039               -3.96239875
              37.57942894                5.33499945               66.17042071                0.47173156                0.28375219                9.24813842              -21.45573370                0.91936461              106.82198881               -5.00076631
              38.59419521                3.71107659               65.84245856                0.50074722                4.36159725               11.65270201              -30.32611083                1.91357163               96.93008430               -6.38555476
              39.66666088                2.11657442               65.39764018                0.54737802               10.22329026               14.04326838              -43.97885571                1.75778782               60.18007885               -6.92012974
              40.79866101                0.51494200               64.32754273                0.79347464               13.20001291               15.45846253              -48.68393150                0.57395499               29.06848168              -16.78429540
              14.24021955                7.48638050               70.98845177                0.90278880               -1.50260564               -1.68431264                5.71507490               -0.42946967               -4.71208008                5.22225312
              15.22519349                5.66870465               70.42579982                0.65394394               -1.45376390               -0.98023988                3.86451142               -0.47184453               -6.66006407               -3.87717718
              16.21114427                3.84356871               69.82483024                0.51669688               -1.28699932               -0.53509051                1.87974643               -0.48382778               -6.90900584               -0.53742010
              17.19945350                2.00229441               69.25814530                0.46774382               -0.89084402               -0.00036989                0.00136288               -0.43521656               -4.56471226               -0.49799374
              18.19332739                0.14366768               68.70454217                0.45079890               -0.20495201                0.52979032               -1.92641849               -0.36030588               -3.36671819               -0.29681291
              19.19535446               -1.72844106               68.16170036                0.45660991                0.68143624                1.07260117               -3.89795742               -0.29488446               -2.62399910               -0.09084948
              20.20695611               -3.60638280               67.62240456                0.48628603                1.61676767                1.61447119               -5.88548203               -0.26475114               -2.68984346                0.12497398
              21.22768982               -5.48199163               67.07744776                0.54527123                2.44263957                2.14027670               -7.83870776               -0.27038566               -3.57816514                0.33288379
              22.25580890               -7.34968668               66.51935890                0.64916137                3.09684188                2.65383873               -9.75423671               -0.27476924               -5.25062370                0.43091859
              23.28962665               -9.20740675               65.93965660                0.82584333                3.61977615                3.15900901              -11.67084751               -0.28033693               -5.79617660                1.18327211
              24.32820443              -11.05609174               65.36917661                0.98718932                3.85777729                3.72802849              -13.55462074               -0.67904248               -5.25431098               -3.85411644
              16.05360070                8.46953737               70.76157498                0.72707331               -1.17197556               -1.71490084                4.99893206               -0.24031559                3.24128567                7.47297027
              17.04188094                6.65890225               70.19324447                0.20727705               -0.70447922               -0.73148294                3.16068597               -0.50104585                7.54261127               -7.13025954
              18.03951111                4.83821780               69.71140067                0.03020591                0.15854538               -0.51276655                1.69298951               -1.84097545               11.96556361               -9.44351616
              19.04505185                3.00229071               69.23130293                0.01987226                0.77904747               -1.16156892                0.12642231               -3.23297488               12.80034152              -11.56215252
              20.05509206                1.14896559               68.76598920                0.02298592                1.11895055               -0.94645260               -1.46770562               -4.23317004               14.06718024              -14.85954590
              21.06743086               -0.71771505               68.31128306                0.03012539                1.29959125               -0.53230028               -3.10386429               -4.72807356               14.76333292              -18.75577079
              22.08108389               -2.59023809               67.85991609                0.04198903                1.46035204               -0.01026020               -4.75024521               -4.63585888               14.64030397              -22.96631736
              23.09663790               -4.46058886               67.40254335                0.06279727                1.73424425                0.55655165               -6.35641915               -3.98629316               13.64208495              -26.82542986
              24.11576877               -6.32314829               66.93069594                0.14010177                2.16939568                1.25118034               -7.91481411               -2.87423831               12.20363003              -28.21678776
              25.14002581               -8.17581666               66.44362297                0.33989920                2.71651109                3.04913389               -9.46023125               -1.35352990                9.07616875              -10.86314699
              26.17009899              -10.01881146               65.90787143                0.75569637                3.00731791                4.16122569              -11.13316163                0.11818958                6.72832358              -18.45463633
              17.85668347                9.45208248               70.58040813                0.64763404               -1.01913291               -1.64520753                4.53999980               -0.13840242                0.12430541                9.12578748
              18.84649214                7.65407499               69.89600041                0.09079285               -1.28735854               -0.35985201                2.16208637               -1.08889300               10.52568006               -9.36947480
              19.83093630                5.83331338               69.42005837                0.00010000               -1.12229625               -0.83560990                1.57530979               -4.70970851               22.87381568              -16.94109887
              20.82404622                3.97906303               68.98312277                0.00010000               -0.11332807               -1.51061332               -0.62078928               -7.25631573               24.45757318              -22.48371095
              21.82866974                2.12473863               68.53588186                0.00010000                0.79752230               -1.63714948               -2.73192013               -8.34674612               23.90067164              -29.19640432
              22.83999667                0.26091294               68.08702343                0.00010000                1.42215044               -1.32102767               -4.94338634               -9.19917131               23.61605790              -36.96812676
              23.85711275               -1.60658800               67.63481346                0.00010000                2.04387469               -0.77203319               -7.34055118               -8.99143415               23.38613267              -45.49990996
              24.88087416               -3.47086060               67.18339228                0.00010000                2.82195922               -0.04600919              -10.07327229               -7.61158090               25.01663579              -54.12885045
              25.91355193               -5.32466307               66.76774191                0.00010000                3.86725290                1.09603548              -13.73500504               -4.25467154               44.05468385              -61.15715786
              26.95821922               -7.14642407               66.70508672                0.05559578                5.15029383                3.09293135              -18.91387621               -0.84740351               37.39706405              -69.95588686
              28.01655781               -8.97286723               66.15277605                0.56359857                5.83385940                4.57560942              -18.28738998                1.52262801               14.16902537              -84.34443800
              19.64684763               10.43663322               70.38752541                0.62941788               -0.79754382               -1.44115815                4.00114398               -0.11774974                0.11718570                8.63794622
              20.63887219                8.65170521               69.61860020                0.06931637               -1.32593608               -0.13931269                1.30503374               -2.16783248               15.88839312               -8.20918322
              21.62032891                6.82150560               69.16544879                0.00010000               -1.51859557               -0.62710948                1.02649475               -5.50931459               33.16583044              -14.91355989
              22.60850028                4.97207844               68.74017737                0.00010000               -0.70108368               -0.19312420               -1.45828706               -7.16984734               34.54006079              -21.54326799
              23.60630723                3.11622260               68.31110420                0.00010000                0.31368953               -0.10314972               -4.02483731               -8.17734105               33.92584216              -28.13217853
              24.61477407                1.25586440               67.87178316                0.00010000                1.33607519                0.29368696               -6.78387545               -8.72118043               32.83005994              -35.52414930
              25.63302874               -0.60567875               67.42068879                0.00010000                2.38536426                0.94719894               -9.87880097               -8.43939689               31.76966838              -43.93334245
              26.66248135               -2.46150905               66.96151235                0.00010000                3.66050403                1.85238414              -13.51109355               -6.90670210               32.16743760              -53.83718052
              27.70623882               -4.30122758               66.52128225                0.00010000                5.44002713                3.08586057              -17.87486311               -3.80937526               30.08009918              -67.94049504
              28.77128190               -6.11395803               66.02279486                0.05140575                7.35995238                4.02276528              -22.59662078               -0.93599618               19.57429391             -104.05442530
              29.85343786               -7.92729927               65.36773395                0.55797064                8.21559680                5.65014056              -25.89060915                0.87854000               12.49085194             -124.41852738
              21.42418450               11.42325932               70.19740910                0.62112691               -0.59213830               -1.24181727                3.49000308               -0.11281447                0.12351979                8.83323957
              22.41826312                9.65128874               69.34451715                0.05982244               -1.19038582                0.06464949                0.44607953               -2.83551730               21.27549041               -7.92630976
              23.40037678                7.82077119               68.91493916                0.00010000               -1.61654181                0.30789674                0.27650555               -6.33380823               43.98382920              -14.06045381
              24.38593228                5.97520055               68.51229502                0.00010000               -0.95199094                0.78985088               -2.37757473               -7.54047660               45.21913675              -19.88634239
              25.38133696                4.12267564               68.10189810                0.00010000                0.07710632                1.24092952               -5.28390763               -8.21914805               44.17391675              -26.12073276
              26.38747441                2.26678668               67.67510107                0.00010000                1.21806480                1.80059744               -8.50856401               -8.48326414               42.29590949              -33.08314431
              27.40569826                0.41235598               67.22499685                0.00010000                2.54072726                2.59031512              -12.19718493               -8.02570691               39.76969662              -41.28357503
              28.43828895               -1.43381291               66.74620727                0.00010000                4.20575786                3.60111676              -16.51781293               -6.54732946               36.01953469              -51.66345927
              29.48981342               -3.26294586               66.21968255                0.00010000                6.36410131                4.70942325              -21.56769272               -3.81812349               29.56011774              -66.75011024
              30.56557098               -5.06596877               65.60929620                0.05413849                8.54988329                5.87160200              -27.32715122               -1.13109055               17.17214877              -84.75606827
              31.66081108               -6.85986442               64.83189239                0.55925448                9.52401052                7.57609716              -31.10788509                0.64958591                9.01425512             -104.27125187
              23.18853250               12.41179688               70.00914926                0.61412582               -0.38825209               -1.05783741                2.98777005               -0.11242783                0.13292358                8.94345988
              24.18464998               10.65299820               69.07269677                0.05311263               -0.93957818                0.28294915               -0.40345984               -3.23603690               27.07539888               -7.74451082
              25.16974094                8.82766354               68.67528325                0.00010000               -1.44318418                0.98093586               -0.54557058               -6.86556130               55.52223591              -12.76782795
              26.15578629                6.98787546               68.30164018                0.00010000               -0.97013969                1.65476117               -3.29252502               -7.76975765               56.53567621              -17.83114869
              27.15033814                5.14104119               67.91655240                0.00010000               -0.01789234                2.30713561               -6.43452477               -8.21845750               55.05696824              -23.31787448
              28.15542845                3.29187635               67.50766436                0.00010000                1.13880228                3.07754291              -10.02653317               -8.21324472               52.33475550              -29.59350383
              29.17311419                1.44612755               67.06320210                0.00010000                2.57040777                4.05054821              -14.21300291               -7.59385685               48.29374644              -37.11754761
              30.20683660               -0.38948671               66.56847567                0.00010000                4.44590065                5.21346328              -19.17985369               -6.15186204               42.47030843              -46.59081324
              31.26203220               -2.20703912               66.00202026                0.00010000                6.93710175                6.49614445              -25.11373427               -3.59571676               33.98300984              -58.40835167
              32.34557864               -3.99652599               65.33205939                0.05796690                9.60943411                7.92248938              -32.12551439               -0.96395285               19.52649802              -72.72241241
              33.45422088               -5.77577732               64.47513094                0.56170067               10.86422442                9.34791670              -36.57457765                0.84118191               10.02206090              -89.89763703
              24.93953329               13.40210257               69.82183622                0.60838166               -0.18575737               -0.88657407                2.49112586               -0.11267788                0.13887581                8.96488175
              25.93767572               11.65694772               68.80213729                0.04872225               -0.56724962                0.51278276               -1.25151848               -3.48016354               33.42586819               -7.65477014
              26.92818830                9.84038990               68.44828377                0.00010000               -1.02581202                1.49815097               -1.38575171               -7.13944789               68.08317089              -11.29485537
              27.91715948                8.00829577               68.11319320                0.00010000               -0.76106870                2.29865160               -4.12697890               -7.83111527               68.76723682              -15.29134351
              28.91296692                6.16881835               67.76246977                0.00010000                0.04818355                3.08300833               -7.40083666               -7.99507172               66.85564565              -19.79049907
              29.91812315                4.32833753               67.38066793                0.00010000                1.11086289                4.04461152              -11.25311768               -7.69272509               63.37098359              -25.07803355
              30.93518418                2.49336694               66.95223093                0.00010000                2.51476165                5.24876979              -15.84738195               -6.88629242               58.22352904              -31.48722493
              31.96841838                0.67045635               66.45901418                0.00010000                4.48770904                6.66179706              -21.42612041               -5.43549457               51.02752495              -39.38921350
              33.02493836               -1.13302297               65.87763835                0.00010000                7.33058721                8.20446363              -28.28823774               -2.99383565               41.05167890              -49.18104914
              34.11503013               -2.90751898               65.17707813                0.06206930               10.55995109                9.79289942              -36.73932978               -0.54081323               23.73357058              -61.33754348
              35.23613739               -4.67290608               64.24909872                0.56431779               12.11072599               11.24562851              -41.79001455                1.05034739               11.97366099              -77.97141066
              26.67658864               14.39406540               69.63450470                0.60318554                0.01707368               -0.72185060                1.99273929               -0.11177024                0.14878287                8.88913874
              27.67675938               12.66325386               68.53193549                0.04593728               -0.04923544                0.75099561               -2.10070364               -3.64880800               40.46881181               -7.64456199
              28.67560393               10.85762656               68.23578777                0.00010000               -0.30119170                1.85025267               -2.20026852               -7.21888907               81.94745001               -9.62453437
              29.67073554                9.03384849               67.95164247                0.00010000               -0.26044944                2.61335696               -4.82486143               -7.64449331               82.18386792              -12.26513728
              30.67039494                7.20270135               67.64702037                0.00010000                0.31449064                3.47939192               -8.10825165               -7.37923975               79.83231015              -15.57064730
              31.67702536                5.37276858               67.30437644                0.00010000                1.14372889                4.65505701              -12.09674522               -6.72581323               75.70940768              -19.65279776
              32.69326952                3.55110295               66.90614850                0.00010000                2.37456349                6.11805115              -16.98050684               -5.73520488               69.71477129              -24.68485464
              33.72451663                1.74374923               66.43195165                0.00010000                4.34306491                7.82548305              -23.07568038               -4.29919894               61.43014682              -30.94501093
              34.78013082               -0.04294985               65.85591776                0.00010000                7.50644279                9.65815755              -30.82600128               -2.08158204               50.02858156              -38.86671277
              35.87464548               -1.80066800               65.14353520                0.06616698               11.29356093               11.43117036              -40.77670003               -0.00977363               29.10568488              -49.25981629
              37.00600204               -3.55086475               64.14899958                0.56711254               13.13565557               13.09656918              -46.31659670                1.20448852               14.47576092              -65.57472499
              28.39892096               15.38766556               69.44608457                0.59963444                0.22174342               -0.55838371                1.49298209               -0.11577622                0.19642307                8.83032083
              29.40113840               13.67196764               68.26133525                0.04589165                0.71474604                0.99544856               -2.95963733               -3.85381528               48.37488837               -7.82658950
              30.41321588               11.87739496               68.04008854                0.00010000                0.90282090                1.84033534               -2.95942970               -7.15472647               97.40803708               -7.53219769
              31.41919481               10.06056291               67.82225579                0.00010000                0.66230799                2.38338760               -5.32623275               -6.86216452               97.01649116               -8.66258720
              32.42646204                8.23840619               67.57708049                0.00010000                0.80052382                3.48722377               -8.48271936               -6.05699971               94.15749693              -10.73506866
              33.43520529                6.42143867               67.28738470                0.00010000                1.15186958                4.92390101              -12.45974672               -5.13132712               89.52389798              -13.48936925
              34.44949943                4.61572796               66.93525325                0.00010000                2.06409528                6.63508383              -17.46666496               -4.09804348               82.91977687              -16.98226173
              35.47648720                2.82696601               66.49877239                0.00010000                3.91122616                8.60020252              -23.89869696               -2.79665176               73.78532616              -21.42472788
              36.52772396                1.06014018               65.94891516                0.00010000                7.31311818               10.75434423              -32.37852486               -0.98287117               61.01501473              -27.17654531
              37.62274956               -0.67889557               65.24406906                0.07063784               11.64483494               12.73200443              -43.77799157                0.45915801               35.69264886              -35.15500906
              38.76062066               -2.41097470               64.18638735                0.56994682               13.78710962               14.65297655              -49.65858232                1.13760647               17.50288086              -51.22466279
              30.10566897               16.38289772               69.25787387                0.59440079                0.42847096               -0.38870771                0.99077359               -0.12129389               -0.15955392                7.69487576
              31.10995368               14.68316283               67.98718790                0.04547513                1.91225814                1.23914864               -3.84086440               -4.35386848               57.40754263               -7.10893341
              32.14391413               12.89443327               67.86768779                0.00010000                3.12636730                0.59734160               -3.57804142               -5.61842547              114.97239528               -4.26163338
              33.17248102               11.08151625               67.73171472                0.00010000                2.22325270                1.77610001               -5.55438746               -4.62453557              113.26255296               -4.49259339
              34.18837918                9.27244583               67.55846941                0.00010000                1.22980087                3.27722111               -8.45520706               -3.54738662              109.84295485               -5.44651720
              35.19707704                7.47124660               67.33615647                0.00010000                0.87010646                4.99144923              -12.25397009               -2.81815878              104.94928067               -6.82576684
              36.20578131                5.68380462               67.04741949                0.00010000                1.35471688                6.88466419              -17.16693692               -2.09001119               98.07126763               -8.62398242
              37.22417138                3.91575328               66.66949409                0.00010000                3.02768342                8.98258751              -23.64750040               -1.19065850               88.52044426              -10.97577604
              38.26633498                2.17213704               66.17150978                0.00010000                6.53860703               11.30239086              -32.50057638               -0.06009246               74.87626467              -14.11673039
              39.35494352                0.45397208               65.50457354                0.07485775               11.32887204               13.57241810              -45.10421839                0.60999944               44.17196662              -18.17944776
              40.49291242               -1.25780522               64.38708596                0.57234531               13.79689040               15.37310128              -51.01628295                0.61203375               21.19206137              -31.40254105
              31.79596487               17.37989141               69.04688862                0.79638307                0.65606149               -0.30063159                0.38312588                0.71551055                3.49623940                6.55652236
              32.80252548               15.69675061               67.73060938                0.52361726                5.32645444                1.35877785               -4.65225418               -5.27029999               69.61589941               -6.21221909
              33.90249396               13.88934179               67.73645488                0.45526677                7.30830267               -0.50914760               -3.85103241               -4.17530199              133.95127722               -2.24777453
              34.94869154               12.09608491               67.68541576                0.44177115                3.16449984                1.45686639               -5.43061248               -1.64850729              130.24617788               -2.29794108
              35.96578396               10.30395061               67.59480512                0.43731927                0.93958918                3.15047803               -7.97161434               -1.00038524              126.83107560               -2.75520168
              36.96748332                8.52126766               67.45431452                0.44047420               -0.12957129                5.00210590              -11.42394875               -0.48583992              122.09303563               -3.46438332
              37.96319253                6.75342125               67.24752587                0.45106326               -0.15708545                6.96166228              -15.99411065                0.00862701              115.47451190               -4.40704675
              38.96434161                5.00661776               66.95191463                0.46964834                1.25553878                9.08644827              -22.14719619                0.65536099              106.19354981               -5.66626034
              39.98830331                3.28618799               66.53576565                0.49695327                5.02750988               11.40509564              -30.73014987                1.49358383               93.00111272               -7.44042645
              41.06489181                1.59255279               65.95517034                0.53864508               10.40563210               13.85807062              -43.58114274                1.50979596               58.10812534               -9.14129813
              42.19641595               -0.10351267               64.83318511                0.78686465               13.15241371               15.42925506              -49.01105529                0.74380626               30.76223491              -19.50837964
              14.76417117                7.76990133               72.04618682                0.89707645               -1.53415055               -1.71786000                5.83121114               -0.43908328               -4.88136437                5.39241020
              15.74882967                5.86524858               71.46483062                0.64636957               -1.49369571               -0.99907160                3.94074772               -0.49448841               -6.89369167               -4.03110105
              16.73429726                3.95270105               70.84383506                0.51332202               -1.32317757               -0.54549400                1.92158737               -0.49117809               -7.15462622               -0.50866474
              17.72236612                2.02355329               70.25819041                0.46659587               -0.90061093                0.00249496                0.00778191               -0.43883009               -4.78053032               -0.49332173
              18.71628504                0.07697002               69.68512254                0.45082615               -0.19019397                0.54459624               -1.95599697               -0.36596231               -3.63289027               -0.29377815
              19.71856224               -1.88291842               69.12236253                0.45702207                0.71223418                1.09991656               -3.96445523               -0.30201713               -2.92374617               -0.09263444
              20.73052972               -3.84835162               68.56303375                0.48605930                1.65838991                1.65210260               -5.98670106               -0.27628389               -2.99025702                0.11926138
              21.75173003               -5.81121035               67.99828139                0.54356102                2.49715762                2.19137785               -7.98637428               -0.28010609               -3.85463965                0.32241166
              22.78047288               -7.76595563               67.42080325                0.64412879                3.16341856                2.71817328               -9.94713157               -0.28316511               -5.51357284                0.42253982
              23.81499841               -9.71056746               66.82174870                0.81403066                3.69370105                3.23469169              -11.90319538               -0.28681896               -6.05026813                1.18568755
              24.85434690              -11.64615031               66.23219559                0.97838861                3.93484913                3.81440100              -13.83029077               -0.67869580               -5.49904428               -3.99631240
              16.66443309                8.75272273               71.81206449                0.71633991               -1.19481717               -1.75428455                5.09836590               -0.24892461                3.42342235                7.77648584
              17.65248492                6.85525786               71.22516415                0.19439502               -0.70999872               -0.73969408                3.22297013               -0.52967750                7.91213716               -7.43104808
              18.65023312                4.94724611               70.72846892                0.03111854                0.16792054               -0.73782650                1.71894345               -1.89851317               12.47205504               -9.39595488
              19.65584333                3.02357824               70.23249909                0.02097741                0.78140761               -1.20173792                0.11419705               -3.21969819               13.24113210              -12.02215667
              20.66586127                1.08241598               69.75104773                0.02414165                1.11797758               -0.93877044               -1.52011820               -4.19326268               14.47298012              -15.73321252
              21.67820289               -0.87191925               69.27975868                0.03150022                1.30257903               -0.49129186               -3.19740723               -4.69066975               15.14225596              -20.07831422
              22.69191285               -2.83183060               68.81175177                0.04382466                1.47640456                0.04729343               -4.88354371               -4.63622252               15.02680875              -24.83379774
              23.70773098               -4.78929658               68.33801837                0.06521870                1.77034618                0.62174738               -6.53871371               -4.08808285               14.06938914              -29.42996729
              24.72731978               -6.73877390               67.85036394                0.13266578                2.22482902                1.28799407               -8.14554456               -3.20260727               12.66224904              -32.06025498
              25.75222756               -8.67822054               67.34763663                0.32583885                2.79115073                3.20146683               -9.73059155               -1.64159494                9.47316275              -17.51508984
              26.78314279              -10.60800630               66.79496522                0.74557112                3.09152347                4.36584291              -11.43884334                0.43639942                7.05809992              -24.22550382
              18.55412242                9.73481564               71.62627581                0.63794539               -1.04096850               -1.68699857                4.63064165               -0.13543473                0.10183342                9.52042056
              19.54371274                7.85045470               70.91785881                0.07945505               -1.30579035               -0.35796432                2.21037435               -1.35284931               11.38603829               -9.74540956
              20.52800662                5.93794452               70.43555022                0.00010000               -1.04552247               -1.02193643                1.46675874               -4.81241541               23.85107753              -17.17281619
              21.52280229                3.99951854               69.97618361                0.00010000               -0.00446666               -1.57922664               -0.77395384               -7.03217526               24.71644304              -23.38936190
              22.52791728                2.05819461               69.50789863                0.00010000                0.80965654               -1.61650936               -2.86850143               -8.20846439               24.18743710              -30.91142224
              23.53899542                0.10725574               69.03691015                0.00010000                1.36326578               -1.25236874               -5.07786824               -9.05337682               23.77898576              -39.56566291
              24.55518260               -1.84740576               68.56065895                0.00010000                1.89581291               -0.67614890               -7.47851938               -8.87227575               23.30707489              -49.14901438
              25.57691168               -3.79877541               68.08172153                0.00010000                2.50810494                0.05631899              -10.23706062               -7.59919740               24.30502274              -59.12084067
              26.60534470               -5.74019575               67.62903553                0.00010000                3.72436175                1.18654610              -13.98863624               -4.20632271               41.31431762              -67.93220757
              27.65139891               -7.64653812               67.49801630                0.04507306                5.86508540                3.09536471              -22.31620053               -0.64540050               36.72410493              -78.76562570
              28.72264640               -9.55883345               66.95142497                0.55653210                7.12474930                4.31031948              -22.28513363                1.95479319               17.18292253              -94.43159399
              20.43044629               10.71898276               71.42793171                0.62004281               -0.81472352               -1.47742799                4.07775760               -0.11704274                0.12117243                9.00861224
              21.42229906                8.84809858               70.63184385                0.05862185               -1.27626584               -0.13717982                1.34279948               -2.41982634               16.96676604               -8.51587298
              22.40492097                6.92680739               70.17299836                0.00010000               -1.36746552               -0.53163033                0.51565574               -5.61381064               34.46248184              -15.35420029
              23.39494975                4.99199371               69.72412003                0.00010000               -0.54830995               -0.18973295               -1.75898846               -6.95635316               34.87180286              -22.50023238
              24.39395478                3.05008579               69.26973335                0.00010000                0.38929833               -0.05793730               -4.25292802               -7.95282747               34.12284273              -29.80964800
              25.40273571                1.10303337               68.80301220                0.00010000                1.32718577                0.36398524               -6.96519284               -8.44983242               32.80390425              -38.03992378
              26.42049849               -0.84535358               68.32109048                0.00010000                2.29006547                1.02365984              -10.02047786               -8.08408810               31.34344285              -47.41976069
              27.44853702               -2.78817020               67.82560276                0.00010000                3.52287736                1.90064464              -13.62831495               -6.42443091               31.05740279              -58.42657862
              28.49095604               -4.71504297               67.34031336                0.00010000                5.47101149                3.05259952              -18.23854174               -3.14303050               28.43575947              -73.48429048
              29.55795725               -6.61631325               66.79494855                0.03799920                7.79366395                3.46584061              -22.93065421               -0.53627310               18.31216204             -109.18637072
              30.64682932               -8.52179991               66.10423309                0.54772943                8.88720656                4.60750705              -26.67341975                0.51562933               11.60530413             -131.88499910
              22.29354994               11.70526708               71.23266008                0.61219311               -0.60583515               -1.27409654                3.55509860               -0.11290551                0.12316642                9.22503049
              23.28749159                9.84771110               70.34909901                0.04951672               -1.08573350                0.06915747                0.47158345               -3.04640550               22.53463550               -8.23159598
              24.27183527                7.92731192               69.91402333                0.00010000               -1.35473844                0.42593255               -0.39635807               -6.45227583               45.55740402              -14.52251012
              25.26039682                5.99572388               69.48621834                0.00010000               -0.70070994                0.86411909               -2.82649233               -7.35740463               45.68021130              -20.84821175
              26.25782107                4.05703586               69.04744852                0.00010000                0.25206595                1.28891258               -5.60468260               -7.95798506               44.36991380              -27.71337423
              27.26543814                2.11453545               68.58878939                0.00010000                1.34416676                1.82959624               -8.74275106               -8.13052319               42.15844441              -35.43083786
              28.28470441                0.17306744               68.10214672                0.00010000                2.63371598                2.57012468              -12.34077393               -7.55288956               39.14329200              -44.50284360
              29.31811246               -1.76076251               67.58056192                0.00010000                4.29613661                3.47164814              -16.54839335               -5.96613071               34.77060287              -55.83739432
              30.37062714               -3.67914376               67.00463957                0.00010000                6.46589645                4.32791255              -21.35259202               -3.41198758               27.67156407              -71.83649130
              31.44743039               -5.57722131               66.33954616                0.04089380                8.66525908                4.96981691              -26.56181902               -1.13189329               15.75161482              -90.90589411
              32.54393232               -7.46668331               65.52412862                0.54948469                9.65019330                6.36866955              -30.32516415                0.16811179                8.31271235             -111.08261642
              24.14330014               12.69350083               71.03929725                0.60535801               -0.39740331               -1.08553801                3.03793554               -0.11145448                0.13532660                9.34198680
              25.13932611               10.84948173               70.06871536                0.04287482               -0.77187311                0.29043920               -0.39035597               -3.41084636               28.49551775               -8.04405377
              26.12786268                8.93532604               69.66551496                0.00010000               -1.06242013                1.08828631               -1.32436154               -6.97479561               57.38516654              -13.26149702
              27.11807771                7.00927609               69.26578550                0.00010000               -0.59395909                1.73595541               -3.85228232               -7.63855903               57.19273887              -18.73684985
              28.11598350                5.07586404               68.85009830                0.00010000                0.30079799                2.33978048               -6.84763379               -7.98334287               55.33822384              -24.76785729
              29.12409367                3.13962530               68.40584391                0.00010000                1.43775815                3.04732702              -10.31954717               -7.87759254               52.17598597              -31.70542111
              30.14473866                1.20604892               67.92010371                0.00010000                2.86659688                3.92108560              -14.36301709               -7.17207165               47.54177245              -40.01107594
              31.18142561               -0.71873723               67.37672740                0.00010000                4.72182093                4.91704073              -19.08851847               -5.74529876               40.94399275              -50.39540354
              32.23917508               -2.62848472               66.75310383                0.00010000                7.07166665                5.92807921              -24.55036230               -3.53550770               31.56885436              -63.30885749
              33.32285894               -4.51691691               66.01781994                0.04437446                9.49702371                7.03201970              -30.61898960               -1.28379537               17.65420409              -78.93933257
              34.42911556               -6.39442652               65.11648213                0.55159022               10.62566171                8.24651667              -34.94858764                0.24036641                9.07912353              -97.01443739
              25.97935906               13.68355632               70.84694137                0.59982024               -0.19096048               -0.90769752                2.52826357               -0.11083789                0.14262152                9.36834383
              26.97744946               11.85351988               69.78961221                0.03869610               -0.34070349                0.52181903               -1.25151165               -3.62449163               35.00547910               -7.95661782
              27.97254499                9.94907764               69.42964305                0.00010000               -0.51809120                1.59177924               -2.23728584               -7.25061210               70.27012431              -11.80035498
              28.96708763                8.03044298               69.06845672                0.00010000               -0.23699919                2.36039656               -4.78266926               -7.76127890               69.71151604              -16.10437677
              29.96780501                6.10383147               68.68586812                0.00010000                0.53068903                3.08526033               -7.90388416               -7.83100480               67.32037745              -21.04486993
              30.97770141                4.17548199               68.26620711                0.00010000                1.59102486                3.96043955              -11.61470596               -7.44907655               63.28808220              -26.88863025
              31.99962550                2.25148915               67.79261085                0.00010000                3.00193556                5.03723898              -16.02246294               -6.61302727               57.40471898              -33.98491753
              33.03774012                0.33757830               67.24498168                0.00010000                4.92355776                6.26760824              -21.27759254               -5.26032921               49.21366147              -42.75259801
              34.09809666               -1.56058217               66.59783362                0.00010000                7.49780759                7.58255615              -27.50981431               -3.21338094               38.00189717              -53.67544432
              35.18769627               -3.43658092               65.81907879                0.04797782               10.28311053                8.94999322              -34.69813408               -1.05587027               21.34400697              -67.34032350
              36.30375887               -5.30175298               64.84061792                0.55391083               11.60625946               10.25849369              -39.59697667                0.40628150               10.82432830              -84.89281476
              27.80115626               14.67534688               70.65457963                0.59492782                0.01586960               -0.73742301                2.01898971               -0.11330996                0.15301441                9.29460357
              28.80131496               12.85991811               69.51082818                0.03632772                0.23855395                0.76266700               -2.11631064               -3.77167365               42.22945140               -7.95611940
              29.80592734               10.96716162               69.20863112                0.00010000                0.33916728                1.92057070               -3.10370096               -7.33669858               84.52956938              -10.11730563
              30.80809830                9.05648402               68.89947009                0.00010000                0.41985289                2.64473605               -5.56428605               -7.64194163               83.53047868              -12.95317324
              31.81432440                7.13756925               68.56285806                0.00010000                0.96780760                3.44858733               -8.70289004               -7.30035131               80.60278721              -16.57938833
              32.82745446                5.21883409               68.18104249                0.00010000                1.80287047                4.53294884              -12.54143270               -6.60043999               75.82584687              -21.09295360
              33.85038181                3.30679370               67.73485842                0.00010000                3.04179469                5.86246141              -17.21540915               -5.63120656               68.94180610              -26.68680558
              34.88829035                1.40661493               67.20127087                0.00010000                4.93424358                7.38875297              -22.93695739               -4.33744038               59.40795936              -33.70354276
              35.94906668               -0.47683360               66.55101094                0.00010000                7.73109946                9.02171243              -29.94431890               -2.49687789               46.34375714              -42.70758861
              37.04291234               -2.33791704               65.74658629                0.05175154               10.92593156               10.63437303              -38.35463145               -0.62138191               26.21952796              -54.70861743
              38.16758531               -4.18925665               64.69616938                0.55617791               12.46729726               12.15434732              -43.78170236                0.58578114               13.20506652              -71.92182003
              29.60795041               15.66880786               70.46109438                0.59131396                0.22508322               -0.56921856                1.50426428               -0.11628547                0.20130147                9.23475714
              30.61020124               13.86877322               69.23156038                0.03590811                1.06473459                1.01079350               -2.98921947               -3.96879599               50.36224130               -8.15627478
              31.62924510               11.98748906               69.00518535                0.00010000                1.68199641                1.86935456               -3.88355869               -7.28967402              100.50332345               -7.97046065
              32.64384117               10.08333771               68.76465780                0.00010000                1.51014066                2.37208655               -6.14090339               -6.90933441               98.90366979               -9.18147598
              33.65944791                8.17280322               68.48868498                0.00010000                1.63134970                3.42507457               -9.17197192               -6.04474466               95.37967367              -11.44893932
              34.67646816                6.26614097               68.15990712                0.00010000                1.98863077                4.77991667              -13.00611859               -5.10255968               89.99997121              -14.49122538
              35.69922053                4.36873838               67.75857777                0.00010000                2.90752246                6.36912203              -17.80311288               -4.12971312               82.37128499              -18.37915710
              36.73461861                2.48535336               67.25936198                0.00010000                4.67352734                8.16226841              -23.84550183               -2.99237139               71.73351048              -23.38653789
              37.79269108                0.61985207               66.62815101                0.00010000                7.65365344               10.10990336              -31.51815941               -1.50103369               56.80772219              -30.04410788
              38.88769168               -1.22389346               65.81745800                0.05533372               11.27313094               11.96842716              -41.15618852               -0.12757898               32.42278531              -39.61804895
              40.01815370               -3.05866603               64.69984203                0.55829644               13.04620135               13.73827196              -46.99287644                0.64874870               16.27052432              -56.45174243
              31.39889983               16.66396251               70.26778882                0.58649082                0.43580156               -0.39135455                0.98885154               -0.11997614               -0.16827713                8.04451898
              32.40325784               14.88013398               68.94853118                0.03556089                2.33347763                1.25481212               -3.88517815               -4.48621896               59.70373768               -7.41685867
              33.44556938               13.00454871               68.82657131                0.00010000                4.06698062                0.54404249               -4.50632388               -5.73703846              118.74135831               -4.53377590
              34.48459746               11.10392575               68.67148085                0.00010000                3.25284319                1.71951414               -6.43631758               -4.67487189              115.82850742               -4.78312868
              35.51062624                9.20607074               68.46988157                0.00010000                2.24353212                3.18158427               -9.23937228               -3.55926862              111.66734797               -5.81929210
              36.52946810                7.31443242               68.21014501                0.00010000                1.89744546                4.82909179              -12.92152218               -2.83394323              105.97183144               -7.33689993
              37.54857515                5.43417614               67.87298903                0.00010000                2.39305651                6.62169086              -17.65555183               -2.16911799               97.99146430               -9.33431710
              38.57732923                3.56986030               67.43165595                0.00010000                3.98588340                8.57399021              -23.77892003               -1.41850672               86.75190333              -11.98125287
              39.62829282                1.72536447               66.84835009                0.00010000                7.07748187               10.69521140              -31.83773582               -0.50690628               70.44537345              -15.64153771
              40.71887887               -0.09854850               66.06377060                0.05912807               11.09063082               12.82241600              -42.56251962                0.19282919               40.82299681              -20.92092841
              41.85010544               -1.91449121               64.88559535                0.56031504               13.12265721               14.56210698              -48.52906387                0.39185346               20.38303391              -34.61790559
              33.17320795               17.66098077               70.05064017                0.79251666                0.66827068               -0.29817385                0.36424218                0.71968226                3.65306993                6.85369325
              34.17989066               15.89386947               68.68375201                0.51887149                5.87523003                1.37354908               -4.70922969               -5.46726142               72.44744767               -6.48944714
              35.29071255               13.99836991               68.69251215                0.45374924                8.44655216               -0.61788047               -4.80340916               -4.29275650              138.56327121               -2.46169485
              36.34882170               12.11772799               68.62620037                0.44147161                4.35216601                1.38022339               -6.36470022               -1.67432538              133.55889766               -2.50962420
              37.37775587               10.23643490               68.51066125                0.43731125                2.14310996                3.03641619               -8.84217917               -1.03729618              129.38127206               -2.99810874
              38.39168390                8.36272280               68.33595925                0.44018615                1.13272094                4.82903807              -12.22678264               -0.54155468              123.84490294               -3.77827727
              39.40041029                6.50117220               68.08379338                0.45026928                1.16881237                6.69960608              -16.69209882               -0.11096791              116.13116305               -4.83234614
              40.41506015                4.65683316               67.72747678                0.46763372                2.52757293                8.69728646              -22.59733361                0.40229746              105.14927247               -6.26385599
              41.45096175                2.83375630               67.22785556                0.49337465                5.81718947               10.83918365              -30.54328056                1.05297815               89.06065246               -8.33382537
              42.53140394                1.03255486               66.52601733                0.53074717               10.34572121               13.11033662              -41.66253466                1.19349769               55.43346690              -11.01183792
              43.65787618               -0.76742389               65.34732163                0.78090307               12.64722366               14.70673151              -47.33043367                0.77919822               30.98194574              -21.72719420
              15.30530466                8.06247338               73.10507600                0.89158386               -1.56332481               -1.74952700                5.93827578               -0.44926713               -5.05100106                5.55839401
              16.28967142                6.06741556               72.50461478                0.63921032               -1.53063541               -1.01624583                4.01056397               -0.51250101               -7.12223915               -4.18343792
              17.27469196                4.06412769               71.86326198                0.51010538               -1.35579998               -0.55441492                1.95989656               -0.48771660               -7.39038823               -0.47921519
              18.26255542                2.04381060               71.25830094                0.46577241               -0.90972489                0.00437732                0.01619608               -0.43527045               -4.98999839               -0.48512347
              19.25649746                0.00594175               70.66542223                0.45100957               -0.17935446                0.55835034               -1.97912573               -0.36537045               -3.89099836               -0.28890569
              20.25896833               -2.04508605               70.08241125                0.45735144                0.73673254                1.12570989               -4.02094020               -0.30840684               -3.21729804               -0.09246923
              21.27123211               -4.10143361               69.50267053                0.48581755                1.69295988                1.68943671               -6.07973935               -0.28373820               -3.28805764                0.11150667
              22.29282752               -6.15501735               68.91772028                0.54178018                2.54190178                2.23889974               -8.11715167               -0.28758382               -4.13055760                0.31284028
              23.32207014               -8.20035726               68.32041627                0.63894336                3.22007156                2.77715935              -10.11594852               -0.29004237               -5.77733139                0.40973887
              24.35722896              -10.23546888               67.70159269                0.80153084                3.76298064                3.30828195              -12.12014900               -0.29411515               -6.30553424                1.18617741
              25.39732976              -12.26155724               67.09257079                0.96933313                4.01008013                3.90063317              -14.09331074               -0.68142926               -5.74740616               -4.13907497
              17.29586981                9.04497811               72.86354230                0.70580998               -1.21505590               -1.79248526                5.19090697               -0.26002653                3.60648835                8.08003803
              18.28371925                7.05725310               72.25770387                0.18174178               -0.71262676               -0.74642287                3.27921820               -0.55637431                8.28251685               -7.72888682
              19.28161727                5.05858354               71.74577954                0.03206402                0.17882177               -0.94000386                1.74119414               -1.92288195               12.97552170               -9.43276199
              20.28729568                3.04385437               71.23358687                0.02209876                0.78374023               -1.20778678                0.10265100               -3.17935159               13.67931695              -12.54444563
              21.29729208                1.01152525               70.73558683                0.02531071                1.11381260               -0.90585923               -1.56761758               -4.12444167               14.87470243              -16.63861751
              22.30957194               -1.03382895               70.24733492                0.03287017                1.30341491               -0.42838957               -3.28452898               -4.61083801               15.51750164              -21.40834215
              23.32336037               -3.08453924               69.76224522                0.04560960                1.49207892                0.12633019               -5.01202391               -4.57943208               15.41403993              -26.68189752
              24.33941351               -5.13262835               69.27176907                0.06746957                1.80175556                0.70777735               -6.70604703               -4.11379572               14.49211059              -31.99985680
              25.35939549               -7.17258567               68.76778505                0.12534414                2.27371405                1.35503085               -8.35958860               -3.41421640               13.11579970              -35.89330204
              26.38488779               -9.20238606               68.24901114                0.31140418                2.86041728                3.32101876               -9.98905384               -1.84411615                9.87861452              -25.62809307
              27.41660383              -11.22255091               67.67909456                0.73539757                3.17160364                4.53951286              -11.73819148                0.78697275                7.40044988              -31.98595285
              19.27555414               10.02662367               72.67302096                0.62831064               -1.06156453               -1.72784543                4.71280257               -0.13480754                0.07731137                9.91823503
              20.26493849                8.05248711               71.94020790                0.06858587               -1.29605447               -0.35527772                2.25854570               -1.59372225               12.15849943              -10.11802905
              21.24963305                6.04532761               71.44939354                0.00010000               -0.94559090               -1.13175259                1.26727250               -4.85735726               24.77098875              -17.57726144
              22.24602668                4.01965486               70.96764369                0.00010000                0.10294478               -1.59076533               -0.93017889               -6.77986967               25.00597398              -24.42724482
              23.25169195                1.98782456               70.47851183                0.00010000                0.83946907               -1.55227525               -3.00885058               -8.03644339               24.50122334              -32.69764662
              24.26281606               -0.05365384               69.98546607                0.00010000                1.33754598               -1.14921800               -5.20797479               -8.84042392               23.96734636              -42.18864971
              25.27844286               -2.09890700               69.48524307                0.00010000                1.78909909               -0.55112448               -7.59687104               -8.66306481               23.26237204              -52.77525738
              26.29859804               -4.14086180               68.97865107                0.00010000                2.25503300                0.18736697              -10.35758483               -7.46783113               23.63158814              -64.05474557
              27.32354352               -6.17325664               68.48796919                0.00010000                3.58569186                1.30341131              -14.18216270               -4.09869875               37.25261371              -74.75334898
              28.37031188               -8.16904850               68.25876271                0.03495185                6.49276983                3.15853717              -24.91794874               -0.43963671               34.26613536              -87.67260917
              29.45339892              -10.17076699               67.70707337                0.54985444                8.30870453                4.24240033              -26.45262542                2.34670288               19.13536240             -104.83590581
              21.24144679               11.01042120               72.46908056                0.61099913               -0.83059299               -1.51146428                4.14701781               -0.11657411                0.12322553                9.38019887
              22.23314086                9.05014755               71.64545619                0.04857218               -1.20722102               -0.13508954                1.37946932               -2.59093144               17.80497917               -8.81671999
              23.21730237                7.03594849               71.17576191                0.00010000               -1.19697593               -0.37616136                0.08921472               -5.66680017               35.60180504              -16.00830683
              24.20920134                5.01203906               70.70499760                0.00010000               -0.37152295               -0.15420139               -2.05380444               -6.76920522               35.33201794              -23.58083895
              25.20987191                2.98047975               70.22604564                0.00010000                0.51468407                0.01093226               -4.47974670               -7.71900611               34.37395571              -31.56862388
              26.21949502                0.94318669               69.73247931                0.00010000                1.37175629                0.44960260               -7.13433542               -8.14562173               32.82083490              -40.59596769
              27.23730704               -1.09556173               69.22027923                0.00010000                2.24557552                1.10964400              -10.12539805               -7.68595016               30.97164167              -50.90481509
              28.26440653               -3.12888101               68.68894606                0.00010000                3.41505885                1.95881780              -13.66902358               -5.91728016               29.91146556              -62.96187263
              29.30560821               -5.14651744               68.15651141                0.00010000                5.45994345                3.03952440              -18.41740208               -2.48086851               26.77316656              -78.84724838
              30.37360540               -7.13921531               67.56418178                0.02536893                8.06833228                3.10452309              -23.14870145               -0.01915567               16.94876183             -112.48856231
              31.46697486               -9.13770291               66.83426555                0.53876401                9.33694568                3.85006035              -27.12922783                0.37631536               10.37797835             -136.92471630
              23.19376995               11.99639439               72.26851107                0.60347325               -0.61773822               -1.30329390                3.60898088               -0.11310566                0.12221906                9.61636429
              24.18759257               10.04978531               71.35394882                0.03967494               -0.96822114                0.07281924                0.49936163               -3.16941136               23.49215433               -8.52923772
              25.17440553                8.03780439               70.90701199                0.00010000               -1.07406280                0.54326950               -0.92338344               -6.50713636               46.90181919              -15.11292066
              26.16611132                6.01657083               70.45576517                0.00010000               -0.41206672                0.94305114               -3.23441299               -7.19523954               46.26653199              -21.92667426
              27.16616420                3.98804321               69.98980445                0.00010000                0.49168907                1.33923452               -5.91114870               -7.70301602               44.63319818              -29.39284748
              28.17594510                1.95533821               69.50024605                0.00010000                1.53136817                1.85817578               -8.95093188               -7.76547992               42.06920223              -37.83186474
              29.19679156               -0.07671412               68.97818138                0.00010000                2.76315257                2.55018158              -12.42572073               -7.06322735               38.58193141              -47.72956539
              30.23120815               -2.10168544               68.41523940                0.00010000                4.37344495                3.35332364              -16.46974496               -5.37211133               33.66958726              -59.92592113
              31.28426046               -4.11246616               67.79263071                0.00010000                6.49530386                4.00535640              -20.99935325               -2.92820319               26.13161875              -76.51273478
              32.36111423               -6.10695804               67.07805982                0.02848155                8.68199762                4.21850197              -25.72537298               -0.98103036               14.59241646              -96.20876022
              33.45790041               -8.09376578               66.22538910                0.54037913                9.67861858                5.25737662              -29.38442660               -0.10556806                7.65459148             -116.71300652
              25.13240282               12.98435532               72.06990797                0.59677097               -0.40601892               -1.11036558                3.08175220               -0.11143386                0.13807608                9.74384961
              26.12834263               11.05160393               71.06488965                0.03308949               -0.60143491                0.29586176               -0.37388846               -3.50251943               29.57598069               -8.33953944
              27.12037412                9.04681388               70.64879601                0.00010000               -0.66424508                1.17311238               -1.91745202               -7.01815541               58.95920571              -13.85326447
              28.11505773                7.03090009               70.22459454                0.00010000               -0.16649550                1.79764079               -4.34455507               -7.52480202               57.95790945              -19.74919717
              29.11704421                5.00726444               69.77959972                0.00010000                0.69425126                2.35589923               -7.22892152               -7.75449959               55.67748107              -26.30791207
              30.12894276                2.98035021               69.30127342                0.00010000                1.80109655                3.00140693              -10.57020491               -7.53127799               52.05897518              -33.87636442
              31.15306614                0.95544190               68.77594176                0.00010000                3.18867928                3.78140005              -14.43148082               -6.72261558               46.87094511              -42.91271423
              32.19271634               -1.06181454               68.18670530                0.00010000                4.96253015                4.62731806              -18.86251266               -5.27957646               39.63882778              -54.09928183
              33.25231675               -3.06641031               67.51101302                0.00010000                7.12840385                5.40135936              -23.81914459               -3.32060026               29.68531718              -67.89665494
              34.33528442               -5.05484527               66.71967960                0.03189906                9.30811155                6.19331228              -29.03984117               -1.40666617               16.19255287              -84.43820262
              35.43847898               -7.03255537               65.77615919                0.54231739               10.31945600                7.16580778              -33.11375290               -0.18874575                8.26241586             -103.18236157
              27.05704405               13.97418707               71.87240150                0.59154221               -0.19604261               -0.92754311                2.55943762               -0.11100195                0.14459136                9.77675414
              28.05508362               12.05570255               70.77710705                0.02870649               -0.11488891                0.52896821               -1.24575858               -3.69830808               36.22597514               -8.25639625
              29.05474627               10.06126664               70.40353805                0.00010000                0.00405487                1.64621286               -2.87095002               -7.29998067               72.13502551              -12.37982450
              30.05516472                8.05252365               70.01753982                0.00010000                0.34389080                2.38419337               -5.34784810               -7.70224934               70.73729959              -17.01868739
              31.06162409                6.03516119               69.60439209                0.00010000                1.09886756                3.05161505               -8.35887487               -7.66616130               67.82447662              -22.38722184
              32.07714207                4.01536635               69.14837381                0.00010000                2.14399518                3.84296472              -11.91797599               -7.18240704               63.22802493              -28.75847319
              33.10450399                1.99891388               68.63178167                0.00010000                3.51633826                4.79790025              -16.09369832               -6.28471600               56.65553306              -36.48996720
              34.14746884               -0.00913908               68.03346233                0.00010000                5.31876012                5.85563065              -20.95683469               -4.97729458               47.64266577              -46.02553315
              35.21087919               -2.00443897               67.32744206                0.00010000                7.58285625                6.94956509              -26.50294433               -3.22894547               35.59984004              -57.87920301
              36.29912596               -3.98309179               66.48311544                0.03495974                9.93332506                8.08128557              -32.52489601               -1.37087357               19.44158273              -72.63587720
              37.40954569               -5.95044962               65.45715919                0.54438850               11.04197324                9.20150562              -37.07459121               -0.11287243                9.80887376              -90.88316757
              28.96715183               14.96580446               71.67488449                0.58689294                0.01450774               -0.75177791                2.03728462               -0.11356868                0.15518598                9.69934923
              29.96729691               13.06218330               70.48960928                0.02650406                0.52007883                0.77182943               -2.12221568               -3.84288472               43.62279683               -8.26260145
              30.97755341               11.07973814               70.17371375                0.00010000                0.99106379                1.93894621               -3.75957855               -7.40803395               86.76855746              -10.66118884
              31.98711819                9.07858395               69.84035675                0.00010000                1.16624386                2.61994896               -6.19602895               -7.64187657               84.92241582              -13.72875924
              33.00087829                7.06829674               69.47296257                0.00010000                1.72118717                3.36213468               -9.23569283               -7.20961729               81.38293383              -17.66897573
              34.02154193                5.05720950               69.05354779                0.00010000                2.54994845                4.35726460              -12.91470705               -6.43634918               75.93002917              -22.58830947
              35.05187726                3.05139991               68.56184032                0.00010000                3.74906842                5.55501647              -17.32623835               -5.44725706               68.20234064              -28.69553686
              36.09652330                1.05529808               67.97321250                0.00010000                5.49066473                6.89946317              -22.58555896               -4.23517949               57.61605120              -36.37526359
              37.16169055               -0.92741901               67.25703138                0.00010000                7.86771518                8.31789185              -28.75598738               -2.68072285               43.39781914              -46.26499436
              38.25387760               -2.89321956               66.37644257                0.03830825               10.46233198                9.73254640              -35.68285137               -1.03589796               23.86083520              -59.42624814
              39.37093719               -4.84852526               65.27336553                0.54642926               11.70595885               11.05070533              -40.70435424                0.05530028               12.00107455              -77.30464976
              30.86201499               15.95915152               71.47616985                0.58341397                0.22772539               -0.57810703                1.50854805               -0.11789459                0.20707385                9.63887421
              31.86429225               14.07113914               70.20155086                0.02663734                1.40849707                1.02253649               -3.00715532               -4.05784653               51.98361978               -8.48259372
              32.89018494               12.10004556               69.96241737                0.00010000                2.47381705                1.83464058               -4.54936114               -7.39891457              103.23244564               -8.43448624
              33.91376859               10.10492263               69.69943772                0.00010000                2.43106296                2.28635694               -6.83414995               -6.95094751              100.78664982               -9.76662044
              34.93880620                8.10240389               69.39364105                0.00010000                2.57716640                3.28934897               -9.78992316               -6.01136480               96.56658310              -12.22931620
              35.96531192                6.10251164               69.02726233                0.00010000                2.93320384                4.56234864              -13.47274650               -5.02627008               90.40761651              -15.54020103
              36.99747027                4.11001421               68.57919100                0.00010000                3.81361247                6.02513855              -18.00101032               -4.07195269               81.78942837              -19.78324228
              38.04158417                2.12885018               68.02186235                0.00010000                5.41560518                7.63576706              -23.54493735               -3.03851248               69.85694430              -25.27473136
              39.10578238                0.16191887               67.31855198                0.00010000                7.89650419                9.35103719              -30.26626185               -1.79269008               53.38497102              -32.65483408
              40.19951425               -1.78844087               66.42094529                0.04138206               10.77403595               11.01068790              -38.11495736               -0.55368953               29.66705372              -43.38623118
              41.32126309               -3.72943552               65.24652982                0.54829283               12.17488440               12.54411624              -43.53167192                0.19985595               14.97653135              -60.75688410
              32.74081870               16.95424232               71.27765090                0.57840494                0.44272391               -0.39444718                0.97930857               -0.12144942               -0.17963600                8.39673164
              33.74524594               15.08263403               69.90948434                0.02649340                2.74864646                1.26904355               -3.91703330               -4.62505823               61.63886428               -7.72273412
              34.79579163               13.11643095               69.77756131                0.00010000                5.02474858                0.40903232               -5.17920127               -5.85984274              122.11923522               -4.81777165
              35.84574091               11.12431109               69.60298837                0.00010000                4.36351753                1.57653717               -7.19063007               -4.71977127              118.33078362               -5.11134675
              36.88306198                9.13408372               69.37368197                0.00010000                3.38326488                3.00125988               -9.95014945               -3.55051452              113.39322730               -6.23353223
              37.91340621                7.14845647               69.07772602                0.00010000                3.05188422                4.57810032              -13.50684152               -2.81218524              106.83963165               -7.88015415
              38.94409966                5.17190268               68.69430845                0.00010000                3.52210913                6.25757146              -17.99693109               -2.18075372               97.76131656              -10.05453144
              39.98384839                3.20801342               68.19391569                0.00010000                4.95140672                8.04243960              -23.63743094               -1.53101200               85.02681331              -12.94896330
              41.04312780                1.25960173               67.53475506                0.00010000                7.51549034                9.92908329              -30.70517156               -0.79128928               66.72694344              -17.00632615
              42.13415820               -0.67300581               66.65332315                0.04470509               10.68979078               11.81317257              -39.40163562               -0.13319169               37.82866706              -23.17567737
              43.25692361               -2.59764294               65.41650468                0.55006877               12.27654165               13.39631976              -45.00729016                0.14544497               19.20755673              -37.15389116
              34.60280258               17.95126257               71.05417347                0.78856797                0.67998675               -0.29797446                0.34080330                0.72413232                3.81739450                7.15181906
              35.60960245               16.09652001               69.63642479                0.51433732                6.42542160                1.38859806               -4.75502233               -5.71616682               74.91415182               -6.76131619
              36.73131102               14.10822621               69.64038670                0.45246516                9.60589724               -0.82047439               -5.50887418               -4.45139284              142.75293155               -2.66215778
              37.80172040               12.13645337               69.55812176                0.44131067                5.61697544                1.21422794               -7.18392391               -1.69190722              136.75564825               -2.72589200
              38.84365053               10.16242908               69.41796154                0.43737827                3.47644270                2.83453672               -9.64913186               -1.06013138              131.75298978               -3.24951690
              39.87124925                8.19407365               69.20977887                0.44004482                2.53238634                4.56171757              -12.95044851               -0.57886785              125.31694871               -4.09337310
              40.89429825                6.23516564               68.91368389                0.44943661                2.60078116                6.32629583              -17.23287977               -0.19887467              116.44602982               -5.23993924
              41.92326487                4.28969897               68.49996796                0.46571432                3.83387805                8.16855556              -22.74170050                0.20839338              103.86529786               -6.80225450
              42.97097581                2.36050053               67.92490004                0.48972924                6.54151050               10.08988016              -29.80690090                0.69098231               85.48427302               -9.07904640
              44.05409508                0.44782259               67.12191965                0.52357552               10.12352212               12.08283907              -38.91598249                0.89320613               52.66468737              -12.41637334
              45.17344626               -1.46150912               65.88657643                0.77557990               11.93511716               13.61338136              -44.40974559                0.71909362               30.30133824              -23.29571584
              15.86407359                8.36413661               74.16495234                0.88594038               -1.58746925               -1.77580819                6.03091354               -0.45688734               -5.21607964                5.72135546
              16.84819890                6.27540162               73.54504190                0.63122752               -1.56351271               -1.03146180                4.07256886               -0.53283636               -7.34437621               -4.33423570
              17.83280334                4.17808164               72.88303299                0.50673543               -1.38964996               -0.56223268                1.99777695               -0.50041184               -7.61773721               -0.44698637
              18.82040590                2.06327895               72.25851433                0.46465745               -0.92242904                0.00676262                0.02686943               -0.43929930               -5.18765698               -0.47820908
              19.81435476               -0.06913730               71.64554003                0.45124585               -0.17189621                0.56913327               -1.99535669               -0.36945220               -4.14227373               -0.28284212
              20.81696797               -2.21461514               71.04194373                0.45772566                0.75523949                1.14742269               -4.06590429               -0.31402148               -3.50678203               -0.09293873
              21.82945954               -4.36527085               70.44143897                0.48547973                1.72025858                1.72297700               -6.15933124               -0.29180476               -3.58294467                0.10472207
              22.85137315               -6.51305114               69.83593836                0.53988075                2.57971457                2.28266370               -8.22927211               -0.29535749               -4.40296401                0.30315217
              23.88105384               -8.65249842               69.21848428                0.63330221                3.26800270                2.83055594              -10.26426369               -0.29749723               -6.04489610                0.39067369
              24.91673320              -10.78168081               68.57934572                0.78897077                3.81943677                3.37283943              -12.30674477               -0.29833237               -6.57253789                1.18791017
              25.95744257              -12.90197934               67.95032937                0.95980617                4.07093719                3.97514051              -14.31315853               -0.67561457               -6.01089133               -4.27147959
              17.94823970                9.34637853               73.91588262                0.69535993               -1.23416855               -1.82472669                5.27085470               -0.26809326                3.78709869                8.38247202
              18.93589802                7.26508701               73.29074852                0.16965378               -0.71895746               -0.75299137                3.32796444               -0.58039854                8.65448675               -8.01969514
              19.93386056                5.17245931               72.76329280                0.03305076                0.18621784               -1.08323574                1.76384238               -1.92765866               13.48766469               -9.58743412
              20.93962238                3.06334657               72.23455211                0.02324511                0.78733596               -1.18580175                0.08899767               -3.12538497               14.12096564              -13.12587671
              21.94960728                0.93655403               71.71969538                0.02649401                1.11360800               -0.85399157               -1.60942072               -4.03614323               15.27195790              -17.57803611
              22.96189454               -1.20314091               71.21406810                0.03421322                1.30761116               -0.35232499               -3.36170468               -4.49759934               15.88533948              -22.74516058
              23.97575950               -3.34804108               70.71151129                0.04731214                1.50694076                0.21629660               -5.12879960               -4.46490498               15.79553637              -28.50780133
              24.99203335               -5.49022450               70.20389743                0.06955331                1.83171017                0.80019189               -6.86275997               -4.03537990               14.90906785              -34.52056234
              26.01239370               -7.62419286               69.68317217                0.11782808                2.32284945                1.42546640               -8.55913458               -3.42482116               13.56136938              -39.68195169
              27.03849034               -9.74795242               69.14785556                0.29558188                2.92956274                3.32599353              -10.22746443               -1.85754244               10.27159430              -34.58733021
              28.07098496              -11.86222794               68.56020139                0.72414689                3.24946159                4.56283908              -12.01127100                1.13693546                7.72682453              -41.58922598
              20.02129477               10.32764208               73.72053186                0.61895228               -1.07846311               -1.76409534                4.78238501               -0.13403671                0.05239278               10.31581240
              21.01051014                8.26034180               72.96302972                0.05840129               -1.26520893               -0.35318777                2.30213581               -1.77029384               12.80496210              -10.48068328
              21.99599060                6.15641693               72.46089567                0.00010000               -0.83533308               -1.17182589                1.03603220               -4.86118854               25.59484632              -18.11349056
              22.99380348                4.03956291               71.95758003                0.00010000                0.20643892               -1.55455617               -1.07670697               -6.54750325               25.34689837              -25.59365525
              24.00011937                1.91378287               71.44772162                0.00010000                0.89038114               -1.45666709               -3.14450632               -7.84398205               24.83733895              -34.55803190
              25.01161110               -0.22166164               70.93275065                0.00010000                1.35628319               -1.02625264               -5.33119287               -8.58517556               24.18235153              -44.83387167
              26.02724504               -2.36094492               70.40872153                0.00010000                1.76031078               -0.41735500               -7.70127525               -8.38402935               23.25449380              -56.36740567
              27.04681732               -4.49704730               69.87456984                0.00010000                2.15201470                0.31142584              -10.44264406               -7.22716807               22.99894388              -68.89814510
              28.07028533               -6.62398909               69.34539227                0.00010000                3.54000573                1.37716980              -14.27527766               -3.96618500               32.39840825              -81.51391222
              29.11761743               -8.71516094               68.99965732                0.02424500                6.92234945                3.12854057              -25.98674928               -0.30227344               30.05924199              -96.63019743
              30.20873232              -10.81072256               68.42237246                0.54271751                9.11148861                4.18089856              -29.67351391                2.60565720               18.99477706             -115.44597400
              22.08015953               11.31109662               73.51087207                0.60206518               -0.84422400               -1.54375618                4.20458495               -0.11613483                0.12313390                9.74980715
              23.07171729                9.25802325               72.65943324                0.03818828               -1.13719326               -0.13244519                1.41549039               -2.68751074               18.44979394               -9.10990908
              24.05741567                7.14902280               72.17478265                0.00010000               -1.02054626               -0.21987658               -0.22308661               -5.68515466               36.58829632              -16.77523417
              25.05130637                5.03225545               71.68304394                0.00010000               -0.17317435               -0.09847281               -2.31636889               -6.62352932               35.87375559              -24.77643524
              26.05395218                2.90742069               71.18013842                0.00010000                0.68062230                0.09209795               -4.69004156               -7.50183142               34.67523523              -33.40441061
              27.06491882                0.77633404               70.66032549                0.00010000                1.47561965                0.53828409               -7.28721115               -7.84873605               32.88822530              -43.18289054
              28.08346458               -1.35638818               70.11858252                0.00010000                2.28076699                1.18792642              -10.20185054               -7.31126905               30.66928508              -54.36686950
              29.11053416               -3.48399598               69.55222229                0.00010000                3.38595344                2.00035585              -13.65021991               -5.50118622               28.79565747              -67.40645461
              30.15118364               -5.59664946               68.97196532                0.00010000                5.43220957                3.00445140              -18.37484910               -2.06159303               25.11225922              -84.00788868
              31.21917835               -7.68538161               68.33197452                0.01431956                8.15188475                2.91333068              -23.15288274                0.34711877               15.56915282             -114.59987076
              32.31422134               -9.77860997               67.56164854                0.53067840                9.50429924                3.39427423              -27.13438034                0.35882722                9.05590130             -139.82203113
              24.12511882               12.29676695               73.30483969                0.59468118               -0.62850687               -1.33046107                3.65572633               -0.11046705                0.12510735               10.00968305
              25.11883375               10.25769289               72.35908625                0.02983039               -0.85317606                0.07547277                0.52800240               -3.22535849               24.22579794               -8.82108782
              26.10805530                8.15201939               71.89555566                0.00010000               -0.79493769                0.63559443               -1.29123447               -6.50865984               48.04755494              -15.79092085
              27.10293500                6.03759346               71.42153008                0.00010000               -0.10255723                1.01310278               -3.57482270               -7.06343745               46.91916115              -23.10590240
              28.10600416                3.91562483               70.92922555                0.00010000                0.77551283                1.38487350               -6.18341562               -7.47936763               44.95617832              -31.14927980
              29.11844526                1.78910405               70.40977075                0.00010000                1.76727604                1.88181073               -9.12666474               -7.43994508               42.04445624              -40.27233046
              30.14134968               -0.33718639               69.85363230                0.00010000                2.93048067                2.52912605              -12.46403378               -6.64415623               38.11863155              -50.94087611
              31.17705487               -2.45704018               69.25116703                0.00010000                4.45447077                3.25250937              -16.31584767               -4.90584577               32.74669998              -63.90510209
              32.23043909               -4.56390006               68.58465251                0.00010000                6.47327232                3.77101418              -20.57481560               -2.55653289               24.92431351              -80.84334206
              33.30652032               -6.65689433               67.82503870                0.01706467                8.59632451                3.73225124              -24.89950587               -0.82757698               13.71134483             -100.83070293
              34.40236558               -8.74283708               66.93644009                0.53234777                9.58452668                4.43830666              -28.42208933               -0.23510743                7.10341982             -121.48119274
              26.15609832               13.28448740               73.10093230                0.58854414               -0.41406334               -1.13260343                3.11903675               -0.10942225                0.13797060               10.14827646
              27.15195768               11.25953271               72.06123759                0.02368923               -0.43782044                0.29897190               -0.35428482               -3.53770363               30.41153758               -8.62932252
              28.14734191                9.16173469               71.62716591                0.00010000               -0.27627485                1.22720094               -2.32163818               -7.01288821               60.30484881              -14.51912246
              29.14643219                7.05251751               71.17889440                0.00010000                0.27561656                1.83567843               -4.74602570               -7.42859699               58.76731200              -20.85126977
              30.15285424                4.93511816               70.70551987                0.00010000                1.12494736                2.35496814               -7.55538277               -7.55454311               56.06918074              -27.92476650
              31.16893114                2.81397025               70.19443981                0.00010000                2.19357197                2.94670559              -10.76920594               -7.22483751               52.00928663              -36.09203079
              32.19672568                0.69419434               69.63147409                0.00010000                3.50998853                3.64888225              -14.43330392               -6.33090440               46.32783435              -45.80375643
              33.23913091               -1.41894580               68.99947715                0.00010000                5.15907262                4.38003122              -18.55874568               -4.87726674               38.60067528              -57.68874554
              34.29990713               -3.52122918               68.27672093                0.00010000                7.12164599                4.98577315              -23.04667237               -3.08947666               28.30785481              -72.19040168
              35.38156383               -5.61073658               67.43702312                0.01993334                9.07487776                5.54164469              -27.59750573               -1.41620865               15.15413493              -89.35863103
              36.48140469               -7.68984383               66.45420707                0.53415494                9.98408619                6.31072010              -31.40013070               -0.43656145                7.65759491             -108.60874081
              28.17283977               14.27411489               72.89813012                0.58325361               -0.20073723               -0.94609476                2.58341755               -0.10865084                0.14757982               10.18500476
              29.17083240               12.26367233               71.76469704                0.01942508                0.09864836                0.53447830               -1.23409206               -3.72837622               37.19103750               -8.54978642
              30.17481274               10.17656341               71.37222405                0.00010000                0.50735937                1.66619226               -3.29919441               -7.30780977               73.73982504              -13.01372894
              31.18097959                8.07430702               70.96149976                0.00010000                0.93239053                2.37467131               -5.80157249               -7.64868026               71.77745025              -18.01242073
              32.19346055                5.96272419               70.51869063                0.00010000                1.69463724                2.99113057               -8.73955326               -7.51655357               68.36238353              -23.80356566
              33.21487233                3.84803816               70.02784759                0.00010000                2.70935456                3.71045608              -12.14933777               -6.93433933               63.22467445              -30.67554925
              34.24764764                1.73579125               69.47073688                0.00010000                4.00303593                4.56396493              -16.07618269               -5.97197441               56.04153782              -38.99068934
              35.29493305               -0.36943956               68.82584499                0.00010000                5.63963533                5.48277186              -20.53512483               -4.68432205               46.38889352              -49.19861816
              36.36044035               -2.46418460               68.06777473                0.00010000                7.59388766                6.39928862              -25.44326128               -3.13680093               33.84104769              -61.80687192
              37.44681080               -4.54606144               67.16858087                0.02306039                9.57042556                7.32323668              -30.52845817               -1.51035087               18.07331064              -77.33320380
              38.55184886               -6.61662268               66.09912610                0.53597754               10.50380552                8.25617805              -34.69896299               -0.43831466                9.05275871              -96.09772319
              30.17481041               15.26556551               72.69532532                0.57885296                0.01312204               -0.76479715                2.04856189               -0.10981824                0.15914718               10.10722949
              31.17494163               13.27022227               71.46838386                0.01752085                0.78703036                0.77869788               -2.11973298               -3.88566258               44.75755294               -8.56602965
              32.19055102               11.19505853               71.13343955                0.00010000                1.61780864                1.91941828               -4.20217081               -7.45084635               88.72156040              -11.23816664
              33.20729781                9.10001093               70.77554951                0.00010000                1.91205082                2.55333270               -6.69906892               -7.63734321               86.28939009              -14.56945553
              34.22879204                6.99494077               70.37814420                0.00010000                2.49397407                3.23866509               -9.67655038               -7.11685696               82.16563090              -18.82500471
              35.25717729                4.88817937               69.92274835                0.00010000                3.29859357                4.15602761              -13.19627409               -6.26344571               76.06239177              -24.13051521
              36.29476391                2.78547364               69.38833365                0.00010000                4.41215125                5.24070771              -17.32293090               -5.23541475               67.58044548              -30.70805536
              37.34542031                0.69070964               68.74955970                0.00010000                5.95145411                6.42975501              -22.09886482               -4.06267849               56.16328590              -38.96376897
              38.41379299               -1.39324340               67.97589119                0.00010000                7.91872875                7.66081536              -27.47607884               -2.70571373               41.21645068              -49.55731960
              39.50379489               -3.46427185               67.03292926                0.02589765                9.99839423                8.87813886              -33.18636617               -1.26163796               22.13072492              -63.51747493
              40.61376087               -5.52472027               65.88208229                0.53777046               10.99659872                9.98399079              -37.73486279               -0.31152248               11.08096139              -81.87805353
              32.16132988               16.25881894               72.49126534                0.57570345                0.22962471               -0.58359894                1.50796794               -0.11577513                0.21254904               10.04310206
              33.16362612               14.27924629               71.17141727                0.01774309                1.73386375                1.02915469               -3.01511339               -4.13420403               53.34568191               -8.80537647
              34.19600715               12.21495178               70.91419813                0.00010000                3.23621785                1.75827083               -5.00323142               -7.49867858              105.64807579               -8.91222445
              35.22835048               10.12537368               70.62797480                0.00010000                3.34739082                2.15019262               -7.38698239               -6.98298136              102.59490171              -10.39733107
              36.26295497                8.02749749               70.29288651                0.00010000                3.53600364                3.10694185              -10.30112528               -5.96269368               97.70880066              -13.06227152
              37.29907055                5.93115871               69.89045219                0.00010000                3.87270557                4.30667152              -13.82933681               -4.92175616               90.79253125              -16.63143492
              38.34040908                3.84060541               69.39855757                0.00010000                4.66629830                5.65594877              -18.05829510               -3.95776297               81.27533443              -21.19975891
              39.39239652                1.75915554               68.78846323                0.00010000                6.04492413                7.10328936              -23.06791265               -2.97875630               68.30316887              -27.10655974
              40.46130756               -0.31096829               68.02282578                0.00010000                8.03291971                8.60666395              -28.86314915               -1.90114797               50.81932062              -35.04429112
              41.55305491               -2.36849866               67.05515886                0.02908115               10.26038474               10.06177204              -35.20858489               -0.80334352               27.59041689              -46.53458054
              42.66651526               -4.41694286               65.82920859                0.53955170               11.34603430               11.35523144              -40.09104589               -0.13778835               13.90896912              -64.25036540
              34.13164022               17.25389353               72.28737499                0.57071209                0.44844963               -0.39234680                0.96330942               -0.12264984               -0.18964253                8.74794332
              35.13612472               15.29080537               70.87019051                0.01970743                3.14049189                1.27579790               -3.93479338               -4.76676197               63.31456693               -8.02810409
              36.19445006               13.23022395               70.72298728                0.00010000                5.94838746                0.22620937               -5.64828241               -5.98617584              125.15396553               -5.10397482
              37.25509247               11.14301478               70.52766825                0.00010000                5.46515369                1.37848426               -7.79917635               -4.75674957              120.69924981               -5.46267517
              38.30375313                9.05707961               70.27087858                0.00010000                4.52708923                2.76939640              -10.54419863               -3.52491934              115.01240848               -6.67908509
              39.34563425                6.97431280               69.94000818                0.00010000                4.19293424                4.27954721              -13.96611326               -2.76285132              107.60793260               -8.45272974
              40.38761182                4.89859261               69.51305041                0.00010000                4.58923153                5.85085597              -18.16940913               -2.14023280               97.50530817              -10.79089786
              41.43741888                2.83277543               68.95890733                0.00010000                5.79062065                7.47640004              -23.26872546               -1.54746490               83.53520861              -13.89696378
              42.50342423                0.77888988               68.23424666                0.00010000                7.81418533                9.14268502              -29.33997174               -0.92119373               63.88903940              -18.25239770
              43.59370259               -1.26303641               67.27573789                0.03210654               10.22346405               10.77665324              -36.25333292               -0.32695677               35.49059842              -24.97879181
              44.70789351               -3.29761564               65.98544954                0.54105253               11.41909230               12.17305728              -41.31369925               -0.05421812               18.09726147              -39.07604985
              36.08505321               18.25097201               72.05745623                0.78477247                0.69072603               -0.29215209                0.31189981                0.72032236                3.97375850                7.45218615
              37.09196047               16.30476225               70.58865156                0.51011616                6.95105054                1.39568807               -4.78736050               -5.99122718               77.10789708               -7.03816074
              38.22407422               14.21947597               70.58233467                0.45157820               10.71996810               -1.07479806               -6.01847736               -4.62852837              146.56154364               -2.83809579
              39.30635983               12.15294336               70.48252190                0.44099573                6.85421726                0.99285794               -7.86192988               -1.70279120              139.76675702               -2.93577130
              40.36115856               10.08288542               70.31767861                0.43745413                4.79703489                2.58058110              -10.33824690               -1.06914262              133.95127692               -3.50098975
              41.40230053                8.01674965               70.07695027                0.43987727                3.89916195                4.24368492              -13.53518703               -0.59651730              126.59137155               -4.40598350
              42.43914180                5.95762253               69.73913578                0.44858537                3.94247161                5.90299141              -17.57002095               -0.25030726              116.59273758               -5.63247949
              43.48114996                3.90868354               69.27264277                0.46381579                4.97768615                7.59081147              -22.58532976                0.08625191              102.61875573               -7.29659505
              44.53869552                1.87188541               68.63171755                0.48617980                7.09356703                9.29955361              -28.69918022                0.44467255               82.58531033               -9.70691865
              45.62302130               -0.15296559               67.74769768                0.51700679                9.79469214               11.00708154              -35.94800233                0.66351473               50.24698273              -13.42203567
              46.73458937               -2.17348171               66.45912672                0.77112431               11.15680681               12.41339305              -41.01942896                0.61797343               29.26031448              -24.33703885
              16.44080395                8.67503991               75.22569427                0.88022559               -1.61007131               -1.79918833                6.11124205               -0.46462550               -5.37604105                5.88151141
              17.42470324                6.48931761               74.58606615                0.62406310               -1.59695837               -1.04462316                4.12450110               -0.54902168               -7.55645298               -4.48442016
              18.40886478                4.29466834               73.90321752                0.50381464               -1.42039971               -0.56961612                2.03326044               -0.48711963               -7.83405007               -0.41149748
              19.39629524                2.08217084               73.25883832                0.46364705               -0.93210986                0.01002879                0.03918298               -0.43298855               -5.37787130               -0.47090645
              20.39022258               -0.14802579               72.62551510                0.45127595               -0.16807477                0.58087340               -2.00681262               -0.36895464               -4.38381507               -0.27533914
              21.39293375               -2.39119358               72.00109317                0.45807942                0.76779985                1.16544852               -4.10047786               -0.31999496               -3.79029868               -0.09427206
              22.40557858               -4.63948382               71.37948391                0.48526444                1.73945916                1.75059881               -6.22012402               -0.29762364               -3.87463574                0.09770848
              23.42772293               -6.88487244               70.75313484                0.53772974                2.60931423                2.32013655               -8.31919620               -0.30068057               -4.67540376                0.29039132
              24.45776487               -9.12191956               70.11513100                0.62742500                3.31050888                2.87868685              -10.39188776               -0.30290821               -6.31026926                0.36956881
              25.49393311              -11.34873036               69.45545780                0.77547555                3.86898751                3.42860901              -12.45754772               -0.30482922               -6.82591239                1.18629611
              26.53514462              -13.56673086               68.80630762                0.94975183                4.12115092                4.03523434              -14.48475113               -0.66964526               -6.25498916               -4.40613437
              18.62188000                9.65704803               74.96895939                0.68492075               -1.24811916               -1.85447156                5.33794863               -0.27754912                3.96940522                8.68321796
              19.60939880                7.47887138               74.32426316                0.15744832               -0.71565133               -0.75644454                3.37012919               -0.60525814                9.03094453               -8.30595802
              20.60756697                5.28897218               73.78105638                0.03406762                0.19568100               -1.15501936                1.77953552               -1.92426827               13.99671870               -9.85563365
              21.61331242                3.08227113               73.23536683                0.02440069                0.78241390               -1.14404536                0.07766221               -3.06728908               14.55937985              -13.75792877
              22.62321525                0.85778294               72.70339842                0.02768523                1.10751924               -0.78766614               -1.64996195               -3.93823506               15.67315161              -18.54726625
              23.63546281               -1.37953909               72.18010083                0.03551591                1.31132648               -0.26975446               -3.42809486               -4.36156714               16.24747021              -24.08995634
              24.64944178               -3.62197783               71.65966922                0.04890405                1.52355935                0.30787364               -5.23112595               -4.29985029               16.16290314              -30.30855474
              25.66593400               -5.86167107               71.13451387                0.07140217                1.86114835                0.88614397               -7.00599921               -3.84858092               15.30995214              -36.97904889
              26.68666474               -8.09313269               70.59660236                0.11252128                2.36782344                1.47957615               -8.74324849               -3.20569274               13.99827196              -43.36670721
              27.71329046              -10.31444427               70.04446185                0.27794651                2.98919618                3.14794719              -10.44698949               -1.63312004               10.66549257              -43.48390673
              28.74644867              -12.52637852               69.43886914                0.71096425                3.31582025                4.27986209              -12.25309199                1.44255364                8.05725828              -52.24001662
              20.79160627               10.63795048               74.76866866                0.60958748               -1.09323457               -1.79692613                4.84004046               -0.13081977                0.02706308               10.71142858
              21.78067392                8.47418872               73.98625061                0.04783130               -1.23133012               -0.34892665                2.33983990               -1.87775889               13.32747140              -10.83365857
              22.76697966                6.27156795               73.47011419                0.00010000               -0.72676101               -1.15941803                0.83660331               -4.85040767               26.34045613              -18.78357242
              23.76613870                4.05928994               72.94610955                0.00010000                0.31442200               -1.48554103               -1.20728853               -6.36694031               25.74449062              -26.86787731
              24.77326810                1.83622088               72.41562170                0.00010000                0.96622366               -1.34476676               -3.26702438               -7.64993937               25.19072356              -36.48365032
              25.78546317               -0.39658866               71.87884221                0.00010000                1.42227273               -0.89760623               -5.44358476               -8.30973057               24.41589529              -47.49548311
              26.80171356               -2.63332634               71.33121756                0.00010000                1.82215006               -0.29160298               -7.79274731               -8.06033628               23.27025109              -59.91142719
              27.82190617               -4.86714956               70.76979819                0.00010000                2.23553238                0.40318915              -10.49511473               -6.89994008               22.39515122              -73.61465655
              28.84642421               -7.09232804               70.20246364                0.00010000                3.63051781                1.35986201              -14.23762394               -3.85927176               27.49014415              -88.07256693
              29.89451653               -9.28577141               69.73902772                0.01277422                7.07199917                2.89250780              -25.26450520               -0.33954029               24.66140524             -105.38628153
              30.98786419              -11.48113362               69.11360310                0.53468436                9.33476586                3.90836787              -30.70934032                2.57858876               16.48764745             -125.87903309
              22.94678712               11.62110950               74.55317226                0.59312834               -0.85609709               -1.57113323                4.25324800               -0.11302936                0.12546396               10.12103130
              23.93822615                9.47189284               73.67376600                0.02838167               -1.06647617               -0.13147559                1.45020862               -2.73035206               18.96107636               -9.39480362
              24.92545760                7.26578382               73.17130017                0.00010000               -0.84527313               -0.09826227               -0.42594254               -5.66997032               37.44947172              -17.60029441
              25.92132069                5.05256031               72.65867022                0.00010000                0.03187302               -0.03438071               -2.53216380               -6.51051296               36.44596573              -26.06195819
              26.92609506                2.83088761               72.13224481                0.00010000                0.87473685                0.17276403               -4.87256381               -7.31362644               35.01453462              -35.29999217
              27.93881543                0.60250879               71.58673508                0.00010000                1.63504431                0.61829747               -7.41896827               -7.58666004               32.99857044              -45.78126102
              28.95879595               -1.62780989               71.01624222                0.00010000                2.40607311                1.24515647              -10.25490215               -7.00308593               30.42854727              -57.77605887
              29.98693689               -3.85360729               70.41594166                0.00010000                3.46526089                2.00536062              -13.58418872               -5.24548990               27.75857630              -71.71141301
              31.02810116               -6.06593545               69.78901443                0.00010000                5.41841758                2.91197116              -18.10774732               -2.02679878               23.47740208              -88.92237001
              32.09530524               -8.25659411               69.10112413                0.00373445                8.03218449                2.85753593              -22.83543622                0.33806523               14.24283148             -116.28656526
              33.18874485              -10.44821116               68.29157795                0.52376304                9.34396136                3.25927255              -26.64332617                0.30338746                7.86860076             -141.27609746
              25.08777900               12.60652781               74.34162560                0.58628469               -0.63864350               -1.35395420                3.69716398               -0.10863446                0.12531663               10.40555321
              26.08139256               10.47155921               73.36450887                0.02047112               -0.74331035                0.07569248                0.55643557               -3.24057452               24.80599515               -9.10639794
              27.07291279                8.26960271               72.88118730                0.00010000               -0.52839544                0.69896133               -1.52554724               -6.48000982               49.03586534              -16.53142299
              28.07082466                6.05860232               72.38426872                0.00010000                0.20671535                1.06723534               -3.83936582               -6.95986075               47.58742447              -24.35734557
              29.07704710                3.83967616               71.86613614                0.00010000                1.08014056                1.42082096               -6.40899792               -7.30188381               45.32290942              -32.96041511
              30.09242747                1.61577729               71.31771275                0.00010000                2.03604076                1.89619823               -9.26607525               -7.18702713               42.08497075              -42.72537429
              31.11776791               -0.60842322               70.72890070                0.00010000                3.13472366                2.50360426              -12.46709554               -6.35150414               37.76056250              -54.10036865
              32.15512194               -2.82704235               70.08892245                0.00010000                4.55535687                3.16699412              -16.11730348               -4.65596414               31.99094487              -67.73756531
              33.20887505               -5.03408862               69.38113439                0.00010000                6.42158012                3.62974409              -20.12110090               -2.43758192               23.98094474              -84.88477554
              34.28355354               -7.22862069               68.58006970                0.00665611                8.41454919                3.55170230              -24.12786189               -0.81419056               13.05676635             -104.94824687
              35.37716604               -9.41594817               67.65694732                0.52521259                9.36124933                4.03974811              -27.52105509               -0.30684143                6.67421602             -125.73020619
              27.21455165               13.59403042               74.13228871                0.58045326               -0.42118826               -1.15168341                3.14629914               -0.10823157                0.13686061               10.55118121
              28.21033977               11.47340669               73.05780395                0.01481159               -0.28686806                0.30006705               -0.33006824               -3.54247448               31.08253771               -8.91152605
              29.20881429                9.27976305               72.60236325                0.00010000                0.08551260                1.25578545               -2.57736726               -6.98372109               61.46619126              -15.23233296
              30.21205002                7.07390502               72.12967402                0.00010000                0.70340655                1.85089037               -5.05090743               -7.35182663               59.57321565              -22.01710503
              31.22288242                4.85930402               71.62849207                0.00010000                1.55621219                2.33946919               -7.81527724               -7.39977187               56.50245686              -29.59247563
              32.24317426                2.64043275               71.08588930                0.00010000                2.58515374                2.88847719              -10.91397041               -6.99399928               52.03953313              -38.32322076
              33.27458549                0.42226220               70.48727568                0.00010000                3.81543712                3.53318735              -14.38700270               -6.05653610               45.93172764              -48.64984404
              34.31948300               -1.79026741               69.81553039                0.00010000                5.31711898                4.19241769              -18.22788819               -4.62579267               37.82511772              -61.13698997
              35.38092787               -3.99334057               69.05007957                0.00010000                7.06989880                4.71709770              -22.32137316               -2.96017254               27.34624664              -76.19744603
              36.46088098               -6.18556006               68.16772948                0.00921658                8.81675486                5.14793418              -26.38905672               -1.41941799               14.45978936              -93.82792500
              37.55726297               -8.36741620               67.14815657                0.52679878                9.63819895                5.78344300              -29.96909200               -0.56839407                7.24948752             -113.50170696
              29.32686182               14.58349415               73.92406985                0.57556069               -0.20513717               -0.96082957                2.60055560               -0.11005773                0.14872270               10.59017096
              30.32481045               12.47756055               72.75242521                0.01309928                0.29391136                0.53678870               -1.21725473               -3.73908789               37.98310206               -8.83495085
              31.33274005               10.29471842               72.33755417                0.00010000                0.97183478                1.66188370               -3.57093796               -7.29678672               75.13737093              -13.68133250
              32.34424714                8.09562013               71.90150837                0.00010000                1.48919401                2.34073950               -6.14213683               -7.60507733               72.78852422              -19.05942544
              33.36252393                5.88646555               71.42960103                0.00010000                2.26710822                2.91483671               -9.03432859               -7.39818261               68.92994843              -25.26721807
              34.38958931                3.67354683               70.90538705                0.00010000                3.24067105                3.57809240              -12.30672510               -6.73994839               63.30425338              -32.61243509
              35.42733735                1.46224053               70.31025802                0.00010000                4.43097721                4.35779584              -15.99391934               -5.73257492               55.60358162              -41.45842247
              36.47820885               -0.74319399               69.62275983                0.00010000                5.88134549                5.18359296              -20.08145014               -4.46193584               45.47201958              -52.24876137
              37.54496426               -2.93974666               68.81857683                0.00010000                7.55159778                5.98620621              -24.45782032               -3.03729458               32.63837377              -65.46884181
              38.62924081               -5.12566201               67.87254628                0.01196439                9.22730800                6.77065102              -28.86472137               -1.55563152               17.16881025              -81.56113275
              39.72951042               -7.30027931               66.76317993                0.52846556               10.02696099                7.56236875              -32.72243976               -0.61236048                8.55936142             -100.74795276
              31.42421769               15.57481383               73.71585573                0.57102737                0.01160450               -0.77651275                2.05367216               -0.11212150                0.16080032               10.51290905
              32.42433374               13.48414247               72.44721462                0.01398961                1.03006403                0.78322057               -2.10919806               -3.91752307               45.71385606               -8.86260533
              33.44481897               11.31300072               72.08967034                0.00010000                2.19338025                1.87674610               -4.48827927               -7.47868905               90.44242466              -11.83446268
              34.46820134                9.12071981               71.70637537                0.00010000                2.60865467                2.46185706               -7.07511068               -7.63344316               87.59363243              -15.45103349
              35.49699207                6.91760076               71.27943156                0.00010000                3.21994843                3.09792627              -10.01301882               -7.03721589               82.95364034              -20.02263962
              36.53260031                4.71199460               70.78962230                0.00010000                3.98413751                3.95381398              -13.38261049               -6.11402332               76.26414948              -25.69647613
              37.57667482                2.50941811               70.21538170                0.00010000                4.98155850                4.95308701              -17.23148608               -5.04807895               67.14257682              -32.70367077
              38.63223148                0.31340445               69.53123520                0.00010000                6.29875920                6.02826725              -21.55914723               -3.89320385               55.10006391              -41.45738066
              39.70265000               -1.87361645               68.70750980                0.00010000                7.90347582                7.12121189              -26.26891452               -2.65212965               39.72527847              -52.61232720
              40.79030100               -4.05014704               67.71271525                0.01491420                9.58001769                8.18604520              -31.08857862               -1.34267051               20.97806987              -67.12321272
              41.89425035               -6.21616882               66.51866828                0.53015842               10.39493571                9.12346153              -35.23889982               -0.51054811               10.47508415              -85.85039635
              33.50596211               16.56796389               73.50632921                0.56810914                0.23109835               -0.59017677                1.50213478               -0.11503807                0.21598770               10.44553134
              34.50827310               14.49322496               72.14124859                0.01715432                2.03134076                1.03475952               -3.01348454               -4.20596544               54.52627524               -9.12203384
              35.54658893               12.33225334               71.86235274                0.00010000                3.93525733                1.66070983               -5.30434418               -7.58967286              107.80645345               -9.39583707
              36.58697824               10.14485727               71.55169807                0.00010000                4.19579452                1.98953421               -7.80280518               -7.00980012              104.29839005              -11.05433345
              37.63050482                7.94842407               71.18761855                0.00010000                4.42566224                2.90545799              -10.69109821               -5.91280080               98.81787470              -13.92731671
              38.67549149                5.75262311               70.75067560                0.00010000                4.72305484                4.04545957              -14.06823303               -4.81645416               91.21298165              -17.74746320
              39.72496592                3.56130227               70.21802509                0.00010000                5.39439237                5.30441974              -17.99791899               -3.83099472               80.92530316              -22.61634199
              40.78337934                1.37737135               69.56050410                0.00010000                6.52536236                6.62450741              -22.50210565               -2.87499301               67.16088471              -28.88242047
              41.85547316               -0.79732242               68.74128899                0.00010000                8.07802193                7.96392267              -27.50755567               -1.89422176               49.06338680              -37.25243646
              42.94493977               -2.96194111               67.71677359                0.01748122                9.79349246                9.25132925              -32.73503581               -0.90106865               26.19417464              -49.21922173
              44.05134301               -5.11781008               66.44470890                0.53166007               10.64032376               10.35433813              -37.14299192               -0.32713793               13.19088444              -67.16983061
              35.57139480               17.56301029               73.29691708                0.56301619                0.45301840               -0.39100419                0.94371570               -0.12101441               -0.19789347                9.09571640
              36.57592498               15.50483766               71.83078847                0.01965610                3.49992046                1.28048699               -3.94075705               -4.90932583               64.80279352               -8.32660102
              37.64139320               13.34621492               71.66459566                0.00010000                6.79548133                0.02580901               -5.97091068               -6.11222708              127.90007625               -5.38965359
              38.71183461               11.16051049               71.44700484                0.00010000                6.47885033                1.15866889               -8.26441094               -4.78858227              122.91345281               -5.82438376
              39.77097021                8.97570992               71.16279800                0.00010000                5.57792114                2.51925805              -11.00310541               -3.49319178              116.54829750               -7.14297857
              40.82339303                6.79290379               70.79840376                0.00010000                5.21682331                3.97233420              -14.28498104               -2.70376941              108.35822424               -9.04380630
              41.87530668                4.61550651               70.33092027                0.00010000                5.49816432                5.45215179              -18.18801432               -2.07572995               97.36002321              -11.53661037
              42.93335632                2.44589460               69.72854118                0.00010000                6.43856737                6.94624163              -22.75713394               -1.50828066               82.42673720              -14.82839368
              44.00407802                0.28566201               68.94795563                0.00010000                7.97054812                8.43714017              -27.95401874               -0.94305523               61.94137463              -19.41079864
              45.09276728               -1.86512046               67.92825649                0.02058994                9.76837553                9.87017038              -33.52520118               -0.40291360               33.89504415              -26.45548797
              46.19944554               -4.00908206               66.59023070                0.53327567               10.66782578               11.11029149              -38.08659433               -0.17358743               17.30903341              -40.60676899
              37.61988710               18.56014381               73.06041146                0.78090250                0.69948612               -0.28664862                0.27851203                0.71831917                4.13182821                7.74781337
              38.62688196               16.51883470               71.54067758                0.50585349                7.43922294                1.39970404               -4.80279527               -6.27301658               79.09323591               -7.30801045
              39.76867155               14.33276952               71.52001715                0.45045044               11.74148196               -1.34453965               -6.38560164               -4.81236754              150.03181865               -2.99279241
              40.86171160               12.16803065               71.40088316                0.44076780                7.97880649                0.75201569               -8.39445694               -1.71031527              142.57941735               -3.13228512
              41.92824768                9.99880923               71.21119660                0.43745108                5.99539571                2.30993160              -10.88390110               -1.07029541              136.01685961               -3.74604848
              42.98161951                7.83206979               70.93907513                0.43970972                5.11064104                3.91660032              -13.95904232               -0.60054815              127.78536464               -4.71160644
              44.03046051                5.67034531               70.56228347                0.44783555                5.07193564                5.48388000              -17.71078319               -0.27329755              116.77219005               -6.01032816
              45.08305822                3.51629619               70.04826136                0.46195084                5.85833065                7.04015848              -22.20640313                0.02394444              101.66656399               -7.75673576
              46.14762712                1.37142038               69.35091644                0.48272986                7.42836726                8.57583736              -27.43594615                0.31321512               80.53955041              -10.25747618
              47.23162557               -0.76453770               68.40295960                0.51122108                9.40836725               10.05827602              -33.21397609                0.53459772               48.48939885              -14.14183915
              48.33579446               -2.89560425               67.06618785                0.76710719               10.41688948               11.34778124              -37.82456500                0.52823802               28.37315483              -25.02840321
              17.03580899                8.99523659               76.28717718                0.87455739               -1.62624118               -1.81680957                6.17399303               -0.47061226               -5.53324440                6.03160124
              18.01954658                6.70931920               75.62753192                0.61657557               -1.62294150               -1.05358152                4.16366008               -0.56579797               -7.75768873               -4.62595794
              19.00335016                4.41417397               74.92369820                0.50052656               -1.44978435               -0.57239892                2.06084721               -0.49165927               -8.03270254               -0.37559742
              19.99055090                2.10080381               74.25929799                0.46258524               -0.94632772                0.01129571                0.05238640               -0.43753025               -5.55861246               -0.45925189
              20.98442361               -0.23041072               73.60540378                0.45113832               -0.16788528                0.59128287               -2.01374841               -0.37471564               -4.61630389               -0.27001479
              21.98719319               -2.57451590               72.95993417                0.45835548                0.77507752                1.18268170               -4.12625054               -0.32583483               -4.06185073               -0.09370974
              22.99992516               -4.92368731               72.31703649                0.48473072                1.75123963                1.77414791               -6.26282183               -0.30633925               -4.15613282                0.08793290
              24.02221798               -7.27000139               71.66955444                0.53518152                2.63001658                2.35325573               -8.39173711               -0.30999523               -4.94678214                0.27199252
              25.05252549               -9.60804977               71.01064653                0.62134173                3.34101724                2.91901277              -10.48994058               -0.30951422               -6.57497412                0.34961326
              26.08903833              -11.93596301               70.33019476                0.76158644                3.90588223                3.47625283              -12.57257908               -0.30925639               -7.07800599                1.17805965
              27.13064314              -14.25522507               69.66063435                0.93960136                4.16048092                4.09013214              -14.62384731               -0.65896427               -6.49944251               -4.53673487
              19.31702026                9.97706850               76.02264160                0.67435511               -1.26003471               -1.87894060                5.39068491               -0.28535442                4.15006089                8.97782424
              20.30441992                7.69878339               75.35815110                0.14498584               -0.71644983               -0.75767074                3.40158983               -0.62755293                9.40075968               -8.58186840
              21.30269127                5.40844998               74.79888351                0.03510785                0.20240112               -1.18361385                1.79025143               -1.91380016               14.50028111              -10.20152972
              22.30846794                3.10091677               74.23610536                0.02557699                0.78225206               -1.09509207                0.07311802               -3.01564952               15.00007111              -14.43290412
              23.31833631                0.77550210               73.68669614                0.02888068                1.10525988               -0.71629017               -1.68763158               -3.84141352               16.07634359              -19.54166688
              24.33057314               -1.56268908               73.14550621                0.03679210                1.31341028               -0.18448300               -3.48924185               -4.21539906               16.61066481              -25.43757416
              25.34460451               -3.90594583               72.60688877                0.05037852                1.53630605                0.39704236               -5.32148322               -4.10054145               16.51840057              -32.08323816
              26.36129926               -6.24646883               72.06377744                0.07296840                1.89033237                0.96165860               -7.13556662               -3.58287575               15.69681467              -39.36422236
              27.38241116               -8.57885964               71.50830720                0.11344156                2.41170783                1.50986359               -8.90851287               -2.81992318               14.41516344              -46.87895180
              28.40953341              -10.90120048               70.93891577                0.25860914                3.04521957                2.82070816              -10.64726966               -1.23981772               11.04327961              -51.44131403
              29.44331555              -13.21432374               70.31513955                0.69642979                3.37821386                3.71065177              -12.47736944                1.62224276                8.38293017              -62.55962475
              21.58667213               10.95765778               75.81733267                0.60026752               -1.10580839               -1.82540948                4.88948713               -0.12614608                0.00112873               11.10890205
              22.57561404                8.69416579               75.00982652                0.03799536               -1.18656746               -0.34572329                2.37222190               -1.93825493               13.75555914              -11.17743430
              23.56294078                6.39050169               74.47762774                0.00010000               -0.62141328               -1.12530933                0.69364826               -4.82270994               27.02483069              -19.55643415
              24.56318578                4.07890197               73.93343426                0.00010000                0.41302046               -1.40298246               -1.31284548               -6.22125537               26.18116371              -28.22646315
              25.57120119                1.75526347               73.38238113                0.00010000                1.05736845               -1.22978470               -3.37023914               -7.46329104               25.55419898              -38.45781166
              26.58433315               -0.57820556               72.82387896                0.00010000                1.52464472               -0.77363240               -5.53883616               -8.03451323               24.65520145              -50.16086126
              27.60169408               -2.91574647               72.25286658                0.00010000                1.95705627               -0.18233315               -7.86599548               -7.71691123               23.29308222              -63.39444304
              28.62347427               -5.25076821               71.66466754                0.00010000                2.45822987                0.45601606              -10.50888991               -6.52359054               21.82139448              -78.17060775
              29.65085868               -7.57785249               71.06063979                0.00010000                3.81159035                1.25460099              -14.04737500               -3.78212869               23.22942906              -94.29140292
              30.69970608               -9.87954884               70.49436722                0.00572837                6.92379215                2.45227921              -23.17991128               -0.56107448               19.18059566             -113.57386637
              31.78933452              -12.18101203               69.80818565                0.52563406                8.96284427                3.34238031              -29.16098558                2.22218950               12.63923723             -135.57449290
              23.84148133               11.94056031               75.59593703                0.58444390               -0.86704209               -1.59481054                4.29514196               -0.10981424                0.12710797               10.49363156
              24.83281091                9.69186892               74.68843741                0.02224748               -0.99902230               -0.13194012                1.48247345               -2.74193029               19.38396319               -9.67121641
              25.82150088                7.38594379               74.16626380                0.00010000               -0.67649301               -0.00869160               -0.55020369               -5.64699089               38.20626645              -18.45082106
              26.81928105                5.07285712               73.63240066                0.00010000                0.23385649                0.02703876               -2.69640999               -6.42442510               37.01328662              -27.40733305
              27.82617801                2.75090641               73.08268714                0.00010000                1.08058806                0.24528965               -5.02019361               -7.16008615               35.37400010              -37.23197786
              28.84089281                0.42183827               72.51194613                0.00010000                1.83254670                0.68239509               -7.52412751               -7.37259714               33.13693538              -48.36836466
              29.86282895               -1.90959250               71.91348448                0.00010000                2.60203328                1.27596199              -10.28314660               -6.77648154               30.23200891              -61.10265309
              30.89293348               -4.23734851               71.28053851                0.00010000                3.63601350                1.96939968              -13.47429510               -5.15046603               26.83368336              -75.83305755
              31.93554922               -6.55376762               70.60981037                0.00010000                5.42689926                2.75958921              -17.65654489               -2.33771663               21.91868840              -93.55156627
              33.00147146               -8.85215490               69.87526580                0.00010000                7.75682484                2.85421116              -22.16295773               -0.07859389               12.99249588             -118.20755001
              34.09068571              -11.14747614               69.02878201                0.51710977                8.92142538                3.34961005              -25.74176986                0.10588354                6.90316136             -142.34100829
              26.08185862               12.92576157               75.37878297                0.57814886               -0.64666622               -1.37467632                3.72675810               -0.10727275                0.12241242               10.79503218
              27.07539195               10.69152698               74.37021496                0.01720512               -0.64229279                0.07584614                0.58583493               -3.23553617               25.28467426               -9.37935365
              28.06901276                8.39032786               73.86504472                0.00010000               -0.28286492                0.73886868               -1.66699820               -6.43947284               49.89818932              -17.30792744
              29.06973466                6.07944275               73.34474277                0.00010000                0.50027751                1.10393191               -4.03261258               -6.88359789               48.23663885              -25.65202414
              30.07901831                3.76016927               72.80104559                0.00010000                1.38227276                1.44486749               -6.58290058               -7.17451561               45.71371844              -34.79738999
              31.09738011                1.43544235               72.22444924                0.00010000                2.31664605                1.89966337               -9.36723303               -7.01755587               42.17931740              -45.15999166
              32.12535123               -0.89022723               71.60429039                0.00010000                3.36299811                2.47163177              -12.44181660               -6.19661863               37.49576271              -57.17161178
              33.16464007               -3.21138022               70.92882096                0.00010000                4.67797511                3.09127639              -15.89411303               -4.62687932               31.37026218              -71.38899552
              34.21891073               -5.52266071               70.18223049                0.00010000                6.36013240                3.55735411              -19.65643160               -2.60003227               23.21147150              -88.68271183
              35.29184272               -7.82246462               69.34248147                0.00010000                8.15919723                3.61916185              -23.41346535               -1.00739858               12.53794953             -108.71240690
              36.38209468              -10.11401983               68.38601899                0.51870117                9.02519572                4.06827777              -26.69695064               -0.41279399                6.33619494             -129.68028410
              28.30780505               13.91306678               75.16385828                0.57231477               -0.42711479               -1.17051428                3.16617772               -0.10584998                0.13951645               10.94899753
              29.30353390               11.69338584               74.05463623                0.01422883               -0.15046901                0.30178318               -0.30361291               -3.53637258               31.64360074               -9.18256053
              30.30479567                9.40072116               73.57561857                0.00010000                0.41168926                1.26509095               -2.73288846               -6.94929213               62.48092314              -15.97133091
              31.31176768                7.09493576               73.07787625                0.00010000                1.09462179                1.84872111               -5.26877375               -7.29744248               60.34617200              -23.21796257
              32.32668810                4.77980376               72.54921432                0.00010000                1.95852503                2.31355362               -8.00712636               -7.29708478               56.96311470              -31.27981049
              33.35093818                2.45983154               71.97616040                0.00010000                2.95155203                2.83070516              -11.00750908               -6.85216627               52.14708095              -40.53569328
              34.38571914                0.13984014               71.34373404                0.00010000                4.09455949                3.43720050              -14.30916147               -5.91796319               45.67569861              -51.41393093
              35.43282937               -2.17552298               70.63491938                0.00010000                5.44569155                4.06303105              -17.90316942               -4.55230623               37.27100588              -64.41629752
              36.49463297               -4.48262054               69.83029347                0.00010000                6.99266176                4.58345225              -21.68436594               -2.98690186               26.68545689              -79.92307418
              37.57268261               -6.77977166               68.90924198                0.00010000                8.54536390                5.00973824              -25.42348155               -1.48744267               14.00444098              -97.92695803
              38.66554025               -9.06611058               67.85482523                0.52000189                9.28576423                5.59631975              -28.84294041               -0.65018677                6.98816491             -117.99400564
              30.51910349               14.90235128               74.95014123                0.56763215               -0.20933731               -0.97512295                2.61205438               -0.10368363                0.15049455               10.99468350
              31.51701012               12.69756265               73.74035194                0.01324131                0.46867551                0.53804718               -1.19512787               -3.74256791               38.65831359               -9.11237458
              32.52847700               10.41562968               73.30080529                0.00010000                1.38465453                1.64247699               -3.73905000               -7.28511914               76.36977112              -14.36560539
              33.54470321                8.11641717               72.83865702                0.00010000                1.98519147                2.29323978               -6.38257289               -7.57738945               73.74898852              -20.13257347
              34.56818083                5.80644034               72.33800406                0.00010000                2.77985985                2.83333487               -9.24512787               -7.32154559               69.52161705              -26.74734724
              35.60030041                3.49205645               71.78171309                0.00010000                3.70828281                3.45648831              -12.39801228               -6.61758003               63.47687644              -34.53558871
              36.64234649                1.17851678               71.15085849                0.00010000                4.78771084                4.18965027              -15.87277117               -5.59463224               55.35040628              -43.85882267
              37.69605462               -1.13011960               70.42421598                0.00010000                6.05374433                4.96703720              -19.64653614               -4.35221669               44.86299661              -55.14922854
              38.76342138               -3.43099167               69.57861833                0.00010000                7.47646454                5.72092153              -23.61339148               -2.99823577               31.86880450              -68.87192336
              39.84558392               -5.72226986               68.59128645                0.00174765                8.91737085                6.44041237              -27.56638971               -1.57932845               16.61316128              -85.42103795
              40.94176879               -8.00209344               67.44467730                0.52178873                9.61848776                7.14267044              -31.20572761               -0.69154557                8.27296686             -105.00076412
              32.71530865               15.89356432               74.73639876                0.56336366                0.00955018               -0.78415336                2.05580674               -0.10638453                0.16596269               10.91693814
              33.71540415               13.70414679               73.42619990                0.01409683                1.24650584                0.78345549               -2.09304076               -3.94378184               46.54731365               -9.15191306
              34.74023876               11.43357070               73.04367397                0.00010000                2.70025427                1.82400201               -4.66989118               -7.50682497               91.97646096              -12.43914908
              35.76940923                9.14080055               72.63404729                0.00010000                3.21895730                2.36201862               -7.34029553               -7.63754920               88.82395520              -16.34983360
              36.80461791                6.83647046               72.17788382                0.00010000                3.85504519                2.95721920              -10.24974759               -6.98425693               83.75238839              -21.23412219
              37.84651014                4.52896131               71.65509614                0.00010000                4.56923190                3.76857713              -13.48533834               -6.01070399               76.56215468              -27.25626804
              38.89600255                2.22363314               71.04370393                0.00010000                5.43916763                4.71116083              -17.08582765               -4.92016959               66.91982987              -34.65280129
              39.95529349               -0.07618224               70.31837675                0.00010000                6.54079840                5.71603766              -21.03392743               -3.77697800               54.41806062              -43.83657825
              41.02681851               -2.36820211               69.45051290                0.00010000                7.84521601                6.72644115              -25.22931509               -2.59483721               38.79543987              -55.44941231
              42.11219781               -4.65096341               68.41115769                0.00425978                9.22689905                7.69227600              -29.45425028               -1.35602430               20.28087846              -70.38748434
              43.21135650               -6.92325717               67.17730429                0.52302025                9.91586862                8.50957730              -33.32761935               -0.59470002               10.13158262              -89.45546108
              34.89581087               16.88666822               74.52130804                0.56067461                0.23172281               -0.59193586                1.49143821               -0.11209936                0.21923270               10.84627834
              35.89812810               14.71323176               73.11114758                0.01719986                2.29379320                1.03487861               -3.00205256               -4.27303177               55.57555497               -9.43351400
              36.94168674               12.45210972               72.80811125                0.00010000                4.54621857                1.55978794               -5.50283919               -7.67888813              109.75280057               -9.87964449
              37.98905247               10.16365754               72.47191869                0.00010000                4.93241020                1.82707353               -8.09898412               -7.03875211              105.89732398              -11.71978720
              39.04033494                7.86558472               72.07906455                0.00010000                5.19355842                2.70857626              -10.96601138               -5.87636471               99.91278613              -14.80247712
              40.09292364                5.56742799               71.60908753                0.00010000                5.43758497                3.80379205              -14.20320953               -4.73391959               91.71685120              -18.86426381
              41.14908664                3.27274000               71.03859919                0.00010000                5.97133365                4.99844394              -17.85952947               -3.72772634               80.79988240              -24.00983483
              42.21235031                0.98420115               70.33842112                0.00010000                6.86095832                6.23162630              -21.92968123               -2.77890336               66.45186697              -30.58930627
              43.28630581               -1.29646284               69.47267466                0.00010000                8.05840917                7.46242808              -26.32195634               -1.84537963               47.99001647              -39.30565619
              44.37351850               -3.56842434               68.40045814                0.00687398                9.40782559                8.63156161              -30.80448980               -0.91542265               25.35917649              -51.61511376
              45.47446232               -5.83190189               67.08634875                0.52434797               10.09438209                9.60135987              -34.88389609               -0.40929140               12.78993210              -69.79966213
              37.05993958               17.88172560               74.30624930                0.55568856                0.45624355               -0.38643513                0.92104084               -0.12079112               -0.20790513                9.43899373
              38.06450201               15.72484436               72.79137537                0.01954448                3.81478201                1.27960335               -3.93444439               -5.04338741               66.14786478               -8.61998434
              39.13623522               13.46476646               72.60356907                0.00010000                7.53285865               -0.16662925               -6.19354939               -6.23420325              130.40241356               -5.67254116
              40.21515919               11.17734202               72.36238003                0.00010000                7.35424729                0.94417389               -8.60310440               -4.82041145              124.98546305               -6.18706374
              41.28332016                8.89064198               72.05081647                0.00010000                6.47586401                2.27912573              -11.33283333               -3.46680152              118.03608233               -7.61189178
              42.34467647                6.60503715               71.65430856                0.00010000                6.06773477                3.68733982              -14.47789492               -2.65213272              109.16490053               -9.63825372
              43.40467486                4.32360202               71.14929012                0.00010000                6.21208996                5.09747728              -18.09668919               -2.01370661               97.42679503              -12.27656125
              44.46891826                2.04845029               70.50376465                0.00010000                6.89307769                6.49536567              -22.19738000               -1.45288048               81.77547459              -15.73357354
              45.54253641               -0.21895354               69.67516628                0.00010000                8.02050690                7.86385527              -26.70211164               -0.91499914               60.77954632              -20.49736475
              46.62932840               -2.47833218               68.60523387                0.00937947                9.37946798                9.16078730              -31.38012940               -0.41285351               32.94774413              -27.74597101
              47.73012577               -4.73122998               67.22371766                0.52583123               10.07973688               10.29688970              -35.59890685               -0.23309808               16.85805715              -41.98587428
              39.20715754               18.87893951               74.06302647                0.77719015                0.70619527               -0.27860908                0.24439722                0.71022767                4.28305909                8.03715439
              40.21421950               16.73882382               72.49259566                0.50187222                7.86737322                1.39794657               -4.80356125               -6.53637080               80.91157391               -7.57260190
              41.36450501               14.44877713               72.45462264                0.44952933               12.62746141               -1.59893311               -6.65085182               -4.98716130              153.21113662               -3.12997174
              42.46676872               12.18254102               72.31463276                0.44047772                8.93993901                0.51989940               -8.79447245               -1.71954091              145.21284546               -3.31474515
              43.54330379                9.91116724               72.10000059                0.43734717                7.00761116                2.05252534              -11.28927886               -1.06994904              138.00119231               -3.98011331
              44.60692095                7.64117479               71.79776943                0.43959806                6.10477896                3.61376404              -14.23671722               -0.59943634              129.00519862               -5.00556923
              45.66539937                5.37468955               71.38492012                0.44713388                5.94636625                5.10875234              -17.70546772               -0.28086525              117.14130821               -6.37092050
              46.72584827                3.11410847               70.82851471                0.46009468                6.46944635                6.56581767              -21.71865103               -0.00076342              101.17239948               -8.18811255
              47.79478829                0.86081426               70.08299862                0.47937514                7.58447943                7.97678073              -26.21314962                0.25933527               79.35417033              -10.75751753
              48.87753786               -1.38520859               69.08341815                0.50560931                9.04038298                9.31235883              -30.97554963                0.48202790               47.45099352              -14.71910475
              49.97559595               -3.62596410               67.70263542                0.76336080                9.80580923               10.52658821              -35.24033174                0.47146776               27.85435662              -25.61024405
              17.64942958                9.32474310               77.34917413                0.86835820               -1.64011392               -1.82940728                6.22319950               -0.47503810               -5.68467522                6.18354987
              18.63302844                6.93556009               76.66933936                0.60871117               -1.64924569               -1.06206776                4.19587060               -0.58350228               -7.95026050               -4.76674465
              19.61644466                4.53678577               75.94443447                0.49730869               -1.48055096               -0.57737183                2.08546184               -0.49208427               -8.22275458               -0.33754849
              20.60341742                2.11937106               75.25988605                0.46194544               -0.95921694                0.01057100                0.06608575               -0.43144867               -5.72907139               -0.44454440
              21.59726032               -0.31601081               74.58524013                0.45129247               -0.16766995                0.59830643               -2.01217278               -0.37105039               -4.83737225               -0.26495562
              22.60006402               -2.76421184               73.91856816                0.45847532                0.77876668                1.19764781               -4.13934571               -0.32900115               -4.31965820               -0.09174871
              23.61283566               -5.21742973               73.25422747                0.48400005                1.75566135                1.79570445               -6.29231852               -0.31304901               -4.43086088                0.07660981
              24.63517725               -7.66787860               72.58530009                0.53268262                2.63946998                2.38099765               -8.43994042               -0.31348347               -5.21153475                0.25648428
              25.66562506              -10.11024864               71.90533219                0.61472296                3.36039587                2.95436441              -10.55465207               -0.31616574               -6.82514750                0.32844466
              26.70238516              -12.54261118               71.20400621                0.74693112                3.93257653                3.51681736              -12.65482629               -0.31751082               -7.31902789                1.16359280
              27.74427659              -14.96647595               70.51383068                0.92901400                4.18914245                4.13536344              -14.72522974               -0.64816439               -6.73952244               -4.66483869
              20.03386221               10.30644902               77.07677309                0.66377874               -1.26901251               -1.89550019                5.43160803               -0.29038354                4.33230626                9.27608748
              21.02117208                7.92493941               76.39229496                0.13296534               -0.71219358               -0.76031823                3.42579591               -0.64876916                9.77723565               -8.85123719
              22.01961833                5.53101205               75.81686141                0.03618268                0.21645713               -1.18633916                1.80519509               -1.90193840               15.01869467              -10.60696573
              23.02550122                3.11947677               75.23682919                0.02676576                0.78614693               -1.04528455                0.07030320               -2.97243165               15.43638838              -15.14050183
              24.03534127                0.68997225               74.66964579                0.03006837                1.09911226               -0.64577697               -1.71583415               -3.75325364               16.46541741              -20.55166035
              25.04748347               -1.75223536               74.11031599                0.03802641                1.30986383               -0.10169852               -3.54284702               -4.07136065               16.96650674              -26.78030633
              26.06153855               -4.19947269               73.55323956                0.05170895                1.54841983                0.48094121               -5.40334190               -3.89411511               16.86639645              -33.82361346
              27.07845186               -6.64406863               72.99180254                0.07422539                1.91455693                1.02779108               -7.24539080               -3.29243491               16.06790785              -41.65462882
              28.09982969               -9.08070500               72.41843210                0.11386989                2.44359227                1.52946854               -9.05372032               -2.38431617               14.81769128              -50.14320416
              29.12732371              -11.50744300               71.83151646                0.23862763                3.09150139                2.45062041              -10.82743916               -0.81099482               11.41137206              -57.98060024
              30.16165972              -13.92512231               71.18932175                0.68069069                3.43360054                3.01050016              -12.68066043                1.66884281                8.69889958              -71.34619616
              22.40664113               11.28683309               76.86645840                0.59145475               -1.11511038               -1.84585976                4.92637905               -0.12462174               -0.02775995               11.50411903
              23.39549003                8.92035372               76.03369505                0.03754477               -1.13863002               -0.34296654                2.39629628               -1.96837759               14.11672734              -11.50531012
              24.38386853                6.51305898               75.48398715                0.00010000               -0.52407228               -1.08308135                0.60114893               -4.79435039               27.64470681              -20.39612980
              25.38500858                4.09846537               74.91985264                0.00010000                0.50194268               -1.31858136               -1.39023853               -6.11617397               26.63356281              -29.64366132
              26.39390739                1.67107365               74.34821692                0.00010000                1.15365807               -1.11943298               -3.45103863               -7.30114305               25.91850559              -40.46035657
              27.40808175               -0.76624581               73.76806549                0.00010000                1.64396161               -0.65967141               -5.61211044               -7.78056139               24.89262378              -52.81278292
              28.42678662               -3.20781091               73.17389765                0.00010000                2.12395541               -0.09070332               -7.91264019               -7.38858898               23.31761169              -66.79875110
              29.45056085               -5.64732278               72.55962039                0.00010000                2.72632463                0.48233864              -10.47692408               -6.15077804               21.31357445              -82.53410031
              30.48131311               -8.07965927               71.92151614                0.00010000                4.00108657                1.10737600              -13.72304298               -3.71790148               20.03029167             -100.07168522
              31.53058259              -10.49359877               71.27542950                0.00280044                6.58494765                1.92918222              -20.56987758               -0.88734362               14.69889185             -120.91917561
              32.61301206              -12.90626595               70.53038338                0.51619795                8.24294791                2.61288262              -25.90668442                1.63907889                9.01297713             -144.08664725
              24.76432851               12.26953183               76.63907510                0.57592693               -0.87498724               -1.61629449                4.32347313               -0.10906757                0.12646019               10.85747364
              25.75557864                9.91808008               75.70341547                0.02212296               -0.93544159               -0.12902018                1.51030588               -2.74235654               19.74672474               -9.93308313
              26.74561968                7.50935042               75.16029610                0.00010000               -0.52077782                0.05152048               -0.62416735               -5.62473504               38.88088042              -19.30515514
              27.74516308                5.09310514               74.60474202                0.00010000                0.42049579                0.08104376               -2.81331144               -6.36094272               37.55549038              -28.78628680
              28.75402959                2.66758359               74.03184094                0.00010000                1.27968576                0.30637693               -5.13017074               -7.04131658               35.73738839              -39.17599492
              29.77075680                0.23457121               73.43625253                0.00010000                2.04070726                0.73044945               -7.59821361               -7.20915405               33.29056379              -50.92304954
              30.79484374               -2.20128676               72.81057929                0.00010000                2.82639332                1.28529499              -10.28226964               -6.62341129               30.07137095              -64.32622519
              31.82728466               -4.63442185               72.14645576                0.00010000                3.84519534                1.90598264              -13.32107172               -5.16222460               26.05107242              -79.75187367
              32.87174765               -7.05855748               71.43588353                0.00010000                5.44494257                2.57166586              -17.09404171               -2.81533227               20.52847245              -97.90453535
              33.93618351               -9.46885936               70.65786497                0.00010000                7.40139996                2.83768749              -21.21502221               -0.71828676               11.84870107             -120.70247217
              35.01977564              -11.87286466               69.77674255                0.51095111                8.35921311                3.53344395              -24.56957692               -0.21038896                6.13599608             -143.91311016
              27.10736328               13.25450720               76.41616076                0.56964033               -0.65389748               -1.39398593                3.74940480               -0.10050940                0.12417502               11.18372007
              28.10082431               10.91777332               75.37622557                0.01723875               -0.55072569                0.07692102                0.61500595               -3.22724776               25.69541876               -9.64370167
              29.09634877                8.51408939               74.84784734                0.00010000               -0.06338724                0.76127177               -1.75119362               -6.40570144               50.65849978              -18.09900973
              30.09955656                6.10008625               74.30361647                0.00010000                0.76331122                1.12631829               -4.16579859               -6.83367919               48.84917143              -26.96280121
              31.11161499                3.67720118               73.73447813                0.00010000                1.66062246                1.45828779               -6.70652531               -7.09460494               46.11150811              -36.63293193
              32.13276901                1.24836318               73.13036809                0.00010000                2.58482319                1.89419166               -9.43033971               -6.92334132               42.31335840              -47.54959007
              33.16331146               -1.18210501               72.48006437                0.00010000                3.59090353                2.43511159              -12.39117625               -6.15347806               37.30919884              -60.13035303
              34.20458708               -3.60920313               71.77104019                0.00010000                4.80662582                3.02167348              -15.65698206               -4.75309573               30.85958708              -74.84750562
              35.25944397               -6.02822595               70.98800576                0.00010000                6.29684773                3.51837934              -19.18753275               -2.95375627               22.55330700              -92.28407689
              36.33052404               -8.43684502               70.11180040                0.00010000                7.86854588                3.79775768              -22.73161320               -1.35582938               12.08319381             -112.25552357
              37.41681489              -10.83559707               69.12300830                0.51225260                8.62908534                4.34550182              -25.91649226               -0.57099826                6.05994440             -133.44846417
              29.43578609               14.24165211               76.19561226                0.56442943               -0.43345968               -1.18299351                3.18358824               -0.09901008                0.14061121               11.35100042
              30.43145149               11.91961850               75.05173169                0.01432469               -0.02966830                0.29880298               -0.27636364               -3.52939458               32.12771246               -9.44682522
              31.43519272                9.52457586               74.54770548                0.00010000                0.69631068                1.26307596               -2.82621979               -6.92526841               63.37724623              -16.71828715
              32.44537771                7.11563151               74.02429855                0.00010000                1.43339204                1.83556857               -5.41567857               -7.26774630               61.07324985              -24.42763057
              33.46386056                4.69674935               73.46834954                0.00010000                2.31092295                2.28239592               -8.13761351               -7.24456277               57.43729716              -32.95826191
              34.49159616                2.27245504               72.86573912                0.00010000                3.27399601                2.77680713              -11.05663750               -6.79152398               52.32038969              -42.70028174
              35.52934048               -0.15258452               72.20109245                0.00010000                4.33737623                3.35995981              -14.21213744               -5.89561518               45.53955731              -54.06964913
              36.57834369               -2.57398838               71.45746700                0.00010000                5.54869637                3.97835992              -17.60028214               -4.62417475               36.88835317              -67.51442827
              37.64031441               -4.98818989               70.61639225                0.00010000                6.90471758                4.54106987              -21.13928093               -3.15449540               26.22231278              -83.38498164
              38.71643804               -7.39290421               69.65925985                0.00010000                8.27726812                5.04232732              -24.65632360               -1.64218573               13.69138985             -101.71318328
              39.80585977               -9.78595463               68.57129777                0.51354326                8.94217327                5.64117063              -27.96585357               -0.73638429                6.82069055             -122.17154932
              31.74945030               15.23084733               75.97631093                0.55998176               -0.21376321               -0.98331601                2.61834664               -0.10236628                0.15165728               11.40085632
              32.74731267               12.92374938               74.72852266                0.01334420                0.61900441                0.53450329               -1.16860378               -3.74715530               39.24954257               -9.38343423
              33.76183039               10.53935091               74.26277317                0.00010000                1.73577394                1.61679607               -3.84163341               -7.28218426               77.46688387              -15.05191470
              34.78202815                8.13679762               73.77385691                0.00010000                2.40349083                2.24149768               -6.54280677               -7.57044619               74.65328422              -21.20847136
              35.80990021                5.72284910               73.24469847                0.00010000                3.21221271                2.75542384               -9.38387229               -7.28839348               70.13024917              -28.21633441
              36.84627240                3.30389932               72.65742681                0.00010000                4.09711863                3.35198781              -12.43732227               -6.56638932               63.73810356              -36.41556498
              37.89184258                0.88509419               71.99280259                0.00010000                5.07182749                4.06029585              -15.73522108               -5.55424671               55.26601642              -46.16457115
              38.94770895               -1.52963593               71.22982911                0.00010000                6.17136540                4.82280682              -19.25929740               -4.35293516               44.50767500              -57.88352151
              40.01526989               -3.93740455               70.34630900                0.00010000                7.38680533                5.57644303              -22.92638950               -3.04495461               31.40914702              -72.02649502
              41.09544506               -6.33599847               69.32121849                0.00010000                8.64590783                6.29178901              -26.59093900               -1.63399854               16.29026340              -88.97976238
              42.18818804               -8.72277365               68.13906537                0.51486398                9.27429845                6.95025666              -30.09411527               -0.74106722                8.12217104             -108.95944296
              34.04793467               16.22198579               75.75697187                0.55623038                0.00701361               -0.79042057                2.05421117               -0.10685355                0.16375315               11.31707348
              35.04800481               13.93030857               74.40535380                0.01416050                1.42830645                0.78149149               -2.07026721               -3.97028473               47.28801333               -9.43282880
              36.07650080               11.55691178               73.99627251                0.00010000                3.12328924                1.77072181               -4.78319485               -7.54018306               93.35884352              -13.04149392
              37.11047059                9.16046146               73.55956946                0.00010000                3.72450959                2.26655878               -7.51738648               -7.65553399               89.98356436              -17.24722582
              38.15099099                6.75185782               73.07443661                0.00010000                4.37763520                2.82963886              -10.40351236               -6.96375813               84.56500662              -22.43491107
              39.19802330                4.33949480               72.51991554                0.00010000                5.03999041                3.61130439              -13.52572526               -5.96074788               76.96410945              -28.78237918
              40.25179080                1.92862139               71.87366515                0.00010000                5.78802156                4.52125981              -16.91949948               -4.86198261               66.90839450              -36.52874368
              41.31378373               -0.47753225               71.11055665                0.00010000                6.69935312                5.49166286              -20.56816604               -3.73250860               54.06794755              -46.08455819
              42.38577786               -2.87666103               70.20292350                0.00010000                7.76717214                6.46578118              -24.39242724               -2.57847969               38.28741935              -58.08394429
              43.46912717               -5.26706843               69.12363024                0.00010000                8.94054643                7.38394558              -28.24645483               -1.36421532               19.90672058              -73.39914227
              44.56458879               -7.64694949               67.85211589                0.51633411                9.54616212                8.12784864              -31.95262046               -0.62948708                9.97012189              -92.82492825
              36.33066768               17.21503892               75.53615798                0.55353465                0.23133075               -0.59570282                1.47633782               -0.11347719                0.22195149               11.23785023
              37.33298099               14.93937921               74.08120754                0.01718920                2.51030755                1.03406663               -2.97880021               -4.33579362               56.52295225               -9.73252645
              38.38087383               12.57476535               73.75229596                0.00010000                5.04952189                1.46704641               -5.63159070               -7.76571973              111.52472776              -10.35935833
              39.43397142               10.18212879               73.38971839                0.00010000                5.53589400                1.67968439               -8.30020393               -7.07487982              107.40593771              -12.38111145
              40.49159171                7.77944188               72.96829832                0.00010000                5.81612252                2.53391107              -11.14660432               -5.86155263              101.00997817              -15.66859631
              41.55029387                5.37612541               72.46661140                0.00010000                6.00191311                3.59810070              -14.26214290               -4.68642024               92.32891402              -19.95878366
              42.61162997                2.97551938               71.86083450                0.00010000                6.40236632                4.75164800              -17.68783792               -3.66661960               80.91505670              -25.35641980
              43.67834120                0.58019733               71.12191047                0.00010000                7.08032495                5.93308924              -21.41326983               -2.72011944               66.14036113              -32.21093904
              44.75323647               -1.80808893               70.21484987                0.00010000                8.00540075                7.10258893              -25.36378903               -1.80475068               47.44537262              -41.22122883
              45.83844921               -4.18831956               69.10068379                0.00010000                9.10619815                8.20342666              -29.38854202               -0.90420667               24.93456773              -53.82522063
              46.93536043               -6.56021668               67.74703098                0.51758588                9.69112180                9.09316407              -33.27615910               -0.43719653               12.61414989              -72.28564943
              38.59698455               18.21007173               75.31533790                0.54826899                0.45779555               -0.38531837                0.89739714               -0.12107186               -0.21612822                9.77622815
              39.60156251               15.95098990               73.75209958                0.01936764                4.07261347                1.27814427               -3.91644802               -5.16413700               67.37803831               -8.90351438
              40.67843682               13.58625271               73.54072467                0.00010000                8.13669783               -0.33511972               -6.34492032               -6.34756946              132.70306549               -5.95298772
              41.76429646               11.19405515               73.27494275                0.00010000                8.06632515                0.75507463               -8.84041375               -4.85487658              126.94098859               -6.54472061
              42.83976332                8.80253604               72.93614133                0.00010000                7.19604625                2.06984305              -11.55684652               -3.45275950              119.50696293               -8.07462477
              43.90821739                6.41145681               72.50884586                0.00010000                6.73115822                3.44556326              -14.57867489               -2.61858057              110.07383340              -10.22138072
              44.97438649                4.02365435               71.96898648                0.00010000                6.73861309                4.80737655              -17.95183083               -1.97079293               97.75020720              -12.99429990
              46.04298965                1.64112954               71.28459358                0.00010000                7.19066242                6.14182438              -21.67319839               -1.40885478               81.57370748              -16.59894582
              47.11819974               -0.73460925               70.41391339                0.00010000                8.00905678                7.43471384              -25.67428092               -0.87794086               60.25034365              -21.51972323
              48.20317079               -3.10299989               69.30065390                0.00010000                9.07196811                8.65155957              -29.80489613               -0.39587650               32.49823324              -28.93274073
              49.29963910               -5.46508621               67.87825256                0.51885606                9.64683127                9.72860156              -33.82721309               -0.25429992               16.67436836              -43.32782195
              40.84640991               19.20733255               75.06529941                0.77363258                0.71073610               -0.27391797                0.21244176                0.70349004                4.43510634                8.32136654
              41.85351727               16.96494209               73.44460635                0.49772469                8.22236373                1.39521962               -4.79376517               -6.76800343               82.59370467               -7.82774250
              43.01085719               14.56806295               73.38700012                0.44849330               13.35366409               -1.81897523               -6.83990389               -5.14355392              156.14525563               -3.25625055
              44.12059055               12.19723029               73.22499371                0.44030957                9.71388365                0.31751336               -9.08575164               -1.73180158              147.69933696               -3.48370274
              45.20513486                9.82083874               72.98541103                0.43751809                7.81066996                1.83026973              -11.57872109               -1.07252711              139.94673116               -4.20073777
              46.27680395                7.44503667               72.65434078                0.43952095                6.87032642                3.35798611              -14.40718448               -0.59993493              130.31780381               -5.28397134
              47.34254139                5.07166691               72.20817412                0.44617350                6.58118767                4.80125604              -17.62395348               -0.28465299              117.77896003               -6.71102613
              48.40842771                2.70303381               71.61388834                0.45840455                6.86328476                6.19042777              -21.23418112               -0.00927272              101.17743828               -8.59207972
              49.47980708                0.34060535               70.82665345                0.47606411                7.62904696                7.52145957              -25.17514148                0.24462537               78.91714941              -11.22294156
              50.56100865               -2.01528837               69.78344861                0.50029759                8.73199938                8.77115228              -29.29628716                0.47128621               47.02861773              -15.24317025
              51.65444707               -4.36564465               68.36138122                0.75985720                9.34384244                9.94415609              -33.34957198                0.44516919               27.69428280              -26.21311785
              18.28178503                9.66370967               78.41164117                0.86224616               -1.65039999               -1.84036952                6.25738320               -0.47989564               -5.83675318                6.32975220
              19.26528103                7.16807310               77.71144933                0.60099900               -1.67183285               -1.06701523                4.21848024               -0.59750115               -8.13610489               -4.90758134
              20.24834838                4.66256910               76.96540744                0.49420840               -1.50586151               -0.58111250                2.10555789               -0.48406670               -8.39840404               -0.29690518
              21.23516380                2.13802665               76.26061970                0.46102651               -0.96771582                0.01134885                0.08249805               -0.42975985               -5.88477391               -0.42873152
              22.22899406               -0.40452115               75.56516032                0.45129694               -0.16755600                0.60132601               -2.00247956               -0.37728007               -5.04650394               -0.26039938
              23.23181268               -2.95984654               74.87714726                0.45874603                0.77909723                1.20540003               -4.13574027               -0.33322533               -4.56990836               -0.09088284
              24.24457600               -5.52017929               74.19119012                0.48329050                1.75349457                1.80910045               -6.29756665               -0.31451446               -4.69502039                0.06607656
              25.26688257               -8.07787660               73.50075563                0.52993363                2.63702088                2.39948957               -8.45208220               -0.31684148               -5.46497085                0.24134311
              26.29731642              -10.62768071               72.79955349                0.60789978                3.36383525                2.97730366              -10.57815662               -0.31828806               -7.07090344                0.30553113
              27.33415928              -13.16771165               72.07709824                0.73196146                3.94436717                3.54758794              -12.69594170               -0.31997125               -7.55738849                1.14748566
              28.37620377              -15.69950399               71.36612976                0.91796157                4.20444858                4.17036135              -14.78125026               -0.63131442               -6.97670378               -4.78472775
              20.77262265               10.64530597               78.13127376                0.65292445               -1.27463409               -1.91357582                5.46100005               -0.29737270                4.51496613                9.57099798
              21.75987630                8.15740295               77.42666702                0.12076675               -0.70458564               -0.75670127                3.44249464               -0.67045936               10.15702376               -9.11807218
              22.75853093                5.65675798               76.83498742                0.03725313                0.22675136               -1.17123475                1.81718655               -1.89669295               15.53229296              -11.04594858
              23.76441133                3.13814014               76.23751142                0.02795185                0.78134606               -0.99553719                0.06347705               -2.94012024               15.86455416              -15.86761023
              24.77415785                0.60149211               75.65237945                0.03124440                1.09490838               -0.58088285               -1.73451619               -3.67841407               16.84601978              -21.57080294
              25.78630950               -1.94779254               75.07464926                0.03918717                1.31440180               -0.02756114               -3.58625584               -3.94440953               17.30649060              -28.11082593
              26.80044589               -4.50208829               74.49882194                0.05284275                1.55776852                0.55590347               -5.46308062               -3.70868775               17.19723796              -35.51755849
              27.81746487               -7.05388170               73.91886963                0.07512649                1.93025886                1.08865806               -7.33211113               -3.02873408               16.41569871              -43.83703912
              28.83905107               -9.59790767               73.32723279                0.11366341                2.47031691                1.54715407               -9.16683279               -2.00075421               15.18725515              -53.11316078
              29.86687121              -12.13223577               72.72236699                0.21868447                3.13159492                2.17153893              -10.97861552               -0.46176576               11.75547247              -63.06275752
              30.90168297              -14.65780038               72.06152634                0.66546048                3.48117577                2.46691078              -12.85262134                1.61766522                8.99795588              -78.10164054
              23.25164363               11.62543815               77.91586025                0.58248771               -1.12237891               -1.86492766                4.94971184               -0.11455052               -0.05705974               11.89613431
              24.24041984                9.15293907               77.05775245                0.03701139               -1.09831536               -0.33631036                2.41732322               -1.98228222               14.43758172              -11.82304846
              25.22967732                6.63914441               76.48965072                0.00010000               -0.43962870               -1.03887393                0.54673491               -4.77810782               28.22002987              -21.27889506
              26.23162727                4.11811591               75.90562949                0.00010000                0.58405665               -1.23862911               -1.44400567               -6.04242643               27.08478104              -31.09139992
              27.24135846                1.58386119               75.31336036                0.00010000                1.24388099               -1.01834025               -3.50896707               -7.16281257               26.27543046              -42.47262554
              28.25650489               -0.96039776               74.71163675                0.00010000                1.75664790               -0.55663944               -5.66051678               -7.56330904               25.12683041              -55.43252881
              29.27649141               -3.50906122               74.09461378                0.00010000                2.28111969               -0.00977143               -7.93026522               -7.10492104               23.35467090              -70.10524190
              30.30212728               -6.05610343               73.45512906                0.00010000                2.95819956                0.50379585              -10.40153598               -5.82452967               20.92048220              -86.68818537
              31.33565541               -8.59673763               72.78617893                0.00010000                4.13446941                0.97798600              -13.33038512               -3.62595248               17.96083373             -105.38006125
              32.38481667              -11.12428087               72.08296967                0.00028507                6.20154424                1.48302629              -18.20149622               -1.13564449               11.73062389             -127.37285522
              33.45968629              -13.65016577               71.29005196                0.50740715                7.48696211                1.97185568              -22.42018742                1.10988506                6.57053699             -151.36318678
              25.71532979               12.60800742               77.68240649                0.56760354               -0.88053862               -1.62696721                4.34007687               -0.10462416                0.13044742               11.22034201
              26.70652440               10.15067674               76.71864353                0.02191689               -0.87689245               -0.13011725                1.53300645               -2.74165039               20.07043561              -10.17925560
              27.69779194                7.63598050               76.15378046                0.00010000               -0.38391924                0.08969367               -0.66726007               -5.60973221               39.48678024              -20.15398317
              28.69884602                5.11336756               75.57613443                0.00010000                0.58116647                0.12571445               -2.89089483               -6.31975816               38.06393623              -30.17489188
              29.70941527                2.58112530               74.98008373                0.00010000                1.45598559                0.35704149               -5.20435741               -6.95772458               36.09452739              -41.10969292
              30.72796573                0.04107468               74.35998186                0.00010000                2.23189374                0.76808603               -7.64020785               -7.09264329               33.45501921              -53.42751865
              31.75405314               -2.50228371               73.70783909                0.00010000                3.03424765                1.28568857              -10.25086699               -6.52543796               29.95402062              -67.43711607
              32.78865068               -5.04380578               73.01411708                0.00010000                4.03281529                1.83809278              -13.13301377               -5.21505491               25.44077409              -83.47362945
              33.83470945               -7.57834795               72.26792954                0.00010000                5.44678907                2.39433298              -16.50422712               -3.26040982               19.40815860             -102.03000937
              34.89758646              -10.10257524               71.45096535                0.00010000                7.04705151                2.76554477              -20.16051579               -1.31639616               10.88457447             -123.83283255
              35.97565048              -12.61836326               70.53739048                0.50478876                7.80640159                3.63107217              -23.29383331               -0.51922904                5.54913170             -146.45373329
              28.16421251               13.59289881               77.45377107                0.56202709               -0.65987522               -1.40354001                3.76322563               -0.10377679                0.12045332               11.57150232
              29.15761375               11.15033673               76.38251508                0.01721007               -0.47103233                0.07377567                0.64136041               -3.22450000               26.05392955               -9.89514820
              30.15479186                8.64093828               75.83002084                0.00010000                0.12367726                0.77245480               -1.80019125               -6.38623668               51.33398489              -18.88956216
              31.16008730                6.12063020               75.26142680                0.00010000                0.98524945                1.13875733               -4.25181199               -6.80968290               49.41938339              -28.26931615
              32.17449685                3.59100202               74.66691508                0.00010000                1.89868701                1.46464380               -6.78591675               -7.05440158               46.50536040              -38.44557536
              33.19806104                1.05496396               74.03584245                0.00010000                2.81831325                1.88462593               -9.45869043               -6.88560678               42.47772880              -49.87675534
              34.23086311               -1.48334745               73.35646687                0.00010000                3.79146910                2.39963217              -12.31862784               -6.17881407               37.19359057              -62.96925019
              35.27389042               -4.01934158               72.61568131                0.00010000                4.91767769                2.96026579              -15.41471233               -4.94287817               30.45551519              -78.12895344
              36.32921667               -6.54885097               71.79847984                0.00010000                6.23068177                3.48622704              -18.72490408               -3.35257324               21.99742321              -95.74518556
              37.39850406               -9.06896997               70.88784920                0.00010000                7.58305433                3.95609138              -22.06953329               -1.73374687               11.67788226             -115.70921637
              38.48087775              -11.57754433               69.86768914                0.50616308                8.23736972                4.63823113              -25.15929068               -0.74604849                5.83595794             -137.15227673
              30.59837841               14.57993662               77.22753005                0.55695499               -0.43834810               -1.19449989                3.19136515               -0.10340197                0.13550347               11.74408218
              31.59399493               12.15215225               76.04910895                0.01437344                0.06976637                0.29675630               -0.24747525               -3.52910187               32.55161083               -9.69818916
              32.59977374                9.65142959               75.51909417                0.00010000                0.92968453                1.25430344               -2.88023425               -6.91604890               64.17526749              -17.45972535
              33.61258862                7.13614271               74.96956268                0.00010000                1.71098685                1.81733155               -5.50870796               -7.26275603               61.75228006              -25.62722669
              34.63399347                4.61041818               74.38646205                0.00010000                2.60072228                2.25122805               -8.21810198               -7.23282197               57.91469739              -34.60703352
              35.66460307                2.07876719               73.75502765                0.00010000                3.53944648                2.73023834              -11.07092126               -6.79059675               52.54625428              -44.79890097
              36.70478240               -0.45429107               73.05949129                0.00010000                4.53467869                3.30000576              -14.10574188               -5.94831309               45.50272761              -56.60815898
              37.75529664               -2.98460047               72.28291374                0.00010000                5.62519876                3.92309475              -17.32541118               -4.77605240               36.63903788              -70.44217708
              38.81728638               -5.50862341               71.40750785                0.00010000                6.81541258                4.53990761              -20.67407600               -3.39273357               25.89328327              -86.62746841
              39.89160489               -8.02345341               70.41611551                0.00010000                8.02959251                5.13672377              -24.02966711               -1.84232359               13.46351790             -105.24948622
              40.97787823              -10.52559864               69.29550816                0.50724868                8.62733384                5.77219556              -27.25933365               -0.83248858                6.71098253             -126.10000365
              33.01771320               15.56900881               77.00250817                0.55264625               -0.21744576               -0.99389348                2.61796265               -0.10162419                0.15229898               11.79703170
              34.01553874               13.15627185               75.71697986                0.01340516                0.73836154                0.53265364               -1.13780148               -3.75578116               39.77470234               -9.64092482
              35.03248043               10.66602435               75.22397262                0.00010000                2.01524267                1.58942207               -3.90088401               -7.29343929               78.45231685              -15.72988392
              36.05584359                8.15697683               74.70780089                0.00010000                2.73677460                2.19259239               -6.64364676               -7.58349803               75.50371932              -22.27076723
              37.08721592                5.63602658               74.15032661                0.00010000                3.55573805                2.68771022               -9.46752244               -7.29148063               70.74873565              -29.65456360
              38.12695835                3.10956873               73.53296664                0.00010000                4.40242960                3.26809648              -12.44153101               -6.57065979               64.07453864              -38.23354232
              39.17526451                0.58265267               72.83615407                0.00010000                5.28716800                3.96587154              -15.59922704               -5.58507482               55.32221390              -48.36327164
              40.23270171               -1.94087968               72.03903004                0.00010000                6.24752147                4.73228527              -18.93241069               -4.43040170               44.34779085              -60.45438234
              41.30021494               -4.45805282               71.12009054                0.00010000                7.29655496                5.51007793              -22.38534162               -3.15744393               31.16151598              -74.95925856
              42.37863281               -6.96623550               70.05946767                0.00010000                8.41517475                6.25209253              -25.86501202               -1.72563322               16.11344076              -92.28269931
              43.46851844               -9.46210042               68.84279500                0.50864702                8.98856232                6.89386480              -29.28380129               -0.79102209                8.05316592             -112.67218438
              35.42181983               16.56005875               76.77748299                0.54906620                0.00439303               -0.79748115                2.04605237               -0.10346335                0.16179671               11.70922093
              36.42186376               14.16280533               75.38479456                0.01417886                1.56900711                0.77817964               -2.03849380               -3.99651423               47.95407147               -9.70013515
              37.45319998               11.68321804               74.94801007                0.00010000                3.45263304                1.72230216               -4.85007090               -7.58103796               94.61502979              -13.63497411
              38.49091643                9.17999455               74.48369956                0.00010000                4.11859924                2.18425953               -7.63006083               -7.68601912               91.08114418              -18.13023175
              39.53557196                6.66417238               73.96981358                0.00010000                4.78236799                2.72407456              -10.49677581               -6.97199286               85.39045152              -23.60770014
              40.58656379                4.14412912               73.38458163                0.00010000                5.39786790                3.48766339              -13.52857456               -5.95693194               77.46105276              -30.25614820
              41.64352932                1.62502636               72.70531394                0.00010000                6.04151507                4.38188018              -16.76087820               -4.86298451               67.07968200              -38.31604327
              42.70739409               -0.88995476               71.90701343                0.00010000                6.79819967                5.34125644              -20.18640338               -3.75038759               53.98077834              -48.19684162
              43.77949331               -3.39842185               70.96266435                0.00010000                7.68728717                6.30877516              -23.75490784               -2.61159010               38.07577344              -60.53374105
              44.86113983               -5.89841156               69.84622859                0.00010000                8.71471601                7.21415425              -27.38375610               -1.39517826               19.74212841              -76.20292151
              45.95378763               -8.38772134               68.53825189                0.50984015                9.26478031                7.91744376              -30.99591377               -0.65435292                9.91956458              -96.00990068
              37.81015078               17.55305919               76.55083479                0.54621986                0.22983910               -0.59750063                1.46100372               -0.10868322                0.22999638               11.62615502
              38.81244917               15.17183545               75.05157158                0.01713487                2.67598321                1.02849667               -2.94762849               -4.38882750               57.38646930              -10.02384627
              39.86367044               12.70047039               74.69547943                0.00010000                5.43598473                1.38922560               -5.71072391               -7.84600222              113.15205146              -10.83134771
              40.92116886               10.20066202               74.30591461                0.00010000                5.99855257                1.55888701               -8.43208787               -7.11582229              108.84029438              -13.02961954
              41.98364149                7.69050807               73.85613246                0.00010000                6.28984383                2.39321990              -11.26042459               -5.86778363              102.11700208              -16.51222695
              43.04696574                5.17932200               73.32384467                0.00010000                6.42236072                3.43755164              -14.27805108               -4.67368043               93.04904256              -21.01458223
              44.11208871                2.67029027               72.68484243                0.00010000                6.70882183                4.56750242              -17.52330945               -3.64872951               81.24859149              -26.63981031
              45.18114218                0.16594545               71.91015572                0.00010000                7.21756167                5.72241335              -20.99299764               -2.70480832               66.15423841              -33.73763166
              46.25643994               -2.33187731               70.96539888                0.00010000                7.94432817                6.86351314              -24.64307133               -1.79541039               47.28033751              -43.00868689
              47.34002874               -4.82195241               69.81268730                0.00010000                8.88055005                7.93298769              -28.39831148               -0.90300796               24.78362690              -55.89593177
              48.43405094               -7.30375154               68.42082557                0.51125244                9.40222023                8.77923442              -32.18517476               -0.44850351               12.58175825              -74.68054384
              40.18209365               18.54810874               76.32419724                0.54092260                0.45823607               -0.38076783                0.87733101               -0.11859746               -0.22432510               10.11687539
              41.18667601               16.18337526               74.71304641                0.01915832                4.26798565                1.27099946               -3.89310773               -5.25812371               68.51375132               -9.18941184
              42.26745336               13.71100255               74.47667066                0.00010000                8.59431454               -0.46845808               -6.44245364               -6.44253221              134.83936312               -6.22977407
              43.35856230               11.21117229               74.18557175                0.00010000                8.60514759                0.60515116               -9.00308263               -4.88950375              128.80297253               -6.89326765
              44.43955631                8.71203678               73.81967954                0.00010000                7.73728410                1.90525071              -11.70696010               -3.45211449              120.97774935               -8.52349947
              45.51330798                6.21288016               73.36273506                0.00010000                7.21874843                3.25917604              -14.62835460               -2.60560913              111.09625208              -10.78257886
              46.58393128                3.71637641               72.79025351                0.00010000                7.10787609                4.59017395              -17.80739616               -1.95221748               98.31985879              -13.67784689
              47.65546550                1.22449351               72.07030068                0.00010000                7.37758406                5.88659539              -21.24519624               -1.38762321               81.75464250              -17.41465549
              48.73148296               -1.26115159               71.16168066                0.00010000                7.97442003                7.13763191              -24.90291567               -0.85571195               60.18658482              -22.47809484
              49.81495390               -3.73975181               70.00913594                0.00010000                8.84664335                8.31455050              -28.71681640               -0.38156806               32.39158024              -30.05069272
              50.90841583               -6.21213666               68.54717339                0.51225860                9.34619258                9.36338856              -32.64210655               -0.26021260               16.67260430              -44.66620986
              42.53724578               19.54544383               76.06727531                0.77014904                0.71470997               -0.26649070                0.18216758                0.69637417                4.58747147                8.61185340
              43.54439288               17.19725544               74.39672035                0.49378032                8.48884901                1.38801773               -4.77644736               -6.94544255               84.17206942               -8.09105969
              44.70702276               14.69110123               74.31782456                0.44753314               13.89758358               -1.99013169               -6.96897299               -5.26757951              158.87946397               -3.37311134
              45.82234455               12.21276504               74.13291772                0.44013304               10.29342887                0.15927489               -9.29572603               -1.74618172              150.06488909               -3.64056868
              46.91289134                9.72861309               73.86842617                0.43741150                8.40846883                1.65763058              -11.78672801               -1.07947352              141.87575510               -4.40703330
              47.99051393                7.24450552               73.50962574                0.43923037                7.42698343                3.16253607              -14.51816367               -0.60537207              131.74324736               -5.54469896
              49.06143101                4.76209375               73.03244105                0.44550801                7.02018904                4.57173401              -17.53400321               -0.29143547              118.68661293               -7.02859462
              50.13091771                2.28367735               72.40383109                0.45669691                7.10700036                5.91838474              -20.83904013               -0.01570037              101.62523352               -8.96861607
              51.20357102               -0.18912467               71.57949579                0.47311220                7.62323665                7.20269162              -24.39609907                0.24186763               79.05451423              -11.66080632
              52.28338244               -2.65566140               70.49749241                0.49524791                8.50226841                8.40904072              -28.13892590                0.47489908               47.06137521              -15.74674171
              53.37361638               -5.11648377               69.03564398                0.75655657                9.02339402                9.56528827              -32.08103217                0.43781830               27.80984153              -26.86362262
              18.93307819               10.01207296               79.47432179                0.85590884               -1.65381160               -1.84230564                6.26984966               -0.48030561               -5.98096665                6.47407439
              19.91654007                7.40697309               78.75370896                0.59265233               -1.68859868               -1.06982323                4.22747101               -0.61338001               -8.31019648               -5.04549770
              20.89930621                4.79168771               77.98654562                0.49119332               -1.52855051               -0.58379092                2.12399802               -0.48664700               -8.55979088               -0.25116582
              21.88596906                2.15701299               77.26153601                0.46021342               -0.97517595                0.01017863                0.10054843               -0.42411818               -6.02712253               -0.41730770
              22.87980269               -0.49565707               76.54519054                0.45175723               -0.16665022                0.60132274               -1.98255038               -0.37021210               -5.24313241               -0.25022906
              23.88263606               -3.16103352               75.83585335                0.45871868                0.77620924                1.20921396               -4.11259202               -0.33226422               -4.80419836               -0.09598850
              24.89532688               -5.83137184               75.12827614                0.48262238                1.74392027                1.81243194               -6.27278996               -0.31870447               -4.94619467                0.05828225
              25.91751446               -8.49927974               74.41625845                0.52676671                2.62687514                2.40968985               -8.43041223               -0.32218717               -5.70713826                0.22175435
              26.94786438              -11.15949663               73.69376905                0.60050104                3.35733318                2.99029709              -10.56334245               -0.32465584               -7.30497242                0.28163253
              27.98466112              -13.81019896               72.95008738                0.71632645                3.94075460                3.56293783              -12.68590702               -0.32550270               -7.78547904                1.12519316
              29.02667947              -16.45296367               72.21820567                0.90669047                4.20183487                4.18863336              -14.77915799               -0.61440478               -7.20602525               -4.89670562
              21.53337500               10.99364990               79.18599309                0.64252739               -1.27761081               -1.92249557                5.47096614               -0.30563721                4.69028443                9.86285498
              22.52059890                8.39627485               78.46114485                0.10867492               -0.69776075               -0.75284203                3.44910868               -0.69444912               10.53682997               -9.37230158
              23.51941979                5.78584980               77.85320514                0.03830845                0.24006854               -1.14998316                1.82212734               -1.90371028               16.04888276              -11.49980400
              24.52540027                3.15711478               77.23809873                0.02914236                0.78520182               -0.94993135                0.05302483               -2.92340679               16.28929931              -16.60185230
              25.53512383                0.51035615               76.63495546                0.03240401                1.08852652               -0.52130322               -1.74787354               -3.62250547               17.21699164              -22.58481673
              26.54717080               -2.14894138               76.03859087                0.04025842                1.30695596                0.04022695               -3.61683531               -3.84374020               17.63073530              -29.41886977
              27.56126295               -4.81324752               75.44397795                0.05377103                1.55920924                0.62194726               -5.49893792               -3.55903081               17.50678152              -37.15993436
              28.57835498               -7.47518284               74.84516032                0.07566550                1.94072441                1.14729013               -7.39475406               -2.82276262               16.74199488              -45.89932691
              29.60007743              -10.12959366               74.23509545                0.11282641                2.48923161                1.57696963               -9.25129948               -1.72809705               15.53575941              -55.78696476
              30.62813961              -12.77456958               73.61194415                0.19835195                3.16113477                2.02723609              -11.08888788               -0.24113815               12.07425213              -66.98564723
              31.66330013              -15.41107733               72.93226932                0.65079638                3.51605138                2.17849235              -12.97918864                1.52816197                9.27678497              -83.10383540
              24.12171554               11.97362305               78.96545264                0.57355321               -1.12643492               -1.88110289                4.95814022               -0.11626184               -0.08658635               12.28531735
              25.11045119                9.39191624               78.08204152                0.03638675               -1.06617302               -0.32712582                2.43319347               -1.99602604               14.72568909              -12.12741958
              26.10039208                6.76868804               77.49492185                0.00010000               -0.37283136               -0.99745828                0.51641181               -4.77286456               28.75731116              -22.18317907
              27.10299457                4.13801436               76.89097253                0.00010000                0.65083276               -1.16523863               -1.47956644               -6.00164577               27.52549885              -32.54323757
              28.11340874                1.49391686               76.27803758                0.00010000                1.31851811               -0.92605736               -3.54579623               -7.06472250               26.62347972              -44.47273183
              29.12936493               -1.16022898               75.65485515                0.00010000                1.84894943               -0.46217427               -5.68466947               -7.39593683               25.36091415              -58.00042699
              30.15038773               -3.81893290               75.01529235                0.00010000                2.40202076                0.06826809               -7.92177515               -6.87894881               23.42063305              -73.30525869
              31.17740534               -6.47633394               74.35158967                0.00010000                3.11507275                0.53680731              -10.29797412               -5.56848149               20.67486661              -90.62334743
              32.21268918               -9.12795724               73.65490843                0.00010000                4.19583448                0.90675474              -12.94594681               -3.51675967               16.81387934             -110.24178106
              33.26132203              -11.76965424               72.91139957                0.00010000                5.87845137                1.20870191              -16.46562789               -1.25810657               10.11479483             -133.10310379
              34.33025821              -14.40939382               72.08197964                0.49967531                6.89361750                1.57504132              -19.73051759                0.75643734                5.32009914             -157.73806530
              26.69446338               12.95602785               78.72587664                0.55942678               -0.88499950               -1.64046788                4.34747043               -0.10111132                0.13080097               11.57994583
              27.68561338               10.38973234               77.73407560                0.02163619               -0.82994985               -0.12556566                1.55374945               -2.74626426               20.36187464              -10.41754546
              28.67786438                7.76590063               77.14695090                0.00010000               -0.27374242                0.11481941               -0.69128490               -5.60988354               40.03561505              -20.99155033
              29.68013853                5.13381000               76.54692413                0.00010000                0.71041690                0.16286548               -2.93805303               -6.30050997               38.53826335              -31.55476926
              30.69207272                2.49183501               75.92775379                0.00010000                1.59816442                0.39972453               -5.24760528               -6.90485297               36.44188163              -43.01552414
              31.71210182               -0.15818486               75.28344838                0.00010000                2.38581056                0.80056260               -7.65343930               -7.01551479               33.63265870              -55.86977575
              32.73978893               -2.81188216               74.60556195                0.00010000                3.19539359                1.28953402              -10.19444896               -6.46525793               29.89433081              -70.43284062
              33.77600969               -5.46444670               73.88379548                0.00010000                4.16368066                1.78775387              -12.93028006               -5.26486669               25.01960080              -87.01985365
              34.82306254               -8.11145857               73.10579899                0.00010000                5.42021855                2.26246298              -15.96235664               -3.57067411               18.61927391             -105.98706646
              35.88441406              -10.75039555               72.25465466                0.00010000                6.74227449                2.67373677              -19.18532899               -1.72838001               10.18322731             -127.47387893
              36.95790803              -13.37957651               71.31086588                0.49910145                7.34939679                3.63167676              -22.11062215               -0.73829817                5.15330821             -149.93503994
              29.25228434               13.94081369               78.49142528                0.55421453               -0.66312126               -1.41155953                3.76434304               -0.09712761                0.11960782               11.95102338
              30.24565312               11.38940493               77.38905278                0.01712363               -0.40837955                0.07287952                0.66609733               -3.22615308               26.37472146              -10.13144136
              31.24411674                8.77098443               76.81184352                0.00010000                0.26984347                0.77644712               -1.82586425               -6.38766475               51.93895128              -19.67031358
              32.25104999                6.14127167               76.21858023                0.00010000                1.15949006                1.14514406               -4.30258034               -6.80780916               49.94810169              -29.55778806
              33.26730655                3.50191135               75.59875979                0.00010000                2.08609048                1.46810694               -6.82979420               -7.04362884               46.89058158              -40.22112642
              34.29277180                0.85578227               74.94119428                0.00010000                3.00189276                1.87688469               -9.45925439               -6.88316900               42.66832877              -52.13340973
              35.32734440               -1.79314222               74.23369181                0.00010000                3.94563058                2.37236264              -12.23189192               -6.23205587               37.14823446              -65.69465254
              36.37168441               -4.44057886               73.46274594                0.00010000                4.99400740                2.91330252              -15.18043437               -5.12337855               30.16750520              -81.26551493
              37.42722455               -7.08270798               72.61350768                0.00010000                6.15939806                3.45543043              -18.29201988               -3.68424405               21.56738494              -99.12207916
              38.49487237               -9.71617951               71.67040973                0.00010000                7.33148084                4.04415758              -21.44956539               -2.03791388               11.34662627             -119.18817937
              39.57385417              -12.33676028               70.61982249                0.50029390                7.89817910                4.82579768              -24.44858287               -0.88877306                5.66905769             -140.92653986
              31.79533834               14.92779666               78.25943957                0.54975848               -0.44187643               -1.19893337                3.18941120               -0.09724539                0.13357239               12.13124440
              32.79091958               12.39118993               77.04678219                0.01438353                0.14529995                0.29201727               -0.21856851               -3.53389707               32.92907659               -9.93474743
              33.79824434                9.78142957               76.49010080                0.00010000                1.10679243                1.24264527               -2.90740023               -6.92690417               64.89094456              -18.18809655
              34.81305543                7.15671289               75.91412439                0.00010000                1.92225985                1.79868581               -5.56290263               -7.27669393               62.38551803              -26.80495105
              35.83668954                4.52119715               75.30398750                0.00010000                2.82182918                2.22474774               -8.26167405               -7.24787183               58.38863619              -36.21429148
              36.86949201                1.87935283               74.64432069                0.00010000                3.74097030                2.69461101              -11.06190306               -6.82340720               52.81281926              -46.82511761
              37.91150895               -0.76443491               73.91897762                0.00010000                4.68079356                3.25741594              -14.00015453               -6.03272083               45.54853798              -59.03610663
              38.96310788               -3.40618065               73.11095878                0.00010000                5.67346797                3.88777977              -17.08448182               -4.94355796               36.50047684              -73.22823302
              40.02497831               -6.04234996               72.20291073                0.00010000                6.73001044                4.54808768              -20.28089744               -3.62468618               25.67128776              -89.71265789
              41.09770809               -8.66951239               71.17866651                0.00010000                7.81579111                5.22069841              -23.50842308               -2.02867798               13.30046931             -108.62416656
              42.18129413              -11.28306055               70.02611109                0.50143833                8.35860359                5.88996087              -26.67435935               -0.91768925                6.64396532             -129.87379126
              34.32355289               15.91683502               78.02867019                0.54546170               -0.22106219               -0.99765367                2.61343785               -0.09851871                0.15302749               12.19027276
              35.32134226               13.39524528               76.70576663                0.01343824                0.82514091                0.52621113               -1.10508857               -3.76790575               40.24395425               -9.88743956
              36.34005570               10.79583734               76.18475549                0.00010000                2.22031397                1.56379535               -3.93056115               -7.31739216               79.34410760              -16.39354898
              37.36574854                8.17724539               75.64098397                0.00010000                2.98267304                2.15151082               -6.70307233               -7.60982437               76.30432415              -23.30985255
              38.39970916                5.54640631               75.05534802                0.00010000                3.80935853                2.63504110               -9.51391911               -7.31712406               71.36954968              -31.05152460
              39.44193571                2.90967449               74.40859618                0.00010000                4.62571486                3.20704881              -12.42776068               -6.60741175               64.46837745              -39.98260253
              40.49222346                0.27200610               73.68081805                0.00010000                5.43962944                3.90235393              -15.47952211               -5.65270326               55.48740381              -50.45777546
              41.55072830               -2.36282327               72.85118090                0.00010000                6.29195564                4.67929398              -18.67133815               -4.54056640               44.33265277              -62.88243542
              42.61806257               -4.99174623               71.89860217                0.00010000                7.21405547                5.48528814              -21.97173383               -3.29212037               31.05919535              -77.71392676
              43.69500941               -7.61176554               70.80391825                0.00010000                8.22670616                6.25829523              -25.32607386               -1.82703645               16.03030217              -95.38600225
              44.78259670              -10.21896107               69.55338935                0.50263298                8.75872859                6.89412381              -28.68728425               -0.83758479                8.03550705             -116.19231134
              36.83654746               16.90784358               77.79789291                0.54196610                0.00116882               -0.79936296                2.03602375               -0.10088564                0.16201256               12.10152710
              37.83655915               14.40171415               76.36458393                0.01416957                1.66744619                0.77025761               -2.00230655               -4.02073167               48.55815408               -9.96135845
              38.86989639               11.81270548               75.89927110                0.00010000                3.68654089                1.68202326               -4.88496664               -7.62274649               95.76550899              -14.21527747
              39.91028997                9.19974310               75.40696824                0.00010000                4.40107832                2.12094126               -7.69911223               -7.72158866               92.12312764              -18.99136266
              40.95791795                6.57389797               74.86450109                0.00010000                5.07270067                2.64625328              -10.55232308               -6.99783811               86.22221204              -24.74339657
              42.01174398                3.94349381               74.24934405                0.00010000                5.65173431                3.40029188              -13.51759912               -5.98283769               78.03231394              -31.66977485
              43.07095264                1.31361217               73.53844758                0.00010000                6.21524490                4.28887543              -16.63194661               -4.90106440               67.39203656              -40.01278133
              44.13604888               -1.31259477               72.70682859                0.00010000                6.85627647                5.24903531              -19.89958052               -3.80575751               54.08509484              -50.18337371
              45.20807817               -3.93264419               71.72782534                0.00010000                7.61666616                6.22336234              -23.29689110               -2.67513280               38.06238423              -62.82502338
              46.28838221               -6.54434649               70.57595512                0.00010000                8.54276604                7.13099937              -26.78591726               -1.44241145               19.70870214              -78.83290948
              47.37893349               -9.14517808               69.23219762                0.50386279                9.05512862                7.81060003              -30.34139469               -0.67704053                9.93537332              -99.03760148
              39.33379404               17.90084777               77.56537805                0.53914786                0.22716935               -0.59374275                1.45063090               -0.10712108                0.23759987               12.01753944
              40.33606573               15.41065043               76.02225497                0.01704870                2.78888921                1.01693686               -2.91467250               -4.42825008               58.18138150              -10.31412084
              41.38957182               12.82947780               75.63808148                0.00010000                5.70292761                1.33033101               -5.75464443               -7.90919304              114.65986876              -11.29178668
              42.45012428               10.21966421               75.22107663                0.00010000                6.32149377                1.47217936               -8.51794386               -7.15446826              110.20933922              -13.66029522
              43.51600170                7.59933137               74.74308983                0.00010000                6.62202374                2.29371916              -11.33514164               -5.88734191              103.23000631              -17.32646880
              44.58256476                4.97768033               74.18105038                0.00010000                6.71445249                3.32651782              -14.28200540               -4.68616411               93.85687670              -22.02406563
              45.65029075                2.35778361               73.51036831                0.00010000                6.91523786                4.44433134              -17.39749863               -3.66287441               81.75372772              -27.85462189
              46.72086952               -0.25784256               72.70205052                0.00010000                7.30104473                5.58779135              -20.68983063               -2.72280625               66.40740109              -35.17022954
              47.79631164               -2.86727898               71.72198844                0.00010000                7.89127749                6.71880677              -24.14457314               -1.81424940               47.36963518              -44.67949951
              48.87869507               -5.46914555               70.53271756                0.00010000                8.72037093                7.77638164              -27.74090810               -0.91713167               24.80361267              -57.84606597
              49.97071906               -8.06274907               69.10332748                0.50476061                9.20239951                8.59746307              -31.47301279               -0.45621202               12.63373856              -76.98858318
              41.81479971               18.89596873               77.33288452                0.53437752                0.45643998               -0.37171348                0.85981088               -0.11782333               -0.24184381               10.45137279
              42.81936411               16.42205289               75.67423743                0.01889535                4.39495141                1.25612953               -3.85843821               -5.31564731               69.56873694               -9.46943552
              43.90269874               13.83931210               75.41187560                0.00010000                8.89914600               -0.55924317               -6.50158574               -6.50944630              136.83640777               -6.49960416
              44.99734703               11.22918669               75.09488110                0.00010000                8.97281286                0.50313771               -9.11644029               -4.91886527              130.58259201               -7.23083804
              46.08215500                8.61977235               74.70200213                0.00010000                8.11107155                1.79367289              -11.81523709               -3.46111385              122.44763017               -8.95477691
              47.15956847                6.01002416               74.21627877                0.00010000                7.55315220                3.13405054              -14.66540915               -2.60921471              112.21353209              -11.31681838
              48.23321804                3.40249880               73.61283856                0.00010000                7.35434400                4.44681662              -17.70602492               -1.95427767               99.08689601              -14.32226477
              49.30665535                0.79916106               72.85968966                0.00010000                7.49390646                5.72216214              -20.94858410               -1.38793698               82.22148236              -18.17774246
              50.38309617               -1.79826806               71.91585508                0.00010000                7.94271572                6.95189685              -24.38565777               -0.85277569               60.43746638              -23.37347218
              51.46550966               -4.38881886               70.72631758                0.00010000                8.69600551                8.11047059              -28.01877611               -0.37839273               32.50149436              -31.10802343
              52.55701628               -6.97322882               69.22541043                0.50602919                9.15066237                9.14453994              -31.89528440               -0.25991041               16.77946354              -45.98794987
              44.27926925               19.89341350               77.06894276                0.76689283                0.71401591               -0.25552319                0.15508161                0.68290618                4.73025553                8.88563204
              45.28640941               17.43577302               75.34907741                0.48972789                8.64899209                1.37201330               -4.73626893               -7.05149819               85.64730386               -8.34256802
              46.45224909               14.81829294               75.24762066                0.44675872               14.24386588               -2.10191629               -7.05484029               -5.34726748              161.43728926               -3.48242342
              47.57128673               12.22972697               75.03907919                0.43998037               10.68464262                0.05402794               -9.45120065               -1.76043597              152.32188703               -3.78707590
              48.66594195                9.63520483               74.74967647                0.43733587                8.81836451                1.54324801              -11.94841398               -1.08958670              143.78775767               -4.59962457
              49.74765402                7.04036134               74.36397751                0.43919389                7.80631752                3.03371791              -14.61395034               -0.61568911              133.26213925               -5.78771643
              50.82206830                4.44671994               73.85749406                0.44480793                7.31118060                4.42211461              -17.48850761               -0.30300770              119.81121499               -7.32374287
              51.89387763                1.85660068               73.19710754                0.45495472                7.25838744                5.74396228              -20.58474230               -0.02582066              102.40610513               -9.31883020
              52.96723605               -0.72824104               72.33873147                0.46991622                7.61051681                7.00270171              -23.89581682                0.23714615               79.58280630              -12.07271372
              54.04608797               -3.30693614               71.22067009                0.49044013                8.35523613                8.18827188              -27.42502631                0.47696943               47.38619462              -16.23629998
              55.13434077               -5.87985827               69.71976058                0.75345930                8.82528011                9.33705476              -31.31107160                0.44023555               28.09535078              -27.54791695
              19.60339136               10.36984856               80.53703816                0.84943054               -1.65380911               -1.84163340                6.26260112               -0.48237539               -6.11957850                6.60925615
              20.58685327                7.65229136               79.79599875                0.58539318               -1.70329279               -1.06669995                4.21917084               -0.62633283               -8.46872748               -5.17865545
              21.56932551                4.92422675               79.00788740                0.48833889               -1.54384169               -0.58410736                2.13467382               -0.46389396               -8.70165239               -0.20552026
              22.55597644                2.17655507               78.26263067                0.45939389               -0.97557165                0.01115109                0.12018167               -0.41706028               -6.15558126               -0.40475017
              23.54981407               -0.58905558               77.52550931                0.45173607               -0.16666610                0.60043177               -1.95083296               -0.37067391               -5.42098875               -0.23936654
              24.55264312               -3.36724135               76.79489541                0.45855238                0.77164692                1.20696178               -4.07495117               -0.34222314               -5.02459398               -0.10356872
              25.56524701               -6.15041726               76.06573432                0.48171245                1.73018904                1.81140755               -6.22399020               -0.32368867               -5.18427277                0.04997670
              26.58724690               -8.93124525               75.33214738                0.52362323                2.60705162                2.40457894               -8.36968165               -0.32014243               -5.93888009                0.19845435
              27.61738804              -11.70470085               74.58828664                0.59272048                3.33830927                2.99144994              -10.50502263               -0.32436590               -7.52928331                0.25675741
              28.65401308              -14.46892132               73.82338010                0.70034004                3.92293183                3.56604206              -12.62598587               -0.32629879               -8.00276970                1.10154092
              29.69584668              -17.22556541               73.07054660                0.89509281                4.18335990                4.19143594              -14.71597442               -0.59224470               -7.42751196               -5.00147538
              22.31612481               11.35143222               80.24069308                0.63165026               -1.27239579               -1.92938036                5.46202612               -0.31364706                4.86724855               10.14837089
              23.30340085                8.64162436               79.49564919                0.10192467               -0.67850472               -0.74157123                3.44415471               -0.72177058               10.91470013               -9.61775412
              24.30255471                5.91838567               78.87142996                0.03934045                0.25230744               -1.12458364                1.81239847               -1.91953778               16.55183887              -11.95323525
              25.30844700                3.17666658               78.23857192                0.03031648                0.77254149               -0.90646539                0.04298635               -2.91959285               16.70290378              -17.32863827
              26.31800554                0.41694874               77.61742198                0.03353982                1.07273621               -0.46680939               -1.76108771               -3.58534771               17.57494584              -23.58567555
              27.32990172               -2.35517173               77.00231256                0.04123544                1.30032656                0.09887731               -3.62932832               -3.77133187               17.94878054              -30.69857191
              28.34401207               -5.13230318               76.38884318                0.05452794                1.56427720                0.68334295               -5.52983181               -3.45525902               17.80226833              -38.74230478
              29.36118727               -7.90719946               75.77097455                0.07579079                1.94851752                1.20198511               -7.42374314               -2.68607660               17.03422297              -47.83937186
              30.38298242              -10.67478635               75.14220680                0.11134117                2.49975541                1.62120284               -9.30476205               -1.56632007               15.85525283              -58.19284246
              31.41118237              -13.43326090               74.50058923                0.17933893                3.17929476                1.99339378              -11.15929239               -0.14182098               12.37306755              -70.11117726
              32.44656832              -16.18365105               73.80194256                0.63660939                3.53859446                2.10208848              -13.05630640                1.41505858                9.53676098              -86.90391626
              25.01673415               12.33126095               80.01502305                0.56511486               -1.12697374               -1.88992630                4.94876321               -0.10894786               -0.11788493               12.67131309
              26.00546441                9.63745993               79.10641631                0.03565649               -1.04208087               -0.31548959                2.43896366               -2.01195464               14.99220340              -12.41493756
              26.99589253                6.90173507               78.49997895                0.00010000               -0.32214479               -0.95789227                0.50028634               -4.79665859               29.26611530              -23.08782322
              27.99902152                4.15842576               77.87603816                0.00010000                0.70264483               -1.10010514               -1.50096124               -5.98827225               27.95166894              -33.98029602
              29.00994543                1.40160823               77.24244443                0.00010000                1.37234404               -0.84280647               -3.56390617               -6.99832264               26.96415793              -46.44346763
              30.02646840               -1.36526380               76.59794336                0.00010000                1.91120641               -0.37441212               -5.68988003               -7.27248055               25.59761858              -60.50482557
              31.04816956               -4.13675040               75.93617828                0.00010000                2.47700663                0.14815980               -7.89191789               -6.71805783               23.52355745              -76.38660948
              32.07600853               -6.90720554               75.24916958                0.00010000                3.19767662                0.59201633              -10.18981131               -5.39539978               20.57636974              -94.34505147
              33.11212309               -9.67227679               74.52726000                0.00010000                4.20164170                0.90489095              -12.62768916               -3.42972875               16.29719843             -114.71454750
              34.16004136              -12.42905345               73.75365711                0.00010000                5.64025283                1.10989617              -15.37908097               -1.31225526                9.40761060             -138.27946080
              35.22492815              -15.18352364               72.89544161                0.49336873                6.48867823                1.43720660              -18.06156261                0.53927441                4.84270153             -163.48521737
              27.70154788               13.31363370               79.76935590                0.55135615               -0.88602471               -1.64523034                4.33965204               -0.10113752                0.12969596               11.93690205
              28.69268763               10.63531457               78.74971852                0.02128250               -0.79460831               -0.12293110                1.56995847               -2.75901703               20.62351747              -10.64034912
              29.68565572                7.89922783               78.13995476                0.00010000               -0.19396199                0.13235191               -0.70276986               -5.62495949               40.53461147              -21.81411240
              30.68880839                5.15466448               77.51737337                0.00010000                0.80364681                0.19242080               -2.96244530               -6.30118398               38.98165354              -32.91288821
              31.70172865                2.40009261               76.87513162                0.00010000                1.70011731                0.43687747               -5.26640809               -6.87877276               36.77869828              -44.88124031
              32.72281074               -0.36265997               76.20691307                0.00010000                2.49320030                0.83436278               -7.64487199               -6.97026977               33.82609379              -58.24224646
              33.75159266               -3.12933999               75.50395011                0.00010000                3.29974605                1.30471177              -10.12498484               -6.42962848               29.89945730              -73.31729922
              34.78880566               -5.89535913               74.75551148                0.00010000                4.23215477                1.76951847              -12.73769564               -5.29662083               24.77762565              -90.41404365
              35.83623575               -8.65668853               73.94868240                0.00010000                5.36892279                2.19362489              -15.51854904               -3.74631808               18.14311422             -109.81534085
              36.89618412              -11.41106298               73.06725877                0.00010000                6.50292186                2.61540179              -18.41319058               -1.95689901                9.74870603             -131.42549007
              37.96629419              -14.15490692               72.09517803                0.49367777                7.01100726                3.61016502              -21.17249019               -0.85913167                4.93079306             -154.06324188
              30.37134966               14.29835634               79.52905793                0.54666849               -0.66597155               -1.41585514                3.75860506               -0.09466652                0.11785196               12.33252873
              31.36468994               11.63500131               78.39583702                0.01698724               -0.36531120                0.07144441                0.68945747               -3.23733185               26.66070635              -10.36081085
              32.36404343                8.90438211               77.79350356                0.00010000                0.37215565                0.77639333               -1.83557992               -6.40662112               52.48357917              -20.43520538
              33.37213306                6.16227418               77.17537519                0.00010000                1.28254940                1.14877316               -4.32780534               -6.82162254               50.43836006              -30.81994371
              34.38969442                3.41034578               76.53031920                0.00010000                2.21812695                1.47257575               -6.84776418               -7.05047402               47.26490778              -41.95197942
              35.41649559                0.65142345               75.84665736                0.00010000                3.12908606                1.87614574               -9.44184812               -6.89716743               42.88150507              -54.31849306
              36.45227614               -2.11065616               75.11182903                0.00010000                4.04645299                2.36002708              -12.14315655               -6.28581037               37.17014282              -68.31900610
              37.49742465               -4.87181517               74.31207263                0.00010000                5.03122167                2.88795241              -14.97226298               -5.25903652               29.99771377              -84.28919778
              38.55290058               -7.62840429               73.43263944                0.00010000                6.08485585                3.43587340              -17.92011147               -3.90807939               21.27932230             -102.45046194
              39.61912177              -10.37674541               72.45885789                0.00010000                7.12664059                4.08088604              -20.91644642               -2.23431245               11.11383831             -122.74271075
              40.69543339              -13.11132034               71.37871749                0.49459987                7.63116171                4.91327968              -23.83504815               -0.97878401                5.56428813             -144.83526994
              33.02636461               15.28531659               79.29131827                0.54268482               -0.44493829               -1.19977131                3.18073574               -0.09575329                0.12942153               12.51956491
              34.02191523               12.63674346               78.04473758                0.01435784                0.19429080                0.28600063               -0.18921032               -3.54591598               33.26643344              -10.16346406
              35.03025043                9.91475569               77.46094617                0.00010000                1.22485217                1.23004797               -2.91639806               -6.95008594               65.53666994              -18.89972791
              36.04641227                7.17763994               76.85830463                0.00010000                2.06597319                1.78308737               -5.59020238               -7.30035423               62.97541361              -27.95476242
              37.07156989                4.42954412               76.22122857                0.00010000                2.97285307                2.20683603               -8.28098258               -7.27383589               58.85325992              -37.77541273
              38.10586934                1.67486294               75.53378959                0.00010000                3.87725918                2.67349350              -11.04203446               -6.86616460               53.10793014              -48.78073009
              39.14911508               -1.08213945               74.77948820                0.00010000                4.77518622                3.23416765              -13.90726105               -6.11556455               45.66065755              -61.36814728
              40.20137306               -3.83760008               73.94122410                0.00010000                5.69446628                3.87084864              -16.88750855               -5.08428100               36.45573462              -75.90563292
              41.26300440               -6.58797106               73.00188990                0.00010000                6.65204272                4.55791645              -19.96426723               -3.80421270               25.54392132              -92.69843386
              42.33441391               -9.32944526               71.94594705                0.00010000                7.64319806                5.27506291              -23.08792443               -2.16701775               13.19685098             -111.92168069
              43.41586836              -12.05664132               70.76202097                0.49584358                8.14544494                5.96435847              -26.20029948               -0.97695745                6.61267576             -133.58588122
              35.66658087               16.27436092               79.05477692                0.53876805               -0.22483447               -0.99675841                2.60757454               -0.09828700                0.15188486               12.57979822
              36.66433253               13.64072133               77.69487809                0.01345008                0.87821811                0.51731778               -1.07276539               -3.78222080               40.66721426              -10.12355938
              37.68414523               10.92898307               77.14536140                0.00010000                2.35025082                1.54154013               -3.94041927               -7.34549954               80.15635612              -17.04138092
              38.71133754                8.19793592               76.57373944                0.00010000                3.14247346                2.12173499               -6.73551753               -7.63819305               77.05707872              -24.32169192
              39.74699470                5.45448250               75.96004823                0.00010000                3.97591639                2.60092610               -9.53903636               -7.34860478               71.98325937              -32.40427975
              40.79085587                2.70489332               75.28441143                0.00010000                4.77165870                3.17082435              -12.41168128               -6.65305374               64.89889817              -41.66488070
              41.84242788               -0.04597281               74.52656363                0.00010000                5.53573902                3.86799586              -15.38904966               -5.72605456               55.72936368              -52.46062121
              42.90157065               -2.79439820               73.66560327                0.00010000                6.31168120                4.65541118              -18.48105193               -4.64639950               44.41987192              -65.19670889
              43.96866150               -5.53724596               72.68065586                0.00010000                7.14405147                5.48312365              -21.67389176               -3.41179456               31.05709314              -80.33986093
              45.04445168               -8.27124415               71.55294619                0.00010000                8.08124353                6.27880949              -24.93913417               -1.91297597               16.01015433              -98.35502537
              46.13028637              -10.99203317               70.26904931                0.49657165                8.58346909                6.91149074              -28.25555532               -0.87181448                8.05177016             -119.58587487
              38.29167806               17.26538143               78.81820346                0.53509388               -0.00293959               -0.79712757                2.02698438               -0.10075823                0.16452500               12.49303437
              39.29164866               14.64708981               77.34474843                0.01414272                1.72238913                0.75891013               -1.96360718               -4.03770429               49.11081155              -10.21696205
              40.32612584               11.94558650               76.85031074                0.00010000                3.82501599                1.65235435               -4.89905649               -7.65571267               96.82458996              -14.78097615
              41.36814898                9.22007464               76.32971732                0.00010000                4.57572784                2.08036681               -7.74150154               -7.75070492               93.11136502              -19.82845768
              42.41764040                6.48156264               75.75876711                0.00010000                5.25572948                2.59975809              -10.58981863               -7.02610208               87.04812212              -25.84007616
              43.47326357                3.73827943               75.11422965                0.00010000                5.81225563                3.35063196              -13.51271408               -6.01866273               78.64989276              -33.02446797
              44.53388551                0.99522047               74.37267501                0.00010000                6.32273255                4.23898338              -16.54899186               -4.95180188               67.79893866              -41.62731526
              45.59971822               -1.74449186               73.50902182                0.00010000                6.88644766                5.20389929              -19.71237836               -3.87148183               54.31570925              -52.06401143
              46.67161446               -4.47830859               72.49672653                0.00010000                7.56116889                6.18744624              -22.99863891               -2.74365545               38.17416564              -64.99093873
              47.75094160               -7.20386907               71.31051024                0.00010000                8.41978213                7.10039834              -26.39768678               -1.48963266               19.75496111              -81.32902985
              48.84001011               -9.91841151               69.93142399                0.49773630                8.90685055                7.76485751              -29.91208226               -0.69326916                9.99077628             -101.94193394
              40.90114894               18.25841837               78.57984741                0.53282274                0.22244354               -0.59049719                1.44334418               -0.10823901                0.23763822               12.40018625
              41.90337337               15.65589953               76.99327813                0.01693091                2.84486080                1.00371510               -2.87441041               -4.44886016               58.91612174              -10.59310248
              42.95804615               12.96203016               76.58038655                0.00010000                5.84869619                1.29423955               -5.77636809               -7.94721314              116.06394626              -11.74090738
              44.02034730               10.23954326               76.13555574                0.00010000                6.51108591                1.42391694               -8.57728317               -7.18069337              111.51449530              -14.27249970
              45.08826787                7.50647766               75.62942963                0.00010000                6.82387459                2.23959817              -11.39431229               -5.90832246              104.33511232              -18.11033000
              46.15682479                4.77190596               75.03820456                0.00010000                6.89476272                3.26686176              -14.29905681               -4.70960934               94.71880449              -22.98750542
              47.22616312                2.03880686               74.33689246                0.00010000                7.04226431                4.37924505              -17.33228837               -3.69266882               82.37230022              -29.00491850
              48.29767007               -0.69032022               73.49635911                0.00010000                7.35012383                5.51867481              -20.51239232               -2.75717453               66.81536307              -36.51917531
              49.37316560               -3.41349704               72.48250742                0.00010000                7.85459372                6.64722638              -23.84662448               -1.84630326               47.61525521              -46.25134426
              50.45476195               -6.12923619               71.25786914                0.00010000                8.61701334                7.70021325              -27.34697799               -0.93760688               24.92416244              -59.69360289
              51.54550587               -8.83673602               69.79136531                0.49887208                9.07439206                8.50413822              -31.04120341               -0.45951879               12.73378938              -79.21223753
              43.49455096               19.25357148               78.34139346                0.52801290                0.45087136               -0.36891874                0.84527623               -0.11910361               -0.25716876               10.76679449
              44.49905967               16.66716411               76.63587765                0.01857456                4.44934458                1.24122975               -3.80638288               -5.34062528               70.55034510               -9.72675137
              45.58353785               13.97147129               76.34663895                0.00010000                9.05139703               -0.60337548               -6.53779711               -6.54452625              138.70357639               -6.76358687
              46.68008761               11.24855298               76.00324295                0.00010000                9.17866992                0.45420403               -9.20220618               -4.93687450              132.28198835               -7.55799708
              47.76711125                8.52635461               75.58337480                0.00010000                8.33272905                1.73971289              -11.90883663               -3.47280046              123.90108327               -9.36827575
              48.84674219                5.80361666               75.06942688                0.00010000                7.75735333                3.07238723              -14.72023139               -2.62174481              113.38710357              -11.82413181
              49.92225831                3.08280537               74.43613301                0.00010000                7.50682188                4.37505212              -17.67650777               -1.96864358               99.98278395              -14.92901324
              50.99687863                0.36588164               73.65132900                0.00010000                7.56730288                5.63926005              -20.79923017               -1.40185514               82.87156380              -18.89218355
              52.07360437               -2.34536406               72.67396751                0.00010000                7.92749076                6.85826604              -24.10462242               -0.86237261               60.87931960              -24.21218718
              53.15542844               -5.04986480               71.44876042                0.00010000                8.61075129                8.00718801              -27.63330591               -0.38247029               32.73669336              -32.10905614
              54.24581940               -7.74832874               69.90926771                0.49986178                9.03909521                9.02968056              -31.47595838               -0.25456626               16.94638073              -47.27530407
              46.07158160               20.25103999               78.07037694                0.76364685                0.70794602               -0.25314916                0.14196425                0.67147783                4.86761177                9.13919700
              47.07866106               17.68072412               76.30199497                0.48594162                8.70925803                1.35600092               -4.68095142               -7.09372787               87.01685664               -8.56652184
              48.24576676               14.94996265               76.17672775                0.44576351               14.40327107               -2.15086390               -7.11359198               -5.38194757              163.82688686               -3.58733186
              49.36672648               12.24862734               75.94389371                0.43973018               10.89907058                0.00743621               -9.57543649               -1.77064893              154.47210305               -3.92521506
              50.46374817                9.54127192               75.62945789                0.43733194                9.06063205                1.49173128              -12.09348781               -1.09998874              145.66408063               -4.78027903
              51.54793913                6.83335371               75.21734673                0.43902202                8.03885519                2.97370432              -14.72898782               -0.62850762              134.82948176               -6.01476134
              52.62452528                4.12630790               74.68267089                0.44422714                7.49316391                4.35025263              -17.52216299               -0.31773946              121.07215370               -7.59871141
              53.69780240                1.42246499               73.99213624                0.45334762                7.35696562                5.65833471              -20.49453176               -0.03960340              103.39565271               -9.64547281
              54.77166459               -1.27633172               73.10157946                0.46693985                7.61374115                6.90323420              -23.66322841                0.22815150               80.34284838              -12.46072421
              55.85007723               -3.96909243               71.94899188                0.48563814                8.28389170                8.07723770              -27.07450495                0.47434376               47.87486701              -16.70824391
              56.93734242               -6.65614241               70.40942254                0.75027941                8.72651988                9.21863365              -30.92400506                0.44730477               28.46889345              -28.23774241
              20.29276543               10.73694824               81.59957381                0.84295316               -1.64491511               -1.83158127                6.22943500               -0.48068319               -6.25520290                6.73508252
              21.27631628                7.90409909               80.83809238                0.57753648               -1.70620940               -1.05968861                4.19275508               -0.63883018               -8.61163164               -5.29995586
              22.25864125                5.06049217               80.02923910                0.48560421               -1.55403806               -0.57986349                2.13152782               -0.46392068               -8.81718690               -0.15970919
              23.24523552                2.19703549               79.26393965                0.45840952               -0.97615355                0.00990277                0.14055515               -0.41501590               -6.26440593               -0.38930760
              24.23911817               -0.68426975               78.50617388                0.45157161               -0.16581757                0.59772720               -1.91456154               -0.37234059               -5.58463820               -0.23464391
              25.24191917               -3.57793918               77.75435433                0.45905115                0.76356399                1.19784168               -4.01468213               -0.33540966               -5.22416288               -0.10075413
              26.25438945               -6.47659003               77.00379634                0.48011132                1.71326848                1.80524512               -6.14694641               -0.32560313               -5.39503887                0.03117504
              27.27618454               -9.37296498               76.24886482                0.51977034                2.58282740                2.39725052               -8.28595916               -0.33146142               -6.15326595                0.17651524
              28.30604600              -12.26220182               75.48366860                0.58450546                3.30806157                2.97779443              -10.40292591               -0.32889071               -7.74330696                0.22515762
              29.34234577              -15.14258641               74.69756766                0.68388525                3.88751151                3.55162658              -12.50728359               -0.32722145               -8.20663034                1.07385002
              30.38379623              -18.01578511               73.92388618                0.88329377                4.14504616                4.17344371              -14.58257556               -0.56662610               -7.63277888               -5.09897415
              23.12080775               11.71863243               81.29523361                0.62117928               -1.26517344               -1.92808744                5.43292809               -0.32272801                5.03678054               10.42578635
              24.10815602                8.89350221               80.53002795                0.10100573               -0.66369552               -0.72754627                3.42127202               -0.74579085               11.27938291               -9.84709881
              25.10753384                6.05469354               79.88945311                0.04035910                0.26551528               -1.10426937                1.79632556               -1.94581983               17.04045522              -12.39308672
              26.11346632                3.19713452               79.23895846                0.03149609                0.76741314               -0.87142495                0.03565340               -2.93295333               17.11227166              -18.04293740
              27.12288210                0.32170752               78.59973371                0.03464135                1.06294460               -0.41961900               -1.77249907               -3.57133780               17.93637381              -24.56564329
              28.13472521               -2.56596076               77.96600431                0.04211788                1.28821101                0.15065895               -3.63079963               -3.72904094               18.24313901              -31.93849489
              29.14864632               -5.45853758               77.33338131                0.05507605                1.54753015                0.74090073               -5.53990083               -3.38942547               18.07822962              -40.25699581
              30.16567582               -8.34899248               76.69668546                0.07558812                1.94607425                1.25965418               -7.44454224               -2.61099060               17.31928535              -49.66970101
              31.18756781              -11.23242387               76.04900021                0.10926311                2.50946934                1.67390128               -9.32842192               -1.49890243               16.14157450              -60.38816800
              32.21586520              -14.10707014               75.38875830                0.16035317                3.18804326                2.03367030              -11.18725179               -0.13399708               12.64717438              -72.75202490
              33.25132867              -16.97405067               74.67114320                0.62281280                3.54634698                2.17257380              -13.07839202                1.28929686                9.78079895              -90.00627168
              25.93657132               12.69838650               81.06442790                0.55645075               -1.12319593               -1.89507115                4.92166700               -0.10761751               -0.15080908               13.05271603
              26.92533936                9.88954817               80.13082079                0.03481959               -1.02393898               -0.29987810                2.43685093               -2.03254288               15.24079867              -12.68905108
              27.91609254                7.03840678               79.50492758                0.00010000               -0.28884458               -0.92998791                0.49015155               -4.82866314               29.74944233              -23.97391327
              28.91956247                4.17960699               78.86095330                0.00010000                0.73470800               -1.04596516               -1.51105516               -5.99702481               28.36002455              -35.39278320
              29.93078670                1.30733787               78.20675945                0.00010000                1.40104930               -0.76860439               -3.56691959               -6.96540553               27.29220677              -48.36702857
              30.94758345               -1.57492600               77.54105755                0.00010000                1.94229793               -0.28915149               -5.68091453               -7.20149450               25.83885108              -62.93605097
              31.96963266               -4.46177202               76.85745399                0.00010000                2.51337822                0.23293422               -7.85309658               -6.61562763               23.65997574              -79.33920034
              32.99785102               -7.34777190               76.14779344                0.00010000                3.22564813                0.66809289              -10.08974903               -5.28988408               20.58706698              -97.87550991
              34.03414562              -10.22872379               75.40235465                0.00010000                4.17208068                0.96395240              -12.39498039               -3.37656920               16.14489926             -118.87161976
              35.08129263              -13.10191300               74.60381795                0.00010000                5.46988058                1.14820047              -14.78750102               -1.32912466                9.18924942             -143.05455585
              36.14354323              -15.97233364               73.72074838                0.48777892                6.22506000                1.49667281              -17.19910673                0.42577170                4.74075126             -168.81962022
              28.73633205               13.68073101               80.81266968                0.54377400               -0.88471835               -1.64423012                4.31974944               -0.09704256                0.12818328               12.29308911
              29.72748487               10.88750465               79.76547477                0.02086807               -0.77151489               -0.11892595                1.57784716               -2.77774837               20.86236429              -10.85241646
              30.72090176                8.03609378               79.13289550                0.00010000               -0.14450653                0.14410637               -0.70598770               -5.65659048               40.99168646              -22.61802113
              31.72459474                5.17621522               78.48767522                0.00010000                0.86026146                0.21672748               -2.97044839               -6.31596279               39.39552494              -34.24081950
              32.73810699                2.30633544               77.82242563                0.00010000                1.76052365                0.47184721               -5.26754607               -6.87115891               37.10298833              -46.69968287
              33.75980521               -0.57174379               77.13055094                0.00010000                2.55363416                0.87309456               -7.62324050               -6.94528561               34.03137227              -60.54072241
              34.78917967               -3.45387890               76.40306226                0.00010000                3.35123484                1.33557923              -10.05581021               -6.40937459               29.96155880              -76.09749150
              35.82682991               -6.33563062               75.62904157                0.00010000                4.24989309                1.78482261              -12.57754731               -5.31443348               24.67846508              -93.67300540
              36.87417753               -9.21314482               74.79542801                0.00010000                5.30313236                2.18995361              -15.19330670               -3.82977039               17.90688190             -113.52766955
              37.93289256              -12.08410613               73.88639084                0.00010000                6.32539217                2.60955023              -17.87490168               -2.05969663                9.52619701             -135.49494072
              39.00068537              -14.94411722               72.88741608                0.48827497                6.77928169                3.60125064              -20.51762719               -0.90723280                4.83356085             -158.50168123
              31.52108319               14.66550189               80.56659738                0.53951069               -0.66615697               -1.41310245                3.73840192               -0.09541951                0.11153199               12.71033104
              32.51442162               11.88716965               79.40284193                0.01681129               -0.34165151                0.06874640                0.70957302               -3.25387511               26.91543943              -10.57763821
              33.51425016                9.04128891               78.77513192                0.00010000                0.42899670                0.77416997               -1.83436525               -6.43595845               52.97498949              -21.18189037
              34.52300156                6.18394154               78.13202412                0.00010000                1.35361838                1.15190853               -4.33491549               -6.84137683               50.89176750              -32.05110169
              35.54132253                3.31677482               77.46180451                0.00010000                2.29452586                1.48122121               -6.84872967               -7.06214293               47.62424988              -43.63451670
              36.56889207                0.44253589               76.75235732                0.00010000                3.20047314                1.88639779               -9.41714007               -6.91247366               43.10863311              -56.43389556
              37.60533199               -2.43506043               75.99082868                0.00010000                4.09681018                2.36732196              -12.06643516               -6.32517104               37.24575853              -70.85371990
              38.65082828               -5.31207545               75.16330068                0.00010000                5.03468683                2.89033345              -14.80876165               -5.34366622               29.92881760              -87.22177004
              39.70602573               -8.18492472               74.25510545                0.00010000                6.01214088                3.44048843              -17.63643379               -4.03451477               21.12028286             -105.73953980
              40.77107109              -11.04972200               73.25208080                0.00010000                6.96975084                4.10359150              -20.51001098               -2.33812087               10.97756091             -126.35863554
              41.84542075              -13.90030862               72.14312153                0.48922128                7.43496508                4.95036068              -23.36314297               -1.02294120                5.51476855             -148.85733115
              34.29108815               15.65246896               80.32305428                0.53560374               -0.44678006               -1.19780490                3.16597337               -0.09368584                0.12933354               12.90822246
              35.28662035               12.88887957               79.04299798                0.01430532                0.21612732                0.27967974               -0.16145993               -3.56056632               33.56977415              -10.38567167
              36.29541070               10.05157718               78.43177284                0.00010000                1.28304752                1.21781187               -2.91291951               -6.97774359               66.11949453              -19.59366653
              37.31228130                7.19925339               77.80232034                0.00010000                2.14295405                1.77286591               -5.59964996               -7.32077944               63.52269375              -29.07465275
              38.33826978                4.33595986               77.13836785                0.00010000                3.05548438                2.20036771               -8.28660344               -7.29446934               59.30057942              -39.29010972
              39.37339099                1.46598416               76.42348000                0.00010000                3.95089034                2.67004653              -11.02293070               -6.89930567               53.41581771              -50.67096274
              40.41728758               -1.40653246               75.64083240                0.00010000                4.82149419                3.23336493              -13.83947976               -6.17606070               45.81754470              -63.61897950
              41.46982087               -4.27782395               74.77320861                0.00010000                5.69231018                3.87601436              -16.74747905               -5.17986832               36.48201830              -78.49980190
              42.53113379               -7.14433505               73.80362539                0.00010000                6.58465866                4.57723237              -19.73742686               -3.91872815               25.49392193              -95.62115571
              43.60151404              -10.00203430               72.71690802                0.00010000                7.51330057                5.31463791              -22.78108799               -2.25134996               13.14491822             -115.18891328
              44.68139980              -12.84511000               71.50210510                0.49005933                7.98857546                6.01135195              -25.84727357               -1.00731471                6.60991488             -137.28389792
              37.04638824               16.64154580               80.08082168                0.53238601               -0.22861680               -0.99175885                2.59866155               -0.09526068                0.14638069               12.97105367
              38.04410208               13.89276325               78.68431132                0.01344686                0.89666170                0.50476499               -1.03867270               -3.79264431               41.05025068              -10.35404953
              39.06432148               11.06564515               78.10594710                0.00010000                2.40506045                1.52418154               -3.93774473               -7.36778936               80.89814954              -17.67335342
              40.09220329                8.21939886               77.50627362                0.00010000                3.21904430                2.10521330               -6.75164251               -7.65416918               77.76106701              -25.30656048
              41.12870236                5.36078217               76.86456729                0.00010000                4.05974952                2.58775917               -9.55529884               -7.36818735               72.57755510              -33.71457759
              42.17339828                2.49593682               76.16036256                0.00010000                4.84582628                3.16135760              -12.40605438               -6.68661734               65.34212960              -43.28689889
              43.22561889               -0.37039313               75.37303706                0.00010000                5.58176163                3.86347464              -15.33909358               -5.78201597               56.01403157              -54.38672511
              44.28503351               -3.23455516               74.48155986                0.00010000                6.31213148                4.65965586              -18.36835932               -4.72481312               44.56985777              -67.42390450
              45.35186152               -6.09338007               73.46512434                0.00010000                7.08927681                5.50102638              -21.49038491               -3.49674054               31.11862306              -82.87731782
              46.42681904               -8.94342924               72.30513556                0.00010000                7.97821665                6.30921338              -24.69269502               -1.97157953               16.03050569             -101.24081148
              47.51142585              -11.78008158               70.98827824                0.49112410                8.46068080                6.93886243              -27.97014322               -0.88914814                8.08922626             -122.90232127
              39.78674804               17.63263378               79.83843260                0.52871982               -0.00799283               -0.79421522                2.02244599               -0.10103457                0.16761349               12.87863715
              40.78666811               14.89897487               78.32531178                0.01411123                1.73356288                0.74479571               -1.92362966               -4.04130092               49.61691727              -10.46213877
              41.82141929               12.08206081               77.80128997                0.00010000                3.86963936                1.63431472               -4.90031969               -7.66827822               97.80100860              -15.33430393
              42.86406090                9.24135765               77.25213821                0.00010000                4.64743869                2.06448672               -7.76977343               -7.75889729               94.04341040              -20.64327881
              43.91436807                6.38771504               76.65270472                0.00010000                5.33865239                2.58674578              -10.62387749               -7.03967902               87.85158646              -26.90063978
              44.97083394                3.52921132               75.97908976                0.00010000                5.88855880                3.33980852              -13.52859614               -6.04491311               79.28137227              -34.32658371
              46.03213924                0.67073704               75.20746775                0.00010000                6.37388011                4.23101864              -16.52355915               -4.99394176               68.25268744              -43.17250720
              47.09831155               -2.18463083               74.31258102                0.00010000                6.89669071                5.20109552              -19.62795754               -3.92616292               54.61427242              -53.86086105
              48.17007306               -5.03431453               73.26785257                0.00010000                7.52362106                6.19166150              -22.84844580               -2.79870037               38.35403424              -67.06342551
              49.24878397               -7.87585004               72.04800138                0.00010000                8.34242326                7.10807277              -26.18972897               -1.52584274               19.84425390              -83.72886090
              50.33692152              -10.70633276               70.63395597                0.49218750                8.81375567                7.76220261              -29.66802415               -0.69943975               10.06722830             -104.75499526
              42.51168537               18.62566149               79.59424494                0.52631983                0.21636621               -0.59293469                1.43915250               -0.10323661                0.23692442               12.77862405
              43.51384903               15.90765916               77.96476676                0.01680284                2.84438838                0.99130695               -2.82603063               -4.44363127               59.59308350              -10.86220503
              44.56857314               13.09833144               77.52255412                0.00010000                5.87610369                1.28191742               -5.78567956               -7.94924440              117.36947691              -12.18242762
              45.63137111               10.26068859               77.04953097                0.00010000                6.57409917                1.41655610               -8.62446081               -7.18121528              112.75244237              -14.86902761
              46.70005512                7.41251709               76.51520358                0.00010000                6.90534575                2.23317679              -11.45502613               -5.91654695              105.41157743              -18.86693427
              47.76947802                4.56273299               75.89506925                0.00010000                6.97635406                3.25940196              -14.34659985               -4.72857304               95.59427274              -23.91016696
              48.83958220                1.71422724               75.16372255                0.00010000                7.10418967                4.37015278              -17.34120908               -3.72169409               83.04332033              -30.10010938
              49.91156181               -1.13053325               74.29180267                0.00010000                7.37622572                5.50855439              -20.46329811               -2.79167512               67.30149459              -37.79968061
              50.98710672               -3.96954684               73.24505595                0.00010000                7.83793023                6.63653430              -23.73191245               -1.87782246               47.94025620              -47.74488900
              52.06832042               -6.80126778               71.98577800                0.00010000                8.56478904                7.68636550              -27.17497855               -0.95656647               25.09513802              -61.45983577
              53.15840250               -9.62483753               70.48250342                0.49295977                9.00820785                8.47703139              -30.83457273               -0.45658445               12.85737573              -81.36148519
              45.22068797               19.62077509               79.34979005                0.52128355                0.44375616               -0.37155054                0.84406939               -0.11240506               -0.26137698               11.08666263
              46.22512553               16.91880101               77.59810977                0.01826295                4.43585017                1.22743860               -3.75393168               -5.32646160               71.46488870               -9.98415547
              47.30940497               14.10769916               77.28111966                0.00010000                9.05627094               -0.59813747               -6.56023365               -6.53986421              140.44874119               -7.02604498
              48.40625095               11.26968877               76.91083697                0.00010000                9.22938799                0.46162722               -9.27645705               -4.93465144              133.89694356               -7.87679055
              49.49399273                8.43237858               76.46382540                0.00010000                8.41506900                1.74579980              -12.00726324               -3.47870016              125.31306323               -9.76635459
              50.57455233                5.59439935               75.92187414                0.00010000                7.84894353                3.07467099              -14.81325862               -2.63429317              114.56822714              -12.30787612
              51.65097160                2.75814009               75.25930840                0.00010000                7.58498974                4.37213519              -17.73547204               -1.98597200              100.93325873              -15.50348159
              52.72625212               -0.07445974               74.44370505                0.00010000                7.61397719                5.63049965              -20.80155597               -1.42018124               83.60943847              -19.56613669
              53.80325115               -2.90158384               73.43376263                0.00010000                7.93456025                6.84337077              -24.04045506               -0.87661637               61.41362017              -25.00445389
              54.88494333               -5.72212273               72.17365146                0.00010000                8.58390914                7.98519209              -27.51082986               -0.38932431               33.03164925              -33.06246124
              55.97492933               -8.53679213               70.59589126                0.49401048                8.99859999                8.99573690              -31.31980340               -0.24419926               17.14078801              -48.52241169
              47.91338542               20.61823048               79.07178205                0.76006495                0.70103120               -0.25446090                0.14570107                0.66749024                5.01127376                9.40692342
              48.92039573               17.93220793               77.25545838                0.48240489                8.67513369                1.34069175               -4.63082366               -7.06606909               88.31357228               -8.80083316
              50.08688809               15.08636869               77.10534882                0.44505370               14.38014621               -2.13304629               -7.15518736               -5.36602746              166.06491404               -3.68906056
              51.20799866               12.26992114               76.84757046                0.43953312               10.94412220                0.02323647               -9.68562584               -1.77200994              156.50864018               -4.05730896
              52.30577054                9.44743308               76.50780671                0.43744745                9.15159944                1.50545025              -12.24329486               -1.10695574              147.47469714               -4.95140142
              53.39103064                6.62422641               76.06939775                0.43893546                8.14756616                2.98270574              -14.88611695               -0.64032531              136.38773092               -6.22865301
              54.46872186                3.80166994               75.50705080                0.44369880                7.59257390                4.35298513              -17.65429747               -0.33245747              122.38107709               -7.85693306
              55.54288212                0.98207675               74.78721690                0.45176342                7.42577553                5.65364892              -20.57473653               -0.05446850              104.47730018               -9.95252528
              56.61723737               -1.83267942               73.86546690                0.46429064                7.64300485                6.89044161              -23.67760248                0.21658816               81.20798498              -12.82812632
              57.69574222               -4.64156394               72.67917999                0.48102579                8.28099725                8.05587833              -27.02909930                0.46772069               48.43606368              -17.16147280
              58.78285732               -7.44492279               71.10128047                0.74730519                8.71150965                9.18693345              -30.84456350                0.45691370               28.87805267              -28.91603474
              21.00125018               11.11323061               82.66162686                0.83637810               -1.62948256               -1.81367495                6.16745329               -0.47879396               -6.37805237                6.85393028
              21.98495535                8.16242110               81.87985385                0.56941091               -1.70578389               -1.04671294                4.15005732               -0.64993838               -8.73806766               -5.41971758
              22.96713450                5.20060453               81.05051796                0.48270877               -1.56009062               -0.57690738                2.12335493               -0.45460923               -8.91554944               -0.10992176
              23.95375354                2.21873130               80.26544177                0.45793883               -0.97139359                0.00628747                0.16017354               -0.40780313               -6.35351324               -0.37512023
              24.94770663               -0.78086812               79.48721808                0.45173020               -0.16080686                0.59184155               -1.86552056               -0.36633027               -5.71943373               -0.22583434
              25.95053740               -3.79255639               78.71460177                0.45816194                0.75645585                1.19115370               -3.93710238               -0.34682940               -5.39525052               -0.10546469
              26.96283574               -6.80896371               77.94279539                0.47896822                1.68859553                1.78629511               -6.04430922               -0.33401443               -5.59757497                0.01814840
              27.98430931               -9.82335622               77.16642820                0.51574930                2.54916575                2.38341170               -8.16534594               -0.33038357               -6.35413695                0.15563128
              29.01381906              -12.83086091               76.38022812                0.57575059                3.26767904                2.96251498              -10.26201920               -0.33126841               -7.93392565                0.19587118
              30.04966289              -15.82982560               75.57323442                0.66695783                3.83675027                3.52739127              -12.33595531               -0.32790257               -8.39592092                1.04237577
              31.09055407              -18.82205892               74.77889508                0.87161453                4.08911716                4.14202349              -14.38481283               -0.53728683               -7.83010193               -5.19309331
              23.94727175               12.09509386               82.34935164                0.61043093               -1.25027414               -1.91757026                5.37809507               -0.32988801                5.19843486               10.69454856
              24.93476901                9.15195397               81.56407463                0.09970417               -0.64192191               -0.70945052                3.38295913               -0.77165202               11.64334198              -10.06271197
              25.93443331                6.19483546               80.90735647                0.04133298                0.28214146               -1.08950574                1.77932281               -1.97727185               17.53356370              -12.82612348
              26.94041184                3.21879417               80.23928499                0.03265748                0.76269293               -0.84389830                0.02883672               -2.95742875               17.50341914              -18.74332488
              27.94968717                0.22505030               79.58197200                0.03571197                1.03525334               -0.37780692               -1.77038572               -3.57301662               18.27547755              -25.51716899
              28.96111690               -2.78064485               78.92969657                0.04291770                1.26041740                0.20124678               -3.63565650               -3.70687869               18.53071735              -33.14133504
              29.97489552               -5.79110076               78.27804516                0.05536252                1.54185877                0.78741782               -5.52495044               -3.35399080               18.32726576              -41.71108091
              30.99195408               -8.79952210               77.62208370                0.07502425                1.94227760                1.31421833               -7.44648460               -2.57975516               17.57686682              -51.38813427
              32.01374107              -11.80123576               76.95563836                0.10673105                2.50143981                1.73619600               -9.33479282               -1.49260416               16.42096913              -62.41447970
              33.04198287              -14.79455169               76.27684419                0.15338147                3.18367226                2.10242487              -11.18559770               -0.18166002               12.90781158              -75.11643086
              34.07741451              -17.78063868               75.54037472                0.60976946                3.54316394                2.29349961              -13.06006752                1.15771287               10.01553944              -92.75455063
              26.88093220               13.07487921               82.11345639                0.54839407               -1.11514845               -1.88839279                4.87748728               -0.10323070               -0.18227260               13.43173402
              27.86978071               10.14823209               81.15515333                0.03387573               -1.00916670               -0.28544357                2.42080700               -2.05623472               15.47484391              -12.94396903
              28.86074886                7.17881442               80.50978199                0.00010000               -0.26952912               -0.90861990                0.48100173               -4.87615372               30.20626745              -24.84009079
              29.86439013                4.20185333               79.84581706                0.00010000                0.74682280               -1.00084511               -1.51290314               -6.02308727               28.74826971              -36.77037196
              30.87568532                1.21157574               79.17110604                0.00010000                1.40803754               -0.69982004               -3.56039423               -6.95796248               27.60425917              -50.23541267
              31.89255088               -1.78853145               78.48432507                0.00010000                1.94739304               -0.20646710               -5.66003373               -7.15532181               26.07164833              -65.28658252
              32.91463318               -4.79321535               77.77911635                0.00010000                2.51491656                0.32181257               -7.81379663               -6.55513558               23.81531244              -82.17582702
              33.94284921               -7.79707185               77.04737460                0.00010000                3.21816929                0.75978118              -10.00764096               -5.24332520               20.66414244             -101.21840677
              34.97899656              -10.79613699               76.27936039                0.00010000                4.12917040                1.06215183              -12.23764100               -3.37111031               16.15491041             -122.77140744
              36.02543262              -13.78777711               75.45790709                0.00010000                5.34428726                1.26635230              -14.49485624               -1.36574122                9.16752700             -147.53645338
              37.08588231              -16.77618893               74.55145948                0.48269548                6.04496907                1.66624986              -16.80455234                0.33383912                4.75737853             -173.87237926
              29.79850136               14.05732601               81.85575089                0.53664317               -0.87922659               -1.63504226                4.27980457               -0.10014041                0.11766660               12.64326242
              30.78970910               11.14624510               80.78127546                0.02039871               -0.76061845               -0.11533776                1.57962071               -2.79897313               21.07686216              -11.05124203
              31.78328899                8.17666306               80.12583500                0.00010000               -0.12601650                0.15262743               -0.70454320               -5.69278313               41.41118568              -23.39857357
              32.78718877                5.19877727               79.45796440                0.00010000                0.88118536                0.23768457               -2.96656532               -6.33517412               39.77942712              -35.53243569
              33.80091270                2.21105390               78.76978070                0.00010000                1.78063953                0.50687401               -5.25646908               -6.86952814               37.40878428              -48.46451719
              34.82280156               -0.78477419               78.05444826                0.00010000                2.57102510                0.91739649               -7.59693302               -6.93125971               34.23650765              -62.76264571
              35.85233320               -3.78466450               77.30283390                0.00010000                3.36038259                1.38573243               -9.99867105               -6.39687555               30.05624490              -78.77499779
              36.89000921               -6.78432648               76.50396053                0.00010000                4.23454555                1.83271193              -12.46402783               -5.32265962               24.66781471              -96.81123934
              37.93702411               -9.77999272               75.64481627                0.00010000                5.23553890                2.23722604              -14.98526322               -3.86843082               17.82055929             -117.12489388
              38.99471999              -12.76922464               74.70976074                0.00010000                6.19454115                2.66709036              -17.54687383               -2.10483355                9.43967791             -139.54168186
              40.06091494              -15.74731369               73.68482549                0.48307154                6.61949494                3.65164699              -20.11494466               -0.92065420                4.81058735             -162.99555159
              32.70109120               15.04217836               81.60382597                0.53253836               -0.66270069               -1.40346314                3.70407261               -0.09717650                0.11154082               13.08141699
              33.69446419               12.14592534               80.41002848                0.01660399               -0.33650841                0.06577656                0.72328743               -3.27141644               27.14443916              -10.78305435
              34.69436103                9.18186697               79.75681625                0.00010000                0.44158114                0.77020576               -1.82547881               -6.46446720               53.41759265              -21.90833420
              35.70329581                6.20660702               79.08867688                0.00010000                1.37425939                1.15600562               -4.32893452               -6.85356897               51.30757210              -33.24810328
              36.72184622                3.22171322               78.39334460                0.00010000                2.31741353                1.49626238               -6.83916704               -7.06407133               47.96027011              -45.26624217
              37.74964409                0.22981648               77.65831456                0.00010000                3.22008674                1.91063216               -9.39383793               -6.91471683               43.33317189              -58.48070275
              38.78624795               -2.76550070               76.87050032                0.00010000                4.10400751                2.39685446              -12.01362998               -6.34149633               37.34875727              -73.30540848
              39.83172424               -5.76041761               76.01589739                0.00010000                5.01390807                2.92355919              -14.70426788               -5.38402699               29.92391020              -90.07074924
              40.88652611               -8.75139247               75.07991076                0.00010000                5.94663391                3.47898303              -17.45745061               -4.09291854               21.05010879             -108.97771174
              41.95065691              -11.73443530               74.04865767                0.00010000                6.85605982                4.14731806              -20.25011487               -2.38254728               10.91126055             -129.98742166
              43.02364731              -14.70315599               72.91145463                0.48397629                7.29903970                4.99188448              -23.05195683               -1.03419109                5.50254790             -152.92682396
              35.58906388               16.02925674               81.35463774                0.52920572               -0.44717227               -1.18873442                3.14540624               -0.09771081                0.12395345               13.29670823
              36.58459216               13.14756063               80.04150838                0.01423631                0.21270400                0.27005992               -0.13738246               -3.57208199               33.83914302              -10.59981109
              37.59331796               10.19206718               79.40268778                0.00010000                1.28394868                1.20659508               -2.90091760               -6.99391805               66.64655542              -20.27125538
              38.61027113                7.22189738               78.74631163                0.00010000                2.15519283                1.76899099               -5.59674324               -7.32225797               64.02532782              -30.16453509
              39.63642182                4.24097914               78.05549650                0.00010000                3.07250056                2.20704286               -8.28545228               -7.29241415               59.71931718              -40.75916206
              40.67172115                1.25343845               77.31333098                0.00010000                3.96577737                2.68645527              -11.01312466               -6.90609742               53.71505009              -52.50003679
              41.71573737               -1.73672742               76.50269860                0.00010000                4.82496447                3.25790187              -13.80712171               -6.20152448               45.98919824              -65.79784906
              42.76822043               -4.72585529               75.60627452                0.00010000                5.67230304                3.90844546              -16.67655724               -5.22646760               36.54521426              -81.02339883
              43.82918343               -7.71041306               74.60714137                0.00010000                6.53060636                4.61864836              -19.61466613               -3.97454228               25.49106844              -98.49207988
              44.89883256              -10.68627828               73.49032529                0.00010000                7.42445323                5.36407751              -22.60416203               -2.29059812               13.12722170             -118.43232912
              45.97767249              -13.64747600               72.24507550                0.48479855                7.88399307                6.06127622              -25.63007109               -1.01286018                6.62520705             -140.96888228
              38.46252920               17.01840367               81.10675016                0.52594363               -0.23170881               -0.98629149                2.58724607               -0.09730978                0.14293639               13.36312884
              39.46021212               14.15132653               79.67410464                0.01343616                0.88083571                0.49154801               -1.00437505               -3.79336603               41.39668158              -10.57957935
              40.48014592               11.20599887               79.06660650                0.00010000                2.38632868                1.51131118               -3.92692596               -7.36690348               81.57444247              -18.29276517
              41.50793869                8.24198684               78.43870659                0.00010000                3.21554742                2.10271659               -6.75762608               -7.64067435               78.41353131              -26.26665953
              42.54445687                5.26585408               77.76894225                0.00010000                4.06450022                2.59672075               -9.57015200               -7.35712529               73.13732859              -34.98579411
              43.58922869                2.28354558               77.03629034                0.00010000                4.85271702                3.18013083              -12.41914903               -6.68949496               65.77043952              -44.85521197
              44.64151121               -0.70034266               76.21978176                0.00010000                5.58259170                3.89061277              -15.33806387               -5.80418245               56.30365005              -56.24770525
              45.70088053               -3.68224870               75.29823609                0.00010000                6.29735248                4.69517006              -18.34067636               -4.76392087               44.74057244              -69.58152522
              46.76745826               -6.65901950               74.25084816                0.00010000                7.05136796                5.54521750              -21.42644590               -3.54068443               31.20662791              -85.34908745
              47.84190789               -9.62715375               73.05909229                0.00010000                7.91636388                6.35947784              -24.58918006               -2.00101253               16.06928276             -104.06865039
              48.92578554              -12.58193046               71.70964645                0.48588995                8.38776472                6.98697048              -27.83069785               -0.88902115                8.13610836             -126.16280485
              41.32127196               18.00953091               80.85865238                0.52276922               -0.01423218               -0.78851351                2.02437391               -0.09820385                0.16667970               13.26566822
              42.32112964               15.15739159               79.30627583                0.01408536                1.70238107                0.72654522               -1.88401712               -4.02618837               50.08016032              -10.70322139
              43.35531959               12.22229340               78.75230434                0.00010000                3.82363978                1.62765222               -4.89388306               -7.64571578               98.70176074              -15.87859978
              44.39760244                9.26395171               78.17432185                0.00010000                4.62004941                2.07385509               -7.79102345               -7.72859294               94.91457329              -21.43971871
              45.44772057                6.29291356               77.54628956                0.00010000                5.32627763                2.60821109              -10.66277477               -7.02031855               88.61325915              -27.92994983
              46.50412799                3.31704107               76.84365773                0.00010000                5.88637157                3.36863328              -13.57371794               -6.04330673               79.89176954              -35.58366337
              47.56544801                0.34108484               76.04220383                0.00010000                6.37454311                4.26533383              -16.56267247               -5.01040313               68.70509454              -44.66036611
              48.63161885               -2.63195189               75.11646267                0.00010000                6.89133891                5.24054214              -19.64937991               -3.95537581               54.92617171              -55.59168206
              49.70327478               -5.59950871               74.03975761                0.00010000                7.50522108                6.23573073              -22.84290684               -2.82998471               38.55252835              -69.06560213
              50.78172327               -8.55908873               72.78671567                0.00010000                8.30853575                7.15353863              -26.15172657               -1.54592615               19.94651506              -86.05720945
              51.86944550              -11.50773659               71.33806351                0.48678948                8.77222243                7.80147253              -29.59508490               -0.69393508               10.14976398             -107.49529487
              44.16484377               19.00263340               80.60863046                0.52031704                0.20820908               -0.58816438                1.44454125               -0.10699631                0.23936449               13.15796183
              45.16692586               16.16585744               78.93675751                0.01668987                2.79138557                0.96988989               -2.77584534               -4.40916485               60.21943470              -11.12976694
              46.22067148               13.23855191               78.46467295                0.00010000                5.79104073                1.29311420               -5.78837003               -7.89638058              118.58251638              -12.61941010
              47.28274668               10.28346394               77.96306652                0.00010000                6.51448310                1.45129821               -8.66749551               -7.14076543              113.91635757              -15.45408655
              48.35096114                7.31801830               77.40032911                0.00010000                6.87223011                2.27554156              -11.52672828               -5.89654623              106.43536520              -19.60141432
              49.42019128                4.35091825               76.75127256                0.00010000                6.96674808                3.30447849              -14.43391540               -4.72792772               96.44016780              -24.79907745
              50.49029611                1.38496401               75.99006827                0.00010000                7.10876428                4.41613264              -17.43095654               -3.73557704               83.70683294              -31.15048508
              51.56236656               -1.57743786               75.08709315                0.00010000                7.38496455                5.55482843              -20.54293533               -2.81372899               67.79670716              -39.02623177
              52.63799540               -4.53430488               74.00786917                0.00010000                7.84253394                6.68223123              -23.79087275               -1.89947644               48.28100729              -49.17811933
              53.71921724               -7.48408298               72.71436957                0.00010000                8.56035797                7.72863555              -27.20517465               -0.96932997               25.27745130              -63.16212994
              54.80920256              -10.42590101               71.17467386                0.48749847                8.99853137                8.50912753              -30.82898295               -0.44630100               12.98552055              -83.44415913
              46.99268397               19.99776763               80.35827485                0.51523870                0.43438679               -0.37194707                0.85938982               -0.11729133               -0.27497825               11.41198911
              47.99702783               17.17678939               78.56079901                0.01796500                4.35507518                1.20764049               -3.70253679               -5.25860318               72.31894758              -10.24721249
              49.07978547               14.24815569               78.21543428                0.00010000                8.91464547               -0.54143998               -6.57460345               -6.47651159              142.08453327               -7.28870958
              50.17532074               11.29297768               77.81771381                0.00010000                9.12749381                0.52751222               -9.34826495               -4.90182885              135.41708952               -8.19025758
              51.26233534                8.33842439               77.34322954                0.00010000                8.36514913                1.81314806              -12.12123818               -3.46966796              126.65436887              -10.15271489
              52.34262372                5.38313064               76.77316171                0.00010000                7.83786146                3.14075869              -14.95500373               -2.63792579              115.70496025              -12.77271084
              53.41909257                2.42940749               76.08142357                0.00010000                7.59947224                4.43602211              -17.89021815               -1.99771983              101.86557674              -16.05214823
              54.49461317               -0.52085532               75.23529788                0.00010000                7.64188973                5.69143207              -20.95488292               -1.43529182               84.34991934              -20.20835565
              55.57193037               -3.46586409               74.19315841                0.00010000                7.96598157                6.90010551              -24.17962856               -0.88974414               61.96028156              -25.76067265
              56.65393280               -6.40451601               72.89854382                0.00010000                8.61125912                8.03520146              -27.62478714               -0.39611348               33.33641529              -33.97733326
              57.74415555               -9.33755404               71.28287164                0.48826689                9.02227497                9.03297401              -31.39610756               -0.22880451               17.33832817              -49.72819408
              49.80445441               20.99519446               80.07329096                0.75693557                0.69113223               -0.25731647                0.16219915                0.65862374                5.15003187                9.67779560
              50.81136574               18.19001025               78.20937850                0.47905304                8.52492732                1.32208587               -4.57188088               -6.93977689               89.54377740               -9.04337254
              51.97495296               15.22772311               78.03362400                0.44427318               14.15378290               -2.04325707               -7.18609312               -5.28305375              168.16271503               -3.78977875
              53.09444139               12.29401419               77.75018119                0.43931251               10.82309324                0.10365102               -9.79187057               -1.76002737              158.41874908               -4.18586895
              54.19141483                9.35428126               77.38459199                0.43755881                9.10041314                1.58568734              -12.40962678               -1.10609022              149.18444559               -5.11578674
              55.27644966                6.41373342               76.91962439                0.43869547                8.14564219                3.06027855              -15.09716507               -0.64724714              137.87560366               -6.43245815
              56.35432767                3.47368445               76.32958495                0.44312196                7.62413238                4.42769613              -17.89328543               -0.34362253              123.65183058               -8.10197137
              57.42893231                0.53639078               75.58064151                0.45071372                7.47667670                5.72461048              -20.82452112               -0.06744791              105.54827002              -10.24392923
              58.50386120               -2.39630277               74.62802741                0.46155475                7.70263089                6.95613110              -23.92248230                0.20459720               82.07778912              -13.17836897
              59.58298492               -5.32337895               73.40840990                0.47649952                8.34206523                8.11370690              -27.25535215                0.45827435               49.00289594              -17.59691349
              60.67070251               -8.24524153               71.79253127                0.74439507                8.77175853                9.23125052              -31.03414463                0.46843721               29.28658533              -29.57375854
              21.72875040               11.49857729               83.72292288                0.82939951               -1.60865657               -1.78834145                6.08247881               -0.47340373               -6.49599528                6.97102657
              22.71266384                8.42726318               82.92109352                0.56133341               -1.70040323               -1.03146939                4.09039156               -0.66261052               -8.84894592               -5.53552521
              23.69474234                5.34461670               82.07170620                0.47983263               -1.55993524               -0.57096604                2.11037966               -0.44558378               -8.98766345               -0.06373064
              24.68146513                2.24184666               81.26714312                0.45715952               -0.95864171                0.00460747                0.18275711               -0.40014417               -6.41505096               -0.36110743
              25.67556950               -0.87829428               80.46886347                0.45201390               -0.15141397                0.57704635               -1.80137787               -0.36317859               -5.83162938               -0.21509623
              26.67843685               -4.01023806               79.67561228                0.45807019                0.75210125                1.17272988               -3.83950218               -0.33866136               -5.54837026               -0.11455452
              27.69061153               -7.14672661               78.88291015                0.47746272                1.66161101                1.76464530               -5.90663025               -0.32696730               -5.77077028                0.01170710
              28.71166907              -10.28116336               78.08555790                0.51199159                2.49748692                2.34617993               -7.97495838               -0.32382584               -6.53552105                0.13339153
              29.74056127              -13.40910488               77.27842822                0.56684234                3.20456575                2.92591469              -10.05020827               -0.32320992               -8.11450365                0.16810369
              30.77576039              -16.52895843               76.45084856                0.64986542                3.76558030                3.48870050              -12.09446788               -0.32259957               -8.57001326                1.01342471
              31.81587287              -19.64260626               75.63618993                0.85967854                4.01124852                4.09001767              -14.10634514               -0.49423004               -8.01504354               -5.27603325
              24.79533047               12.48069387               83.40279551                0.59970999               -1.23124425               -1.89776767                5.30171729               -0.33545910                5.36059358               10.96524895
              25.78301802                9.41694849               82.59768713                0.09812107               -0.61678530               -0.68976111                3.33419683               -0.79700127               12.00603522              -10.26947220
              26.78299476                6.33890704               81.92503957                0.04224068                0.29505764               -1.07451291                1.75245285               -2.01219659               18.01731665              -13.24777357
              27.78891918                3.24189273               81.23953519                0.03376037                0.74926577               -0.81632613                0.01519737               -2.98460878               17.87520785              -19.42346514
              28.79798008                0.12747619               80.56432600                0.03669402                1.01736126               -0.34424007               -1.76041498               -3.58045626               18.57054083              -26.43998282
              29.80926640               -2.99851076               79.89329118                0.04355583                1.24122134                0.24143584               -3.62156909               -3.69935385               18.78936552              -34.29382286
              30.82280450               -6.12908015               79.22288230                0.05542065                1.51767743                0.83246550               -5.50358693               -3.34564728               18.55913063              -43.10099281
              31.83961995               -9.25770156               78.54775576                0.07393108                1.92110991                1.35732490               -7.39945978               -2.57724152               17.77666433              -53.02258584
              32.86122670              -12.37984574               77.86230435                0.10348245                2.48325628                1.78875199               -9.29275594               -1.51098953               16.64824203              -64.30880049
              33.88928508              -15.49407142               77.16504635                0.14579769                3.16758482                2.16999059              -11.15001937               -0.25383216               13.14412329              -77.30455789
              34.92457840              -18.60170608               76.40994185                0.59679130                3.52933213                2.41871355              -12.99393869                1.02219211               10.22825429              -95.28978454
              27.84953198               13.46062193               83.16197765                0.54073123               -1.10213396               -1.87335962                4.81226237               -0.10010882               -0.22251625               13.80236506
              28.83851064               10.41346796               82.17923693                0.03284351               -0.99889117               -0.26719166                2.39077200               -2.07877615               15.69484004              -13.18012497
              29.82955416                7.32312644               81.51454761                0.00010000               -0.26534184               -0.89094995                0.47133143               -4.92530294               30.64158537              -25.67798279
              30.83320381                4.22552014               80.83069524                0.00010000                0.74048563               -0.95930255               -1.50792331               -6.04935563               29.11239770              -38.10310829
              31.84436387                1.11482092               80.13555157                0.00010000                1.39011532               -0.63348284               -3.54611261               -6.95553713               27.89551949              -52.04281542
              32.86100611               -2.00540934               79.42785688                0.00010000                1.92627530               -0.12377170               -5.63492248               -7.13412287               26.28360419              -67.54018459
              33.88288938               -5.13007730               78.70117806                0.00010000                2.49418544                0.41586632               -7.77526830               -6.53098623               23.95804461              -84.89138512
              34.91088982               -8.25401686               77.94764062                0.00010000                3.19109801                0.86616796               -9.95111181               -5.23343306               20.75998615             -104.40425186
              35.94671134              -11.37332984               77.15760183                0.00010000                4.08271312                1.18263319              -12.14422735               -3.39899756               16.21697295             -126.45858400
              36.99254409              -14.48555862               76.31392083                0.00010000                5.24373423                1.41905336              -14.35116140               -1.42551607                9.19895132             -151.76895243
              38.05158602              -17.59423199               75.38465734                0.47750683                5.90419384                1.88413404              -16.61764924                0.24212438                4.79308123             -178.66600677
              30.88763623               14.44322668               82.89826577                0.52909484               -0.86982396               -1.61892761                4.22216958               -0.09335253                0.11744923               12.99016359
              31.87893800               11.41160466               81.79706718                0.01988448               -0.75998538               -0.10961606                1.57295244               -2.81645829               21.27431505              -11.23787210
              32.87243653                8.32108804               81.11880464                0.00010000               -0.13502052                0.15715062               -0.69979807               -5.72492583               41.79588557              -24.15281350
              33.87623758                5.22270668               80.42834391                0.00010000                0.86811439                0.25560564               -2.95232136               -6.34303348               40.13131520              -36.78099925
              34.88979881                2.11480653               79.71729625                0.00010000                1.76222892                0.54566255               -5.23578527               -6.85832511               37.68499318              -50.16685289
              35.91148216               -1.00098620               78.97861228                0.00010000                2.54967404                0.97242312               -7.57014871               -6.90878404               34.42073734              -64.90388746
              36.94079230               -4.12076283               78.20308883                0.00010000                3.33608365                1.45219979               -9.96077232               -6.37785404               30.14917924              -81.34962093
              37.97820384               -7.24037820               77.37976101                0.00010000                4.19981056                1.91062186              -12.40212695               -5.32120135               24.68597906              -99.82918118
              39.02478851              -10.35619307               76.49572274                0.00010000                5.17365299                2.32628975              -14.88157777               -3.88779358               17.79483154             -120.59998040
              40.08167690              -13.46569036               75.53545337                0.00010000                6.09895570                2.77618178              -17.38696839               -2.13109842                9.41043367             -143.48704898
              41.14676762              -16.56402340               74.48511719                0.47825779                6.50907247                3.75684359              -19.90763079               -0.91871536                4.81627017             -167.40905228
              33.91090898               15.42824338               82.64067883                0.52549257               -0.65888602               -1.38738714                3.66855340               -0.08728957                0.11118248               13.46518748
              34.90432012               12.41127564               81.41730768                0.01636957               -0.34776813                0.06012697                0.73033842               -3.27793785               27.34950327              -10.98690781
              35.90395362                9.32626945               80.73862234                0.00010000                0.41522643                0.76368920               -1.81098364               -6.47706798               53.81895326              -22.61361993
              36.91262465                6.23063225               80.04544543                0.00010000                1.34683163                1.16131450               -4.31102553               -6.83968667               51.68361158              -34.40719296
              37.93089025                3.12573417               79.32502117                0.00010000                2.28875710                1.51862213               -6.82111119               -7.03775865               48.26086299              -46.84289903
              38.95839979                0.01403912               78.56448056                0.00010000                3.19170263                1.94969221               -9.37603576               -6.88798749               43.53114774              -60.45564578
              39.99472430               -3.10103330               77.75055608                0.00010000                4.07481253                2.44959791              -11.99126992               -6.32539182               37.44203188              -75.67282401
              41.03989604               -6.21580442               76.86921533                0.00010000                4.97716606                2.98737919              -14.66631349               -5.38460953               29.93289524              -92.83276995
              42.09426762               -9.32680405               75.90595644                0.00010000                5.89282006                3.55395116              -17.38863839               -4.10573376               21.01376204             -112.14295728
              43.15775244              -12.43003498               74.84707851                0.00010000                6.78050877                4.22874287              -20.13898312               -2.39218080               10.87639848             -133.57249573
              44.22987780              -15.51909511               73.68208239                0.47908607                7.21253571                5.06719634              -22.90068007               -1.02421830                5.50682676             -156.96716715
              36.91982593               16.41547894               82.38596241                0.52234265               -0.44727583               -1.17248275                3.12286830               -0.08572287                0.12327929               13.69704266
              37.91535317               13.41280720               81.04025033                0.01415949                0.18563166                0.25642837               -0.11704371               -3.56289361               34.08405609              -10.81332389
              38.92353856               10.33636182               80.37375448                0.00010000                1.23129829                1.19519142               -2.88201568               -6.98097319               67.12408172              -20.93414864
              39.93997913                7.24593297               79.69038547                0.00010000                2.10491073                1.77115986               -5.58225786               -7.28346689               64.48143754              -31.22371716
              40.96563677                4.14517897               78.97265880                0.00010000                3.02553771                2.22695274               -8.27896300               -7.24751943               60.09524367              -42.18181533
              42.00048989                1.03800765               78.20321751                0.00010000                3.92456141                2.72333571              -11.01572735               -6.86910355               53.97875124              -54.26842046
              43.04412800               -2.07177087               77.36468996                0.00010000                4.78962529                3.30904209              -13.81565662               -6.18082114               46.13752320              -67.90661517
              44.09628239               -5.18063062               76.43967746                0.00010000                5.63881942                3.97153083              -16.68268164               -5.22303345               36.60072583              -83.47672328
              45.15690439               -8.28511405               75.41133206                0.00010000                6.49209759                4.69129913              -19.60632928               -3.98073160               25.49359479             -101.30418456
              46.22612434              -11.38111550               74.26482478                0.00010000                7.37495641                5.44211797              -22.56952160               -2.29557255               13.11768805             -121.63377240
              47.30440352              -14.46267947               72.98950368                0.47984331                7.82791735                6.13847128              -25.56087213               -0.99830217                6.64497835             -144.61625423
              39.91453801               17.40479373               82.13256660                0.51984452               -0.23586428               -0.97060481                2.58005402               -0.08851170                0.14236349               13.76965165
              40.91217936               14.41640421               80.66422382                0.01343325                0.83351861                0.47251875               -0.97524850               -3.76771299               41.71495997              -10.80783600
              41.93120838               11.35017328               80.02740858                0.00010000                2.29794002                1.50302691               -3.90833631               -7.32394142               82.19358014              -18.90247375
              42.95813816                8.26605545               79.37112110                0.00010000                3.13284047                2.11351870               -6.75410747               -7.57560229               79.01157220              -27.20445676
              43.99386519                5.17027323               78.67316425                0.00010000                3.99146991                2.62751103               -9.58451374               -7.29445056               73.64591621              -36.22030406
              45.03796756                2.06850583               77.91197958                0.00010000                4.79404792                3.22740885              -12.45302450               -6.64302508               66.15304424              -46.37341380
              46.08974615               -1.03485246               77.06627578                0.00010000                5.54054957                3.95070335              -15.38967285               -5.77857245               56.55619342              -58.04901027
              47.14877855               -4.13637381               76.11474633                0.00010000                6.26958650                4.76545413              -18.40355037               -4.75634039               44.88532100              -71.67626985
              48.21513788               -7.23297807               75.03659542                0.00010000                7.03139304                5.62332367              -21.48943898               -3.54262882               31.27969730              -87.76121832
              49.28940641              -10.32119262               73.81335196                0.00010000                7.89509125                6.44219984              -24.63755399               -2.00317957               16.10168705             -106.84179464
              50.37303970              -13.39632569               72.43166429                0.48061959                8.36332870                7.07067045              -27.84682976               -0.87242662                8.18007964             -129.36618239
              42.89483473               18.39606684               81.87892008                0.51689951               -0.02153757               -0.77977330                2.02942921               -0.09689960                0.16275857               13.66231355
              43.89461935               15.42225757               80.28763144                0.01407447                1.62868815                0.70682162               -1.84372068               -3.98143045               50.50857076              -10.94499695
              44.92740849               12.36642236               79.70341231                0.00010000                3.68738946                1.63200151               -4.88124930               -7.56740713               99.53560029              -16.41876189
              45.96836714                9.28820335               79.09631774                0.00010000                4.49444424                2.10797312               -7.80585327               -7.63946136               95.72086078              -22.22208555
              47.01729738                6.19772919               78.43944922                0.00010000                5.21939649                2.66378004              -10.70724412               -6.94781630               89.31326939              -28.93269309
              48.07275507                3.10255582               77.70761541                0.00010000                5.80694081                3.43708144              -13.64933828               -5.99556735               80.44495530              -36.80147461
              49.13343619                0.00724320               76.87621430                0.00010000                6.32630597                4.34251281              -16.66823642               -4.98626138               69.10725855              -46.09872666
              50.19928119               -3.08532153               75.91959342                0.00010000                6.87172181                5.32403555              -19.77886145               -3.94871320               55.19749076              -57.26666967
              51.27087063               -6.17264758               74.81099443                0.00010000                7.50635915                6.32340243              -22.98419021               -2.83187011               38.72215958              -71.00909334
              52.34940837               -9.25227150               73.52496685                0.00010000                8.31752439                7.24270404              -26.28601546               -1.54800719               20.03342643              -88.32445891
              53.43722112              -12.32126606               72.04205427                0.48147501                8.78127422                7.88984224              -29.69667801               -0.67622474               10.22466344             -110.16762179
              45.86021855               19.38919826               81.62313576                0.51454756                0.19766804               -0.58562347                1.46790366               -0.10049471                0.24681626               13.54272337
              46.86219523               16.43054064               79.90924986                0.01660097                2.68479530                0.94891036               -2.73054268               -4.33296232               60.80605191              -11.39726793
              47.91391446               13.38281331               79.40678672                0.00010000                5.59234359                1.32757772               -5.78483962               -7.77766885              119.71122945              -13.05573907
              48.97404211               10.30821491               78.87618106                0.00010000                6.33209619                1.52828009               -8.70773447               -7.04170743              115.00074732              -16.03274720
              50.04055638                7.22354883               78.28466902                0.00010000                6.72500518                2.36661038              -11.61024757               -5.83163090              107.38247139              -20.31922121
              51.10854221                4.13724746               77.60639094                0.00010000                6.86709468                3.40187410              -14.56190389               -4.69243007               97.21361700              -25.66045479
              52.17789828                1.05199780               76.81510342                0.00010000                7.05764266                4.51686298              -17.60213244               -3.72148939               84.30475594              -32.16401720
              53.24969506               -2.02989310               75.88094397                0.00010000                7.37760827                5.65731562              -20.75069762               -2.81366665               68.23668925              -40.20898124
              54.32545044               -5.10651002               74.76923849                0.00010000                7.86848466                6.78460225              -24.02097973               -1.90526194               48.58058898              -50.56256033
              55.40706476               -8.17633854               73.44167451                0.00010000                8.60269415                7.82808905              -27.43386690               -0.97343983               25.43706645              -64.81026897
              56.49750433              -11.23852884               71.86592376                0.48214424                9.04395698                8.60263188              -31.02223314               -0.42807279               13.10192301              -85.46230724
              48.81014007               20.38435437               81.36697784                0.50985087                0.42049808               -0.37220456                0.88803675               -0.11223808               -0.28873770               11.72902710
              49.81434506               17.44123578               79.52405904                0.01766438                4.20203854                1.18204337               -3.64065700               -5.13187270               73.12002764              -10.50072439
              50.89418085               14.39297392               79.14962759                0.00010000                8.62262112               -0.43098249               -6.58478192               -6.35207945              143.61277033               -7.55267290
              51.98679748               11.31876895               78.72387167                0.00010000                8.87256803                0.65270363               -9.41930371               -4.82744842              136.83488381               -8.50283325
              53.07163221                8.24506140               78.22140063                0.00010000                8.18300117                1.94218082              -12.25195492               -3.43578876              127.89599188              -10.53122917
              54.15045750                5.17059331               77.62277406                0.00010000                7.72573782                3.27022083              -15.14646181               -2.62366955              116.74626212              -13.22303115
              55.22614696                2.09758046               76.90150404                0.00010000                7.55290855                4.56549834              -18.14081257               -1.99627259              102.71058821              -16.58042673
              56.30151567               -0.97217522               76.02460739                0.00010000                7.65319363                5.82019988              -21.25685273               -1.44129948               85.01580638              -20.82559673
              57.37921083               -4.03695553               74.95017006                0.00010000                8.02213651                7.02626060              -24.51620394               -0.89800876               62.45008696              -26.48838664
              58.46195840               -7.09570972               73.62115571                0.00010000                8.69147143                8.15520904              -27.96679154               -0.40131888               33.60919655              -34.85973988
              59.55304026              -10.14921343               71.96796911                0.48292444                9.10818610                9.14058027              -31.69850502               -0.20827311               17.51890749              -50.89097864
              51.74421098               21.38175417               81.07502603                0.75427979                0.67272578               -0.26002026                0.20229015                0.64982419                5.27966846                9.92362873
              52.75093824               18.45418151               79.16402076                0.47568711                8.25643609                1.29457290               -4.49584534               -6.71870734               90.69087730               -9.26232091
              53.90933970               15.37419366               78.96162695                0.44363874               13.72337087               -1.87802541               -7.21083519               -5.12974083              170.11824502               -3.89257913
              55.02540565               12.32126898               78.65173305                0.43902269               10.53382748                0.25000331               -9.89590130               -1.72924337              160.19193019               -4.31385693
              56.12001625                9.26239244               78.25961417                0.43723275                8.90720536                1.73310439              -12.59418225               -1.09245083              150.75827659               -5.27615880
              57.20354976                6.20265188               77.76745445                0.43858778                8.03625520                3.20585709              -15.36376401               -0.64500810              139.23258673               -6.62896458
              58.28074135                3.14330776               77.14918509                0.44222620                7.59276501                4.57273062              -18.23972213               -0.34760970              124.80289058               -8.33670472
              59.35540506                0.08651090               76.37072648                0.44904255                7.51417067                5.86861231              -21.24133664               -0.07568959              106.51662137              -10.52256315
              60.43102477               -2.96598481               75.38701725                0.45889715                7.79456050                7.09707258              -24.39032120                0.19413010               82.86743674              -13.51375587
              61.51129627               -6.01323436               74.13407295                0.47232061                8.46607512                8.24753612              -27.74157793                0.44716527               49.52122167              -18.01494258
              62.60034627               -9.05571724               72.48059758                0.74165879                8.90499984                9.34961876              -31.48278127                0.48231290               29.66597017              -30.20404896
              22.47498898               11.89290587               84.78327644                0.82262590               -1.57958696               -1.75618026                5.96949623               -0.46710868               -6.60896910                7.07621717
              23.45919311                8.69852338               83.96166169                0.55362163               -1.68286730               -1.01022613                4.01028631               -0.66688063               -8.94124007               -5.64320086
              24.44133164                5.49266318               83.09272555                0.47711462               -1.54489315               -0.56246025                2.08546280               -0.42992450               -9.02906961               -0.01619767
              25.42829525                2.26672500               82.26909692                0.45569579               -0.93633801                0.00477410                0.20811206               -0.40448221               -6.44874389               -0.35187804
              26.42260488               -0.97609510               81.45119052                0.45164777               -0.13859680                0.56576359               -1.72898287               -0.37280160               -5.91093188               -0.20705511
              27.42552331               -4.23020527               80.63781173                0.45793853                0.74349218                1.14393665               -3.70764342               -0.34647928               -5.66646502               -0.12050595
              28.43747472               -7.48867387               79.82466278                0.47574436                1.62787561                1.72853449               -5.71879075               -0.33006049               -5.90897980               -0.00521200
              29.45808083              -10.74508412               79.00692903                0.50707791                2.43818042                2.30275759               -7.74002541               -0.33041295               -6.68920326                0.10651955
              30.48623833              -13.99525110               78.17922395                0.55793302                3.12100464                2.86657200               -9.76214181               -0.32572919               -8.27541615                0.14041159
              31.52050092              -17.23795269               77.33134507                0.63220383                3.66660639                3.42375744              -11.76112204               -0.31892359               -8.72177062                0.96942010
              32.55957046              -20.47508342               76.49676818                0.84724207                3.90695374                4.01816379              -13.74959820               -0.45125807               -8.17152498               -5.34605416
              25.66470039               12.87534407               84.45538599                0.58892186               -1.20547321               -1.87248111                5.20226077               -0.34357845                5.51588976               11.22416578
              26.65264565                9.68842112               83.63075857                0.09623905               -0.58844017               -0.66369231                3.26897473               -0.81955285               12.35720653              -10.46392343
              27.65293158                6.48703858               82.94240553                0.04311619                0.29919564               -1.05867414                1.71604503               -2.04288797               18.47817436              -13.65141088
              28.65862957                3.26677274               82.23958893                0.03482505                0.72052075               -0.78712808               -0.00195259               -3.00685822               18.24602960              -20.07624349
              29.66734200                0.02956254               81.54676370                0.03761161                0.98591695               -0.30778596               -1.75847029               -3.58547254               18.87633581              -27.32676738
              30.67834791               -3.21876590               80.85726518                0.04403086                1.21357712                0.27745129               -3.58894803               -3.69389504               19.00324644              -35.40100984
              31.69161354               -6.47138852               80.16797342                0.05522020                1.48587046                0.87121402               -5.46181393               -3.33775183               18.74212381              -44.42681582
              32.70806531               -9.72205654               79.47409451                0.07245224                1.89008919                1.39609921               -7.34043580               -2.58262615               17.95924021              -54.58562473
              33.72941532              -12.96658538               78.76978325                0.09959159                2.45812647                1.82620201               -9.20498062               -1.54205421               16.82411198              -66.11373669
              34.75722784              -16.20371512               78.05384380                0.13752695                3.13866412                2.21947606              -11.06213841               -0.32305918               13.33714180              -79.37324877
              35.79218861              -19.43490179               77.28049595                0.58335955                3.49607618                2.51995106              -12.88556034                0.91635640               10.43279989              -97.67636996
              28.84196331               13.85545625               84.20970164                0.53298946               -1.08557609               -1.84579872                4.72645430               -0.09331474               -0.26324075               14.17290230
              29.83110755               10.68524954               83.20296877                0.03175224               -0.99205273               -0.25021057                2.35301260               -2.09778385               15.90378227              -13.40473911
              30.82212226                7.47148970               82.51920861                0.00010000               -0.27367127               -0.87532573                0.46041809               -4.96343515               31.05787999              -26.48135314
              31.82563412                4.25098244               81.81565859                0.00010000                0.71559088               -0.91828238               -1.49676692               -6.05233086               29.44674899              -39.37773209
              32.83643407                1.01774918               81.10018379                0.00010000                1.34811742               -0.56576498               -3.52109392               -6.93182408               28.14624756              -53.77088475
              33.85259647               -2.22465624               80.37162662                0.00010000                1.87881247               -0.03548632               -5.60523329               -7.09614793               26.45889646              -69.69700626
              34.87401032               -5.47124959               79.62361098                0.00010000                2.45143455                0.51767886               -7.74180094               -6.49756880               24.06547993              -87.47922066
              35.90162516               -8.71716214               78.84835236                0.00010000                3.15227482                0.97858697               -9.91317844               -5.22239549               20.82407100             -107.44867015
              36.93705582              -11.95872706               78.03647584                0.00010000                4.03654877                1.31192216              -12.09946900               -3.42939858               16.26736028             -129.97753359
              37.98235614              -15.19356317               77.17088386                0.00010000                5.16075489                1.57959084              -14.28667799               -1.48254824                9.22622731             -155.79178487
              39.04027092              -18.42468440               76.21910649                0.47313488                5.79147781                2.09909992              -16.52087638                0.17408192                4.81936068             -183.24073466
              32.00324752               14.83842810               83.94019428                0.52226075               -0.85909878               -1.58353894                4.15539219               -0.09642631                0.11533598               13.34893251
              32.99465653               11.68341691               82.81273451                0.01934095               -0.76587713               -0.11227539                1.55483481               -2.82464190               21.45639360              -11.41897016
              33.98792998                8.46953206               82.11183904                0.00010000               -0.16665339                0.15775130               -0.69013029               -5.72648652               42.15245435              -24.87692722
              34.99132346                5.24840710               81.39891798                0.00010000                0.82071130                0.27195804               -2.92525942               -6.31748646               40.44833988              -37.97761195
              36.00434420                2.01824724               80.66506500                0.00010000                1.70501266                0.58717491               -5.20321650               -6.81442281               37.91874926              -51.79560798
              37.02542372               -1.21947563               79.90304528                0.00010000                2.49119262                1.03772872               -7.54163223               -6.85732645               34.55815996              -66.95064244
              38.05416805               -4.46103494               79.10361846                0.00010000                3.28355824                1.53456381               -9.94148752               -6.33328342               30.19958354              -83.81459684
              39.09109488               -7.70248480               78.25591799                0.00010000                4.15301671                2.00863363              -12.39043570               -5.29776885               24.67577820             -102.72163669
              40.13722839              -10.94034694               77.34718472                0.00010000                5.12196696                2.44330645              -14.86743865               -3.88780712               17.75829085             -123.94037536
              41.19353422              -14.17212330               76.36202137                0.00010000                6.03421578                2.91532740              -17.35548704               -2.14350284                9.38218858             -147.29688149
              42.25791270              -17.39291979               75.28667287                0.47354094                6.43784842                3.88992879              -19.84151874               -0.90439060                4.82259028             -171.68547168
              35.15005716               15.82378547               83.67719704                0.51900911               -0.65464098               -1.35591356                3.62726315               -0.09283940                0.10229464               13.86335631
              36.14351075               12.68300403               82.42463525                0.01612949               -0.37274073                0.04805505                0.72818952               -3.26580371               27.53574420              -11.19247964
              37.14260234                9.47464472               81.72059658                0.00010000                0.35292368                0.75329505               -1.78828934               -6.44239736               54.18722104              -23.29530892
              38.15056922                6.25642160               81.00245637                0.00010000                1.27130018                1.16701359               -4.27700993               -6.77399704               52.01909077              -35.52222343
              39.16802834                3.02949268               80.25692238                0.00010000                2.20814538                1.54762558               -6.79040419               -6.95864074               48.51145824              -48.35623021
              40.19473213               -0.20390167               79.47079384                0.00010000                3.11627420                2.00233282               -9.36109637               -6.81048465               43.67383919              -62.35078784
              41.23035383               -3.44055831               78.63067493                0.00010000                4.01248273                2.52277615              -11.99900428               -6.26139839               37.48244765              -77.94792404
              42.27498178               -6.67698946               77.72257112                0.00010000                4.92921733                3.07820195              -14.69526079               -5.34023278               29.90052372              -95.49718078
              43.32893818               -9.90986093               76.73213800                0.00010000                5.85385750                3.66056034              -17.42821576               -4.07937718               20.95325230             -115.21357413
              44.39205893              -13.13525662               75.64587801                0.00010000                6.74189502                4.34480580              -20.17089200               -2.37722044               10.83242811             -137.07162764
              45.46377608              -16.34688583               74.45344103                0.47431282                7.17171439                5.17684055              -22.90184476               -0.99784277                5.50726832             -160.92549401
              38.28295362               16.81130983               83.41709510                0.51646335               -0.44724102               -1.14732199                3.09718759               -0.09293710                0.11630978               14.11103870
              39.27848121               13.68437801               82.03916751                0.01409367                0.13554201                0.23923383               -0.10240996               -3.52766364               34.30883590              -11.03269644
              40.28566446               10.48459796               81.34504747                0.00010000                1.12571788                1.18234247               -2.85298007               -6.90563735               67.56348663              -21.58046923
              41.30099556                7.27174737               80.63466647                0.00010000                1.99151016                1.77719188               -5.55076085               -7.17764845               64.89048998              -32.24973654
              42.32549466                4.04919975               79.88991724                0.00010000                2.91347254                2.25824484               -8.26130588               -7.13439864               60.41322098              -43.55378392
              43.35926501                0.82057103               79.09301643                0.00010000                3.82666098                2.77905400              -11.02647214               -6.76666242               54.17649562              -55.97120258
              44.40202788               -2.41057942               78.22638547                0.00010000                4.71639172                3.38555513              -13.86376748               -6.09886480               46.21888907              -69.93990446
              45.45359285               -5.64092076               77.27262089                0.00010000                5.59400636                4.06497010              -16.76809730               -5.16353900               36.59731559              -85.85165311
              46.51390801               -8.86713573               76.21501478                0.00010000                6.47109284                4.79773504              -19.71810951               -3.93990113               25.45308183             -104.04223763
              47.58301471              -12.08522719               75.03893486                0.00010000                7.36531234                5.55624546              -22.68602321               -2.27167070               13.08561906             -124.76847647
              48.66121425              -15.28938298               73.73385806                0.47497137                7.81995480                6.25405626              -25.65083519               -0.96625884                6.65433038             -148.19713846
              41.40206204               17.80083903               83.15835124                0.51417060               -0.23927058               -0.95509010                2.57079287               -0.09749283                0.13388234               14.18121518
              42.39966933               14.68778871               81.65459967                0.01344764                0.75290990                0.45438010               -0.94799757               -3.71099174               42.01058201              -11.03658049
              43.41712024               11.49829157               80.98843978                0.00010000                2.13725646                1.49710330               -3.87901133               -7.20712164               82.76861516              -19.50535651
              44.44241446                8.29196544               80.30362444                0.00010000                2.96982379                2.13513373               -6.73465447               -7.43234114               79.55460637              -28.12078306
              45.47651671                5.07465758               79.57725198                0.00010000                3.83817932                2.67775901               -9.59120685               -7.15461959               74.08717926              -37.41780630
              46.51917805                1.85167941               78.78722985                0.00010000                4.66758049                3.30145941              -12.50185525               -6.52538883               66.45749075              -47.84056505
              47.56986832               -1.37284721               77.91198830                0.00010000                5.45446312                4.04310467              -15.49125513               -5.68910942               56.72628979              -59.78942466
              48.62826731               -4.59569006               76.93016508                0.00010000                6.22891250                4.87189217              -18.55875646               -4.69316689               44.95304990              -73.70587729
              49.69444657               -7.81390623               75.82105938                0.00010000                7.03027250                5.74010393              -21.68637128               -3.50025587               31.29198007              -90.10872758
              50.76887276              -11.02413171               74.56634121                0.00010000                7.91579525                6.56633668              -24.85020422               -1.97906078               16.09984482             -109.55143649
              51.85276248              -14.22180470               73.15270985                0.47574124                8.38897164                7.20172409              -28.03527514               -0.83981496                8.20777994             -132.50106217
              44.50710441               18.79220802               82.89924097                0.51145167               -0.02955812               -0.77044635                2.04133113               -0.09974772                0.16470849               14.06790091
              45.50680883               15.69346561               81.26940142                0.01408866                1.51204390                0.68478891               -1.80560006               -3.89706920               50.91211092              -11.19159040
              46.53734529               12.51454003               80.65467936                0.00010000                3.45869519                1.64651389               -4.85819765               -7.40854723              100.31328163              -16.95921577
              47.57598273                9.31445004               80.01820479                0.00010000                4.26715038                2.16448135               -7.80735292               -7.46601215               96.46221583              -22.99481540
              48.62268830                6.10275493               79.33214468                0.00010000                5.01396442                2.75124454              -10.74912085               -6.79829244               89.93367842              -29.91171155
              49.67626202                2.88660021               78.57067096                0.00010000                5.64634317                3.54355417              -13.74832106               -5.88105449               80.90509687              -37.98236187
              50.73561516               -0.32971733               77.70883910                0.00010000                6.22632563                4.46205655              -16.83599327               -4.90566315               69.40956760              -47.49003525
              51.80078854               -3.54348292               76.72088544                0.00010000                6.83646909                5.45293007              -20.01642681               -3.89591836               55.37326481              -58.88840610
              52.87234454               -6.75233365               75.58007381                0.00010000                7.52717118                6.45872541              -23.27760147               -2.79937356               38.81441726              -72.89580511
              53.95133196               -9.95390045               74.26099536                0.00010000                8.37096917                7.38272491              -26.60375128               -1.53071475               20.07594824              -90.53030826
              55.03976393              -13.14534849               72.74412995                0.47660285                8.84319671                8.03713546              -29.98954386               -0.64580207               10.27810640             -112.76770579
              47.59755190               19.78543011               82.63798853                0.50993195                0.18440394               -0.58750624                1.50151416               -0.11244152                0.23698814               13.92686307
              48.59939594               16.70148448               80.88214666                0.01654324                2.52064803                0.92691918               -2.68010093               -4.21192227               61.35669566              -11.66097401
              49.64796486               13.53122185               80.34897616                0.00010000                5.27416879                1.38609791               -5.77323260               -7.56732360              120.77423010              -13.49988011
              50.70487932               10.33525507               79.78891183                0.00010000                6.02179142                1.64594915               -8.73771206               -6.86383706              116.00423112              -16.61101557
              51.76840069                7.12968247               79.16812415                0.00010000                6.45749495                2.50498589              -11.69684387               -5.70200394              108.23245326              -21.02473122
              52.83402922                3.92255049               78.46003448                0.00010000                6.67187516                3.55031440              -14.72247134               -4.60525051               97.87355556              -26.49825075
              53.90183820                0.71639392               77.63802563                0.00010000                6.94680260                4.67173078              -17.84910640               -3.66630523               84.78060837              -33.14487427
              54.97296527               -2.48663146               76.67207919                0.00010000                7.35192182                5.81665744              -21.08469898               -2.78254529               68.55907522              -41.35261021
              56.04887663               -5.68473172               75.52744957                0.00010000                7.91540191                6.94615387              -24.42513507               -1.89032565               48.78415128              -51.90279826
              57.13127331               -8.87647722               74.16569223                0.00010000                8.69329437                7.98956013              -27.86974546               -0.96722716               25.54126750              -66.40665705
              58.22274252              -12.06106199               72.55422920                0.47722960                9.14692119                8.76505300              -31.42944804               -0.40132821               13.19100321              -87.41220649
              50.67274682               20.78045790               82.37603558                0.50399573                0.40318163               -0.39297217                0.93997347               -0.12006922               -0.29245145               12.04544954
              51.67677864               17.71200400               80.48798587                0.01740640                3.97407059                1.16779489               -3.57767890               -4.95047485               73.87870139              -10.74670112
              52.75222824               14.54226199               80.08373864                0.00010000                8.17333670               -0.26745264               -6.58741214               -6.14971323              145.04949084               -7.82820349
              53.84024537               11.34736903               79.62932773                0.00010000                8.45622783                0.83796179               -9.48213647               -4.69969400              138.14935560               -8.81834133
              54.92135279                8.15285465               79.09819044                0.00010000                7.86000917                2.13242657              -12.39027799               -3.36521305              129.01303448              -10.90553589
              55.99744556                4.95760650               78.47023247                0.00010000                7.50591083                3.46214331              -15.37903325               -2.58180498              117.64378421              -13.66198074
              57.07147101                1.76371729               77.71860732                0.00010000                7.44088597                4.75971716              -18.48084717               -1.97405099              103.40229259              -17.09162980
              58.14626328               -1.42714977               76.81016083                0.00010000                7.64563890                6.01664024              -21.70432853               -1.43302826               85.53414959              -21.42155250
              59.22438379               -4.61341057               75.70283433                0.00010000                8.10272036                7.22297252              -25.05127579               -0.89863188               62.81844731              -27.19129851
              60.30831768               -7.79410925               74.33920799                0.00010000                8.82615627                8.34824777              -28.54347537               -0.40405705               33.81125236              -35.71180203
              61.40090691              -10.97004743               72.64890154                0.47796252                9.25892279                9.32412677              -32.24058672               -0.18231239               17.66392004              -52.00643372
              53.73205832               21.77757066               82.07733676                0.75138720                0.65240352               -0.28872365                0.27502826                0.65812177                5.42194492               10.18889622
              54.73858236               18.72484038               80.11946159                0.47236710                7.87736253                1.28363845               -4.43009188               -6.40452156               91.78990592               -9.48619127
              55.88960557               15.52587280               79.88940730                0.44274405               13.08552109               -1.63891904               -7.22338818               -4.90357034              171.94890341               -4.00048223
              57.00029278               12.35201430               79.55226317                0.43891826               10.06266917                0.46452769               -9.99000381               -1.67234941              161.82491792               -4.44379461
              58.09085896                9.17233100               79.13270834                0.43761886                8.56188503                1.94763521              -12.78755359               -1.06043082              152.16431812               -5.43525399
              59.17153048                5.99179336               78.61234911                0.43835251                7.81272479                3.41868573              -15.67747030               -0.62864452              140.40067843               -6.82040003
              60.24711345                2.81158827               77.96479050                0.44199134                7.49510445                4.78709794              -18.68758088               -0.34035644              125.75618707               -8.56303489
              61.32143257               -0.36629865               77.15581478                0.44764769                7.53750102                6.08511182              -21.82241131               -0.07609792              107.29591542              -10.78986977
              62.39786347               -3.54027227               76.14022098                0.45613975                7.91982290                7.31383023              -25.08228173                0.18728819               83.49872469              -13.83488982
              63.47982903               -6.70951226               74.85357834                0.46838189                8.65545845                8.45969887              -28.49413072                0.43577500               49.94174143              -18.41438286
              64.57097264               -9.87457946               73.16287565                0.73911397                9.11436147                9.54679776              -32.20382877                0.49985333               29.99019881              -30.79941704
              23.23980052               12.29588253               85.84231280                0.81553525               -1.54106009               -1.71305415                5.82455682               -0.45745563               -6.71150160                7.17317665
              24.22438992                8.97620540               85.00129925                0.54532587               -1.65374053               -0.98424630                3.91060501               -0.67221851               -9.01352271               -5.74262711
              25.20672571                5.64493278               84.11341546                0.47488815               -1.51823226               -0.55370238                2.05071368               -0.41879971               -9.04003731                0.03082564
              26.19402528                2.29382506               83.27130536                0.45567796               -0.90448303               -0.00188755                0.23420642               -0.38009390               -6.45239040               -0.34353474
              27.18863605               -1.07358174               82.43428381                0.45184334               -0.11949937                0.55293132               -1.63628989               -0.34955852               -5.95156177               -0.19722269
              28.19163529               -4.45155509               81.60145941                0.45718663                0.73392874                1.12092394               -3.54853091               -0.34488724               -5.73783359               -0.12448753
              29.20331463               -7.83345213               80.76853434                0.47353409                1.58442736                1.68874585               -5.49594335               -0.34013822               -6.01309315               -0.02267256
              30.22332384              -11.21336392               79.93075739                0.50227383                2.36611408                2.25265314               -7.46376026               -0.33104608               -6.80917677                0.07820580
              31.25063691              -14.58741524               79.08318538                0.54813073                3.02284539                2.80428764               -9.41482971               -0.32790600               -8.39156311                0.11348861
              32.28378075              -17.95456750               78.21562612                0.61422284                3.54796157                3.34923102              -11.36567704               -0.32493560               -8.85531770                0.91719138
              33.32159614              -21.31698288               77.36119796                0.83549679                3.78153949                3.94110866              -13.32435791               -0.40814086               -8.34156552               -5.40626176
              26.55490310               13.27875199               85.50684073                0.57814160               -1.17604869               -1.83054183                5.07891066               -0.34228644                5.66255231               11.47774033
              27.54314261                9.96636293               84.66306662                0.09401952               -0.55876077               -0.64040781                3.18562448               -0.83334193               12.69853618              -10.64220490
              28.54372788                6.63939576               83.95936047                0.04390148                0.31694928               -1.04334561                1.66828130               -2.06302608               18.91446241              -14.03440865
              29.54948160                3.29380619               83.23949614                0.03580448                0.70513300               -0.75943037               -0.01761738               -3.01549225               18.56250894              -20.69433482
              30.55783054               -0.06805243               82.52915659                0.03842956                0.93200067               -0.26581639               -1.75628200               -3.57336461               19.13201026              -28.16017276
              31.56812161               -3.44034585               81.82151222                0.04438493                1.14935570                0.32127604               -3.55752075               -3.66953404               19.20261551              -36.44702430
              32.58081766               -6.81656467               81.11364602                0.05477953                1.44366608                0.90726906               -5.41029257               -3.31664617               18.89867282              -45.68776553
              33.59699493              -10.19083738               80.40094705                0.07068305                1.85709927                1.42750835               -7.27164448               -2.58125759               18.11364339              -56.06680031
              34.61795964              -13.55937236               79.67820474                0.09543225                2.41601378                1.85666263               -9.11467571               -1.56738354               16.98704564              -67.83525590
              35.64531521              -16.92107519               78.94380358                0.12898593                3.09852303                2.24978110              -10.94583980               -0.37710953               13.50703829              -81.35382416
              36.67993010              -20.27757179               78.15223064                0.57040982                3.46148953                2.58796373              -12.76503085                0.84693202               10.61331032              -99.95269730
              29.85773290               14.25927169               85.25650673                0.52563774               -1.06535857               -1.80210269                4.62108659               -0.08947566               -0.30697965               14.54737216
              30.84707932               10.96339724               84.22629718                0.03061565               -0.98554811               -0.24020788                2.30790648               -2.09636677               16.09973610              -13.62025785
              31.83802194                7.62406587               83.52375597                0.00010000               -0.29578509               -0.86171141                0.45061864               -4.95932610               31.45157970              -27.23730364
              32.84116361                4.27863645               82.80075990                0.00010000                0.66494295               -0.87247579               -1.47700425               -6.02335512               29.75114004              -40.57722021
              33.85132080                0.92110193               82.06512969                0.00010000                1.27966185               -0.48958985               -3.48369554               -6.87750385               28.35193587              -55.39632539
              34.86675685               -2.44512957               81.31575221                0.00010000                1.80762194                0.05897915               -5.56435300               -7.02191937               26.57103874              -71.73550186
              35.88747324               -5.81530674               80.54634204                0.00010000                2.38747646                0.62229784               -7.70834045               -6.42952878               24.10751396              -89.93648884
              36.91450638               -9.18481375               79.74937706                0.00010000                3.10269053                1.09038438               -9.89180347               -5.19085158               20.82494488             -110.33943211
              37.94952705              -12.55028199               78.91561245                0.00010000                3.99658014                1.43548144              -12.08835452               -3.44334163               16.26033092             -133.33989804
              38.99443798              -15.90957188               78.02818727                0.00010000                5.10004623                1.72265273              -14.27417933               -1.52121575                9.22129174             -159.64610715
              40.05152797              -19.26522360               77.05423981                0.46888033                5.70899893                2.27522124              -16.47303863                0.13414399                4.83306855             -187.62385583
              33.14486249               15.24270993               84.98137361                0.51566285               -0.84413870               -1.53310049                4.07204242               -0.09783853                0.11200705               13.71167635
              34.13642110               11.96155878               83.82816388                0.01878419               -0.77801704               -0.12020961                1.52631785               -2.79961307               21.63143459              -11.59857847
              35.12930215                8.62216153               83.10500203                0.00010000               -0.22213362                0.15444921               -0.67058221               -5.66735618               42.48849482              -25.56181436
              36.13197843                5.27635667               82.36983873                0.00010000                0.73721716                0.29014155               -2.87820355               -6.22443490               40.72907647              -39.10653422
              37.14404649                1.92215578               81.61323192                0.00010000                1.60567360                0.63276936               -5.15049945               -6.70308990               38.09623464              -53.33435456
              38.16409190               -1.43916627               80.82777963                0.00010000                2.39323847                1.10908936               -7.50442851               -6.74536549               34.62254808              -68.88845922
              39.19191126               -4.80411871               80.00425908                0.00010000                3.20306203                1.62739733               -9.93534821               -6.23703443               30.16676117              -86.15549867
              40.22815314               -8.16902970               79.13195230                0.00010000                4.09698415                2.11814047              -12.42220169               -5.23034785               24.58386041             -105.48291084
              41.27385094              -11.53066273               78.19837397                0.00010000                5.08396839                2.56881935              -14.93166362               -3.85468535               17.65580239             -127.14154489
              42.32983251              -14.88662214               77.18834363                0.00010000                6.00327394                3.05954303              -17.43125174               -2.13723198                9.31551415             -150.96281847
              43.39391642              -18.23206736               76.08828681                0.46914811                6.40839127                4.02167113              -19.89099904               -0.87606414                4.81083901             -175.81763711
              36.41807844               16.22860968               84.71322409                0.51382012               -0.64429847               -1.30822104                3.56123265               -0.10442242                0.08536619               14.25487758
              37.41163546               12.96099305               83.43187147                0.01589842               -0.41007618                0.03150367                0.71758765               -3.21492052               27.71338830              -11.38903742
              38.40987692                9.62715485               82.70285655                0.00010000                0.25226030                0.73738585               -1.75031427               -6.32732914               54.53673761              -23.94934483
              39.41668067                6.28443928               81.95990523                0.00010000                1.14525089                1.17067499               -4.21641998               -6.62284021               52.31440812              -36.58255926
              40.43278194                2.93375732               81.18921308                0.00010000                2.07216812                1.58089595               -6.73534579               -6.79411620               48.69814174              -49.79219281
              41.45812403               -0.42294778               80.37725864                0.00010000                2.99070187                2.06569303               -9.33850415               -6.65282248               43.73096510              -64.15102448
              42.49259598               -3.78275880               79.51057599                0.00010000                3.91597085                2.61181884              -12.02904837               -6.12565476               37.42479967              -80.11684493
              43.53644345               -7.14245094               78.57531011                0.00010000                4.87149032                3.18860322              -14.78623916               -5.23502740               29.77146099              -98.04952183
              44.59002578              -10.49890560               77.55739212                0.00010000                5.83272649                3.78912716              -17.57252250               -4.00644832               20.81337244             -118.17227171
              45.65309798              -13.84838102               76.44366067                0.00010000                6.74356787                4.48369567              -20.34227175               -2.33618205               10.74244721             -140.46242473
              46.72489714              -17.18479018               75.22404550                0.46969259                7.17991649                5.30881476              -23.05383241               -0.95455059                5.48629696             -164.77831375
              39.67800731               17.21654551               84.44790616                0.51094892               -0.44297857               -1.11687579                3.06160501               -0.10364926                0.10882864               14.51633113
              40.67357752               13.96218885               83.03820213                0.01406158                0.06510102                0.22228197               -0.09846862               -3.44846324               34.52278394              -11.24468306
              41.67930933               10.63690924               82.31669488                0.00010000                0.96708167                1.16397035               -2.80546449               -6.73698455               67.98107570              -22.21041800
              42.69291916                7.29977017               81.57937026                0.00010000                1.81209534                1.78310934               -5.48940592               -6.96990622               65.25600256              -33.23646660
              43.71555123                3.95377370               80.80743269                0.00010000                2.73162071                2.29661703               -8.21789170               -6.92005769               60.65969085              -44.86567982
              44.74755157                0.60214759               79.98268807                0.00010000                3.66750433                2.84938920              -11.03226448               -6.56995027               54.27712510              -57.59730096
              45.78890132               -2.75188233               79.08741461                0.00010000                4.60239122                3.48321090              -13.94241656               -5.93322442               46.18720643              -71.88574126
              46.83959939               -6.10525763               78.10431551                0.00010000                5.53753688                4.18475189              -16.92941294               -5.03364169               36.48065973              -88.13497097
              47.89965206               -9.45488019               77.01696987                0.00010000                6.46970273                4.93469756              -19.95300848               -3.84575149               25.31837204             -106.68997049
              48.96899345              -12.79694823               75.81110431                0.00010000                7.39958330                5.70495856              -22.96329557               -2.21780085               12.99849128             -127.81654614
              50.04764373              -16.12589107               74.47648698                0.47049595                7.86502761                6.40856787              -25.91609926               -0.91624089                6.63789133             -151.69263044
              42.92471879               18.20627217               84.18398246                0.50854398               -0.24163222               -0.93789757                2.56068358               -0.09331370                0.13358894               14.60762523
              43.92230246               14.96543869               82.64526387                0.01350620                0.64185620                0.43449611               -0.92448355               -3.59961255               42.29485359              -11.27497532
              44.93755591               11.65043426               81.94982836                0.00010000                1.90578133                1.48962078               -3.83093225               -6.98878930               83.31628856              -20.10223166
              45.96041809                8.32010147               81.23642801                0.00010000                2.72237270                2.16247391               -6.68461596               -7.17588086               80.04870286              -29.01440516
              46.99200336                4.97968966               80.48134012                0.00010000                3.59814814                2.74245429               -9.57344234               -6.90539681               74.44805881              -38.57384077
              48.03238105                1.63404000               79.66194247                0.00010000                4.46666746                3.39781803              -12.55046314               -6.30866090               66.65187759              -49.25034245
              49.08133671               -1.71309458               78.75645068                0.00010000                5.31937075                4.16437498              -15.63249841               -5.51420793               56.76696415              -61.46153791
              50.13876847               -5.05875590               77.74357120                0.00010000                6.17323169                5.01269301              -18.80342401               -4.56023435               44.88969373              -75.66183171
              51.20480135               -8.40021165               76.60286799                0.00010000                7.04921853                5.89631590              -22.02357112               -3.40644753               31.19412193              -92.38144421
              52.27975284              -11.73428185               75.31634788                0.00010000                7.98283318                6.73597686              -25.24339630               -1.92647110               16.03330096             -112.18580673
              53.36445801              -15.05661882               73.87095878                0.47111984                8.47051715                7.38757743              -28.42137393               -0.79018038                8.20482244             -135.55618800
              46.15780799               19.19778756               83.91974670                0.50611394               -0.03848122               -0.76656311                2.06573201               -0.09471506                0.16174210               14.49208968
              47.15742318               15.97087877               82.25151944                0.01414851                1.35313832                0.66490093               -1.77364706               -3.75234222               51.29997876              -11.44615964
              48.18487076               12.66670166               81.60624835                0.00010000                3.13614781                1.66610863               -4.81551697               -7.13905705              101.05863301              -17.50682079
              49.22014614                9.34301965               80.94017068                0.00010000                3.93170060                2.23850904               -7.77965951               -7.17591164               97.14533558              -23.76008443
              50.26350477                6.00862278               80.22446681                0.00010000                4.70082286                2.86593925              -10.76998078               -6.54181322               90.46120084              -30.86701473
              51.31416259                2.67010395               79.43264898                0.00010000                5.39541478                3.68404672              -13.85386130               -5.67434094               81.23834729              -39.12446686
              52.37141307               -0.66859483               78.53949443                0.00010000                6.06745909                4.62133356              -17.05438366               -4.74893513               69.56233724              -48.83145003
              53.43551177               -4.00500377               77.51926488                0.00010000                6.78179959                5.62676067              -20.35878362               -3.78374439               55.39695309              -60.45341877
              54.50704906               -7.33695387               76.34544240                0.00010000                7.56797134                6.64425736              -23.73035456               -2.72529148               38.77845035              -74.72144576
              55.58687120              -10.66222869               74.99289183                0.00010000                8.47325013                7.57987654              -27.12373441               -1.49140018               20.04313145              -92.66911257
              56.67651406              -13.97813952               73.44226340                0.47186510                8.96428584                8.25371297              -30.50330021               -0.60146093               10.29542417             -115.28817604
              49.37664206               20.19094090               83.65316604                0.50402182                0.16994571               -0.59362136                1.54906176               -0.09129601                0.24698607               14.33713340
              50.37834152               16.97873671               81.85564784                0.01653742                2.29959143                0.90540264               -2.63259917               -4.01958109               61.89068775              -11.94024506
              51.42263389               13.68375643               81.29132206                0.00010000                4.83186075                1.46385235               -5.74317219               -7.24535031              121.78709441              -13.95915593
              52.47497873               10.36487165               80.70142682                0.00010000                5.57244517                1.80155686               -8.74051989               -6.57806656              116.93641603              -17.19368728
              53.53408279                7.03700845               80.05073214                0.00010000                6.05665574                2.68718555              -11.76689553               -5.48336662              108.96988904              -21.72061670
              54.59611185                3.70772094               79.31194151                0.00010000                6.36914699                3.74675557              -14.89761054               -4.44613205               98.38222640              -27.31351313
              55.66146573                0.37933209               78.45812129                0.00010000                6.76703839                4.87889085              -18.15926020               -3.55451152               85.07926823              -34.09328150
              56.73145262               -2.94622069               77.45924999                0.00010000                7.30273492                6.03309581              -21.54092289               -2.70993559               68.70154546              -42.45695205
              57.80752043               -6.26732650               76.28073579                0.00010000                7.98289334                7.17004803              -25.01038659               -1.84900366               48.83598345              -53.19810420
              58.89111048               -9.58268432               74.88427960                0.00010000                8.83650115                8.21984078              -28.53227664               -0.94865119               25.55634466              -67.94873303
              59.98425046              -12.89154456               73.23733480                0.47253677                9.31399718                9.00754839              -32.08202516               -0.36514847               13.23665316              -89.28662923
              52.58039047               21.18591513               83.38577731                0.49903831                0.38255637               -0.40055844                1.02326854               -0.10492319               -0.29508699               12.39114927
              53.58421603               17.98898682               81.45250546                0.01722669                3.67191689                1.13847685               -3.52703414               -4.68060645               74.61490222              -11.02361667
              54.65382880               14.69597871               81.01787934                0.00010000                7.55583790               -0.04548705               -6.57012718               -5.85268682              146.42452838               -8.11770205
              55.73533279               11.37905079               80.53422895                0.00010000                7.85796750                1.08252815               -9.51896132               -4.49939898              139.36814883               -9.14171012
              56.81098815                8.06236649               79.97359507                0.00010000                7.37917587                2.38215534              -12.51564757               -3.24389246              129.98633416              -11.27822459
              57.88291631                4.74503906               79.31519340                0.00010000                7.16381517                3.71448295              -15.63389145               -2.50070948              118.35298697              -14.09121977
              58.95426446                1.42898298               78.53188710                0.00010000                7.25276739                5.01743012              -18.89708288               -1.92236126              103.87685312              -17.58682350
              60.02797165               -1.88434186               77.59052082                0.00010000                7.61340785                6.28131455              -22.29291737               -1.40478111               85.83311348              -21.99703941
              61.10653262               -5.19355291               76.44914455                0.00010000                8.20722928                7.49352929              -25.79183596               -0.88873747               63.00098531              -27.86985169
              62.19211624               -8.49783187               75.05028621                0.00010000                9.01994800                8.62108043              -29.37471186               -0.40348464               33.90351859              -36.53251170
              63.28693158              -11.79798855               73.32315737                0.47318122                9.48153357                9.59453800              -33.05470750               -0.15040950               17.75443376              -53.06774926
              55.76840022               22.18292974               83.08052659                0.74913604                0.62656000               -0.29853985                0.37437472                0.65862583                5.55963502               10.47103589
              56.77466582               19.00150624               81.07541892                0.46945391                7.35579881                1.25194188               -4.36174509               -5.95917361               92.87267611               -9.74222453
              57.91551619               15.68284669               80.81715919                0.44198404               12.19685758               -1.31320172               -7.21349326               -4.58046250              173.69746350               -4.11422531
              59.01860297               12.38652222               80.45193297                0.43861197                9.38502368                0.74714302              -10.05471903               -1.58273883              163.31945221               -4.58002894
              60.10321667                9.08465155               80.00386310                0.43725831                8.04391003                2.22850598              -12.96830987               -1.00272985              153.37639413               -5.59544126
              61.17948117                5.78201059               79.45390504                0.43838231                7.45913811                3.69715306              -16.01905011               -0.59205662              141.32475828               -7.00864528
              62.25239943                2.47968069               78.77543347                0.44121356                7.32058596                5.06977106              -19.22383701               -0.31675250              126.43531103               -8.78201168
              63.32589289               -0.82059440               77.93427825                0.44636895                7.54181355                6.37474589              -22.56412619               -0.06470692              107.80066376              -11.04607711
              64.40323570               -4.11745591               76.88537162                0.45424467                8.07917723                7.60969965              -26.00660487                0.18689282               83.89380381              -14.14090656
              65.48747643               -7.41026271               75.56419033                0.46476164                8.91599628                8.75691622              -29.53458164                0.42612500               50.21496085              -18.79259281
              66.58155563              -10.69965380               73.83652101                0.73691828                9.40791925                9.83347511              -33.23159710                0.52329594               30.23274333              -31.35089986
              24.02278606               12.70731356               86.89976757                0.80831508               -1.49660511               -1.66086094                5.65425787               -0.44638826               -6.80310942                7.26891834
              25.00782001                9.26013609               86.03987379                0.53743937               -1.61306384               -0.95569982                3.79389356               -0.66853195               -9.06579635               -5.83892702
              25.99052478                5.80138966               85.13373982                0.47199100               -1.47204610               -0.53797751                2.01220330               -0.40651365               -9.01824236                0.07189713
              26.97837909                2.32347275               84.27378104                0.45485711               -0.85525973               -0.00412469                0.26576309               -0.38828437               -6.41315835               -0.33366421
              27.97341959               -1.16978511               83.41846473                0.45177228               -0.09314843                0.52983109               -1.52477665               -0.35901518               -5.94690174               -0.19662336
              28.97651612               -4.67280063               82.56684111                0.45708684                0.72476454                1.08014404               -3.35577858               -0.33881267               -5.77064755               -0.12497035
              29.98791488               -8.17935069               81.71474392                0.47134342                1.53650649                1.63991539               -5.22997139               -0.33120603               -6.07365798               -0.04044793
              31.00724625              -11.68389932               80.85765383                0.49738427                2.28117314                2.18871051               -7.12041699               -0.33014566               -6.87913948                0.06185058
              32.03353834              -15.18302004               79.99092736                0.53782388                2.90678684                2.73024753               -9.00832293               -0.32708753               -8.47985891                0.07493515
              33.06538198              -18.67596380               79.10403153                0.59700923                3.40285568                3.26110417              -10.89417523               -0.31662581               -8.97234654                0.88377900
              34.10159545              -22.16527401               78.23028102                0.82336673                3.62134710                3.82764338              -12.76613727               -0.33049739               -8.49020789               -5.44987215
              27.46549964               13.69070495               86.55696420                0.56814071               -1.14030051               -1.77213729                4.93034775               -0.33974699                5.79714303               11.72364163
              28.45409664               10.25057909               85.69447106                0.09154981               -0.53541618               -0.61944833                3.08669185               -0.83310173               13.02537155              -10.80452959
              29.45479132                6.79600989               84.97577116                0.04456997                0.29934954               -1.01437988                1.60605158               -2.04906233               19.33096205              -14.39078819
              30.46008363                3.32343150               84.23923659                0.03666783                0.65874037               -0.71886494               -0.04129091               -2.97962806               18.83787200              -21.26373699
              31.46796612               -0.16448680               83.51163806                0.03910894                0.89135779               -0.22337714               -1.74994087               -3.51848967               19.32591298              -28.93216677
              32.47791078               -3.66199919               82.78611477                0.04451482                1.10930193                0.35834654               -3.51477363               -3.60879800               19.33363985              -37.41849435
              33.49015216               -7.16295154               82.05976757                0.05403182                1.39343427                0.93791337               -5.34383374               -3.26960732               19.00728640              -46.86578794
              34.50577947              -10.66201221               81.32866162                0.06856904                1.80737704                1.44716469               -7.18082128               -2.55793137               18.21719421              -57.46755628
              35.52629970              -14.15571757               80.58748973                0.09089697                2.37816209                1.86628947               -9.01399110               -1.57133279               17.10179453              -69.47663863
              36.55334271              -17.64335275               79.83492701                0.12012951                3.06504966                2.24692176              -10.81354960               -0.42536885               13.63477573              -83.23918485
              37.58760070              -21.12699758               79.02519533                0.55769522                3.42579878                2.60281606              -12.58141430                0.79710519               10.72559347             -102.10084606
              30.89624283               14.67187081               86.30212337                0.51845490               -1.03897921               -1.73803405                4.48760139               -0.09199428               -0.35105294               14.91841106
              31.88585303               11.24774713               85.24912690                0.02945637               -0.97758492               -0.23540186                2.24667516               -2.06042889               16.28340945              -13.82070319
              32.87669113                7.78110206               84.52822099                0.00010000               -0.32849132               -0.84073460                0.44683051               -4.87089828               31.82417269              -27.92956509
              33.87928321                4.30909545               83.78611851                0.00010000                0.58946787               -0.81502092               -1.43996647               -5.88816161               30.02008214              -41.67503757
              34.88848048                0.82574735               83.03050988                0.00010000                1.17608452               -0.40182244               -3.42756927               -6.71836426               28.50216924              -56.88998645
              35.90280490               -2.66563370               82.26033956                0.00010000                1.70276364                0.16239736               -5.50987305               -6.87015231               26.60899326              -73.62707551
              36.92253576               -6.16059242               81.46944417                0.00010000                2.30243775                0.72863327               -7.67074773               -6.30719385               24.05535335              -92.23332719
              37.94885365               -9.65495603               80.65051629                0.00010000                3.04582339                1.19680690               -9.88472253               -5.11120491               20.72661371             -113.07767650
              38.98345223              -13.14569425               79.79470875                0.00010000                3.96504817                1.53800296              -12.10889847               -3.42079663               16.16371982             -136.54313394
              40.02815462              -16.63102536               78.88540027                0.00010000                5.06874910                1.82498422              -14.30772256               -1.54672409                9.15645809             -163.33844397
              41.08482721              -20.11321769               77.88964572                0.46474208                5.66725913                2.39596808              -16.47882874                0.11288790                4.82605594             -191.82778085
              34.31190713               15.65594427               86.02163513                0.50932792               -0.82503211               -1.47601659                3.97049657               -0.09597561                0.10021601               14.08192197
              35.30365680               12.24587106               84.84326087                0.01822879               -0.79410493               -0.12810490                1.48877616               -2.72280275               21.79823207              -11.78149447
              36.29602503                8.77919519               84.09842740                0.00010000               -0.29908482                0.14314560               -0.63365811               -5.50638865               42.81686032              -26.19560579
              37.29767511                5.30713108               83.34135390                0.00010000                0.61514803                0.30717172               -2.79808112               -6.02503972               40.97558974              -40.14506304
              38.30832799                1.82747676               82.56205501                0.00010000                1.45862005                0.68503517               -5.06303220               -6.48625176               38.20629827              -54.75417741
              39.32684751               -1.65875124               81.75295671                0.00010000                2.25013129                1.19015523               -7.44458262               -6.53360031               34.58691920              -70.68956112
              40.35333061               -5.14837887               80.90491149                0.00010000                3.09048464                1.72708436               -9.93152906               -6.05311220               30.01148231              -88.35245173
              41.38865720               -8.63807608               80.00747396                0.00010000                4.03112466                2.23064538              -12.48965228               -5.09187098               24.36190618             -108.09655087
              42.43395311              -12.12495751               79.04855144                0.00010000                5.06372309                2.68959929              -15.06861693               -3.76870753               17.43737830             -130.19868634
              43.48993166              -15.60685307               78.01339634                0.00010000                6.01450048                3.18797769              -17.61119519               -2.10104092                9.17701196             -154.48848883
              44.55424312              -19.07907822               76.88885289                0.46497810                6.43114526                4.12827111              -20.05541869               -0.82725733                4.76536053             -179.81860608
              37.71446973               16.64235048               85.74842169                0.50726979               -0.63236822               -1.25330914                3.48719457               -0.08498955                0.08427245               14.67239440
              38.70814605               13.24518503               84.43898700                0.01569107               -0.45832024                0.01104473                0.70139510               -3.09470730               27.89878192              -11.60209275
              39.70530333                9.78396498               83.68559030                0.00010000                0.11774010                0.71113041               -1.68716543               -6.09266617               54.88584155              -24.56737306
              40.71050085                6.31523888               82.91812797                0.00010000                0.96672236                1.16820863               -4.11154367               -6.34071105               52.57696312              -37.57121693
              41.72463777                2.83944805               82.12221546                0.00010000                1.87438328                1.61411835               -6.63552145               -6.50133987               48.81038099              -51.12849198
              42.74798852               -0.64183059               81.28402376                0.00010000                2.80802869                2.13462054               -9.28911178               -6.37603532               43.67380395              -65.83253399
              43.78079835               -4.12605074               80.39009396                0.00010000                3.78031773                2.71049699              -12.06642697               -5.88492896               37.22432845              -82.15694035
              44.82359487               -7.61034312               79.42684634                0.00010000                4.80283600                3.30973997              -14.93032282               -5.04289774               29.49123350             -100.47169288
              45.87685507              -11.09190227               78.38068755                0.00010000                5.83298160                3.92732498              -17.81948614               -3.86945738               20.54159939             -121.00489771
              46.94025450              -14.56726581               77.23903258                0.00010000                6.79386433                4.63038751              -20.65810803               -2.26071182               10.57226123             -143.73528393
              48.01273235              -18.03065227               75.99236438                0.46583828                7.24778507                5.44646726              -23.37003434               -0.89046439                5.42831692             -168.52366317
              41.10453824               17.63087808               85.47832720                0.50629795               -0.43900764               -1.05997423                3.02209580               -0.09354971                0.09960330               14.95138358
              42.10014816               14.24609195               84.03719814                0.01407648               -0.02101956                0.18934336               -0.10199307               -3.29429111               34.74793392              -11.47057208
              43.10411785               10.79341780               83.28893818                0.00010000                0.76148240                1.13642465               -2.72763480               -6.43090793               68.40805909              -22.82097182
              44.11537781                7.33049526               82.52487835                0.00010000                1.56264108                1.78190132               -5.37682638               -6.61413862               65.58951437              -34.17281841
              45.13537067                3.85975912               81.72555941                0.00010000                2.47238913                2.33492948               -8.12407869               -6.56142168               60.82646740              -46.10117394
              46.16482559                0.38394117               80.87237114                0.00010000                3.43869452                2.92711178              -11.01001805               -6.24057667               54.25183595              -59.12803277
              47.20414456               -3.09416893               79.94753714                0.00010000                4.44125944                3.59464751              -14.03419410               -5.65209581               45.99666844              -73.72543908
              48.25365078               -6.57188128               78.93403263                0.00010000                5.46710446                4.32335267              -17.15809474               -4.80965391               36.19560008              -90.30920999
              49.31348665              -10.04641101               77.81595461                0.00010000                6.49083229                5.09473136              -20.31355797               -3.68333867               25.03713464             -109.23212712
              50.38346743              -13.51424532               76.57966895                0.00010000                7.48600524                5.88152223              -23.41616112               -2.12721866               12.82289992             -130.76632324
              51.46320675              -16.97014887               75.21553607                0.46606175                7.97393258                6.59736950              -26.38375868               -0.84511721                6.57995180             -155.09808618
              44.48217100               18.62115099               85.20956491                0.50366508               -0.24504938               -0.90059261                2.56102304               -0.10513293                0.13442413               15.05295826
              45.47972051               15.24897189               83.63611000                0.01363239                0.50554308                0.40332495               -0.91452823               -3.41494656               42.58905914              -11.52315510
              46.49228186               11.80669347               82.91182113                0.00010000                1.60781260                1.47460517               -3.74921348               -6.61730620               83.87346171              -20.69530513
              47.51187676                8.35087691               82.16993212                0.00010000                2.38407822                2.18771449               -6.57996424               -6.76268218               80.50988611              -29.87983453
              48.53996343                4.88614664               81.38578313                0.00010000                3.26141386                2.81317449               -9.50346207               -6.50509616               74.72226484              -39.67860505
              49.57710504                1.41671164               80.53622059                0.00010000                4.18077252                3.50853346              -12.57302256               -5.95643384               66.70774738              -50.59032586
              50.62357888               -2.05415779               79.59933833                0.00010000                5.12694180                4.30759971              -15.79444957               -5.22431295               56.63196902              -63.05200837
              51.67964387               -5.52387606               78.55409660                0.00010000                6.09867297                5.18255975              -19.12964333               -4.33605041               44.63979846              -77.53115261
              52.74555234               -8.99000764               77.38058796                0.00010000                7.09020594                6.08903214              -22.50734608               -3.24796690               30.93419523              -94.56764804
              53.82144799              -12.44963536               76.06147328                0.00010000                8.10423887                6.95154461              -25.83937512               -1.83955353               15.86935271             -114.73564536
              54.90763712              -15.89870488               74.58428237                0.46681966                8.61891229                7.63304217              -29.04277118               -0.72082567                8.15573779             -138.52699957
              47.84679378               19.61286623               84.94055561                0.50145726               -0.04870231               -0.75044153                2.09654159               -0.10292626                0.15436048               14.93994548
              48.84630676               16.25415845               83.23392848                0.01428216                1.15364641                0.63608352               -1.74461204               -3.53115770               51.69698390              -11.72157210
              49.86986671               12.82290991               82.55836902                0.00010000                2.71821181                1.68571353               -4.73876485               -6.71314985              101.81105996              -18.06298546
              50.90067099                9.37424955               81.86261160                0.00010000                3.47836536                2.32230741               -7.69653235               -6.72832455               97.78907319              -24.51796463
              51.93943401                5.91602261               81.11674507                0.00010000                4.26651762                2.99976138              -10.73985641               -6.14086766               90.89025672              -31.79466381
              52.98600134                2.45411184               80.29359373                0.00010000                5.04059962                3.85120866              -13.93822457               -5.34299942               81.41532781              -40.22139155
              54.04024601               -1.00801694               79.36775142                0.00010000                5.83891427                4.81467072              -17.30340762               -4.49028560               69.51737837              -50.11531012
              55.10277963               -4.46823008               78.31370977                0.00010000                6.70203007                5.84248125              -20.79844398               -3.59378143               55.21102282              -61.95387221
              56.17428661               -7.92463037               77.10546672                0.00010000                7.62969816                6.88058449              -24.35120967               -2.59849970               38.56081591              -76.47870778
              57.25537359              -11.37521443               75.71852067                0.00010000                8.63213324                7.83945524              -27.87301132               -1.42522268               19.90161649              -94.73443785
              58.34692927              -14.81748803               74.13406394                0.46715332                9.15556796                8.55081620              -31.28259418               -0.54095630               10.26069381             -117.72371720
              51.19752804               20.60614216               84.66896977                0.49982594                0.15256404               -0.59729486                1.61955528               -0.11510917                0.24685487               14.77080901
              52.19905368               17.26169357               82.82949468                0.01660935                2.01998661                0.88010647               -2.59399117               -3.75332636               62.43266097              -12.24109638
              53.23792777               13.84040774               82.23411272                0.00010000                4.25719422                1.55804568               -5.67695810               -6.76209483              122.80117040              -14.43790009
              54.28419756               10.39732306               81.61410143                0.00010000                4.96780057                1.98895624               -8.68855300               -6.15221182              117.81539036              -17.78410489
              55.33728378                6.94614187               80.93278624                0.00010000                5.50435173                2.90682914              -11.78880175               -5.14531178              109.58836044              -22.40720374
              56.39428460                3.49373582               80.16208227                0.00010000                5.94156523                3.98533680              -15.05827164               -4.18971570               98.70688581              -28.10433390
              57.45611509                0.04213563               79.27484042                0.00010000                6.50485389                5.13427872              -18.51191652               -3.36638065               85.14778137              -35.00600237
              58.52438168               -3.40702644               78.24126074                0.00010000                7.22258012                6.30556269              -22.11219285               -2.58215556               68.60131999              -43.51829328
              59.60056669               -6.85239595               77.02724184                0.00010000                8.07097618                7.45934674              -25.78710191               -1.77341576               48.67813725              -54.44466689
              60.68580120              -10.29284626               75.59504670                0.00010000                9.03992512                8.52721057              -29.45157701               -0.91454836               25.44633750              -69.43193762
              61.78136519              -13.72768855               73.91258869                0.46807510                9.55639922                9.34496995              -33.02909110               -0.31803068               13.22150735              -91.07790105
              54.53338879               21.60092033               84.39650096                0.49415650                0.35858597               -0.43246741                1.12640317               -0.11905903               -0.31536561               12.74789835
              55.53697465               18.27176058               82.41744519                0.01709242                3.28032618                1.12376993               -3.47270929               -4.32499553               75.35536555              -11.30233358
              56.59899532               14.85407082               81.95233609                0.00010000                6.74589860                0.23104297               -6.51659314               -5.43094435              147.78810789               -8.43029484
              57.67189262               11.41402867               81.43894850                0.00010000                7.05598529                1.38413058               -9.50035864               -4.20656382              140.50927271               -9.47605904
              58.74011502                7.97415919               80.84787749                0.00010000                6.71603240                2.68721217              -12.59510428               -3.05395558              130.80552841              -11.65116665
              59.80621327                4.53381857               80.15755464                0.00010000                6.67828131                4.02306748              -15.88098361               -2.36599383              118.83438406              -14.51092597
              60.87368065                1.09466864               79.34066566                0.00010000                6.97274138                5.33598305              -19.36847565               -1.83030130              104.07259675              -18.06522642
              61.94566810               -2.34211883               78.36430248                0.00010000                7.54787310                6.61456911              -23.01590409               -1.34930246               85.84040726              -22.55078856
              63.02463811               -5.77544343               77.18699761                0.00010000                8.33535641                7.84257025              -26.74968407               -0.86453033               62.93104853              -28.52247331
              64.11237523               -9.20467022               75.75171376                0.00010000                9.28075718                8.98369451              -30.49302970               -0.39837707               33.84462272              -37.31925490
              65.21025325              -12.63058863               73.98780739                0.46845946                9.78780258                9.96819186              -34.19306736               -0.11179295               17.77013381              -54.06691456
              57.85346637               22.59749282               84.08482426                0.74617922                0.59369160               -0.34275184                0.50725219                0.67537220                5.71910850               10.74818603
              58.85940328               19.28416896               82.03222669                0.46662993                6.67872130                1.24083839               -4.28592406               -5.38034779               93.95905684               -9.97907513
              59.98704079               15.84502860               81.74513744                0.44152944               11.02873147               -0.90422207               -7.16098213               -4.15361701              175.39575845               -4.24666356
              61.07997791               12.42500567               81.35116879                0.43849803                8.46869872                1.09769996              -10.05895604               -1.44859546              164.69379575               -4.72504732
              62.15641477                8.99988611               80.87334215                0.43736054                7.32386833                2.57269196              -13.10174251               -0.91045078              154.37522449               -5.75987089
              63.22645528                5.57419717               80.29196811                0.43814013                6.95158482                4.03785903              -16.35744115               -0.52734059              141.95379491               -7.19538642
              64.29544646                2.14885529               79.58031376                0.44074568                7.05262092                5.41866523              -19.82735029               -0.27002959              126.76470111               -8.99430150
              65.36750770               -1.27473506               78.70453226                0.44507289                7.51905036                6.73837707              -23.46067323               -0.03603215              107.94375851              -11.29074420
              66.44582747               -4.69554455               77.62008889                0.45194506                8.27355789                7.98988853              -27.17700163                0.19707054               83.97149852              -14.43012296
              67.53297885               -8.11317237               76.26288671                0.46113327                9.25693446                9.14978487              -30.89832913                0.42135415               50.28823189              -19.14607006
              68.63096616              -11.52832472               74.49824371                0.73445148                9.79873052               10.22639118              -34.62158257                0.55605555               30.36488917              -31.84820839
              24.82352591               13.12686764               87.95539796                0.80111570               -1.44241649               -1.59986168                5.45545602               -0.43290008               -6.88557637                7.34958645
              25.80910175                9.55023231               87.07717712                0.52975531               -1.55361529               -0.92130829                3.65531861               -0.65384542               -9.09072476               -5.92584402
              26.79245361                5.96230805               86.15365952                0.46963655               -1.40322704               -0.52092238                1.96373169               -0.38678171               -8.94786076                0.10699683
              27.78103721                2.35624069               85.27662062                0.45394727               -0.79078274               -0.00467108                0.30380924               -0.37495405               -6.32649090               -0.32456573
              28.77663795               -1.26386088               84.40378828                0.45118280               -0.05470294                0.51199688               -1.40023433               -0.35885844               -5.88261118               -0.19828889
              29.77994315               -4.89260182               83.53434384                0.45601850                0.71953995                1.03876264               -3.13539980               -0.35020047               -5.73851702               -0.13172637
              30.79102875               -8.52430839               82.66393491                0.46941048                1.48072292                1.57277135               -4.90828508               -0.33825462               -6.07702987               -0.05344934
              31.80955761              -12.15414248               81.78834905                0.49195532                2.18166408                2.10915072               -6.70820546               -0.33073928               -6.91063580                0.03679326
              32.83466203              -15.77904128               80.90301892                0.52800800                2.77112717                2.63547522               -8.52004723               -0.32020939               -8.52838051                0.04413192
              33.86498015              -19.39868289               79.99774261                0.57926311                3.23154766                3.14552507              -10.30322272               -0.30588572               -9.02689298                0.84515366
              34.89929299              -23.01580894               79.10587522                0.81131013                3.43128360                3.68555314              -12.08661867               -0.25137116               -8.56338529               -5.47533640
              28.39583224               14.11086902               87.60544768                0.55795517               -1.09891561               -1.69493247                4.75255000               -0.32603648                5.92028737               11.95458684
              29.38484309               10.54101922               86.72480046                0.08884271               -0.51253231               -0.60194686                2.97086610               -0.81110268               13.32952944              -10.94956045
              30.38558160                6.95709883               85.99148150                0.04514460                0.27645223               -0.97448631                1.53063725               -1.98825319               19.70748862              -14.70457025
              31.39037213                3.35619398               85.23867032                0.03740495                0.59445121               -0.66111535               -0.07552523               -2.88002896               19.08941275              -21.76459895
              32.39747062               -0.25874091               84.49415777                0.03965314                0.81463838               -0.16269292               -1.75049782               -3.39514955               19.50417709              -29.61615682
              33.40666490               -3.88221419               83.75121674                0.04447133                1.04729584                0.40443948               -3.47742861               -3.48902473               19.43168699              -38.29982215
              34.41841654               -7.50858068               83.00676935                0.05299472                1.34758788                0.95955922               -5.25766232               -3.17309826               19.04573096              -47.95394801
              35.43361666              -11.13305098               82.25733062                0.06604595                1.76568019                1.44814317               -7.07496232               -2.49446913               18.24932984              -58.78120226
              36.45373014              -14.75268653               81.49792492                0.08584111                2.33442322                1.84174527               -8.87728124               -1.54606162               17.15405002              -71.03121089
              37.48030512              -18.36722764               80.72753259                0.11089353                3.00875904                2.19364000              -10.64337325               -0.43084253               13.72131618              -85.04419416
              38.51390532              -21.97895341               79.90060235                0.54510773                3.36002014                2.51860804              -12.34057822                0.84068380               10.83036409             -104.15546333
              31.95670478               15.09296899               87.34625876                0.51199177               -1.00548897               -1.64094843                4.33031767               -0.08840783               -0.39684233               15.28796966
              32.94664989               11.53819337               86.27123068                0.02828181               -0.95954963               -0.24752194                2.16464330               -1.97001411               16.46372355              -14.00647950
              33.93751379                7.94281832               85.53269258                0.00010000               -0.36867613               -0.81093625                0.45514235               -4.66051331               32.19359996              -28.53477840
              34.93927637                4.34301838               84.77196057                0.00010000                0.48146727               -0.73740155               -1.37527735               -5.62212901               30.25531111              -42.63386059
              35.94714313                0.73288526               83.99657831                0.00010000                1.03630274               -0.29462231               -3.33912222               -6.42161930               28.58373026              -58.20473744
              36.96000242               -2.88451303               83.20555475                0.00010000                1.56302204                0.27862487               -5.42862954               -6.58467851               26.54883944              -75.32671041
              37.97840357               -6.50511721               82.39292709                0.00010000                2.18858254                0.83815742               -7.62333670               -6.07297338               23.88440077              -94.34486211
              39.00377407              -10.12517962               81.55168260                0.00010000                2.97569456                1.28801065               -9.88444095               -4.94772540               20.49455129             -115.63772536
              40.03791746              -13.74220638               80.67343448                0.00010000                3.94280528                1.60356382              -12.16182251               -3.33422411               15.93815402             -139.58411663
              41.08263018              -17.35481009               79.74203282                0.00010000                5.08203671                1.86017097              -14.39352164               -1.52321126                8.99819659             -166.88035157
              42.13955820              -20.96543678               78.72466323                0.46074611                5.69280199                2.38976318              -16.54611811                0.15759113                4.77213183             -195.91252108
              35.50361533               16.07805005               87.06078354                0.50347177               -0.80218560               -1.38017487                3.84846891               -0.10170252                0.08428485               14.47244297
              36.49559347               12.53606879               85.85793940                0.01769083               -0.80345051               -0.15897236                1.43849554               -2.56886742               21.97167523              -11.96665607
              37.48754632                8.94088010               85.09232887                0.00010000               -0.38654273                0.12391438               -0.56819262               -5.18419170               43.16019163              -26.76219197
              38.48786262                5.34144595               84.31387710                0.00010000                0.45116653                0.32360563               -2.66548084               -5.65975330               41.19792494              -41.06190802
              39.49656965                1.73536664               83.51197127                0.00010000                1.25555918                0.73989091               -4.91850079               -6.10685039               38.24138014              -56.01510177
              40.51297380               -1.87664169               82.67888798                0.00010000                2.05270088                1.27500689               -7.34098256               -6.17324910               34.42734658              -72.31103687
              41.53762366               -5.49181753               81.80562850                0.00010000                2.93887581                1.82969781               -9.91251897               -5.73963386               29.69433438              -90.36622817
              42.57175132               -9.10729076               80.88215925                0.00010000                3.95262330                2.33680736              -12.58318968               -4.84486323               23.96169063             -110.53770194
              43.61667613              -12.72061525               79.89700163                0.00010000                5.06599919                2.78998265              -15.27701602               -3.59896926               17.05555964             -133.09942922
              44.67307130              -16.33002422               78.83611972                0.00010000                6.08171955                3.27253897              -17.90320600               -2.01533505                8.93555664             -157.87679941
              45.73831052              -19.93115814               77.68717844                0.46118392                6.52392222                4.17450774              -20.35387124               -0.75130833                4.67425212             -183.70184134
              39.03863326               17.06536549               86.78296798                0.50236777               -0.61907727               -1.18100439                3.41023992               -0.10304797                0.06978502               15.11582577
              40.03244249               13.53501392               85.44589937                0.01552526               -0.50902388               -0.02071860                0.67187542               -2.88685612               28.09991442              -11.83119262
              41.02845279                9.94529661               84.66911325                0.00010000               -0.04238658                0.66894355               -1.58253099               -5.66397239               55.27108843              -25.13877944
              42.03159476                6.34949050               83.87767436                0.00010000                0.73204892                1.15318496               -3.93645298               -5.86939691               52.82525531              -38.46264259
              43.04309377                2.74768308               83.05650265                0.00010000                1.60634261                1.64079548               -6.46081814               -6.02426180               48.84519744              -52.33172652
              44.06372161               -0.85901289               82.19147640                0.00010000                2.55831001                2.20159018               -9.18402041               -5.92847870               43.47797445              -67.35988440
              45.09425997               -4.46852325               81.26924746                0.00010000                3.59764576                2.80910216              -12.08825615               -5.49405250               36.83880356              -84.03592205
              46.13567453               -8.07844347               80.27670365                0.00010000                4.72057845                3.42993369              -15.11434029               -4.72704303               29.00671771             -102.73792799
              47.18867153              -11.68640672               79.20100240                0.00010000                5.85959202                4.05960529              -18.16882890               -3.64167654               20.08588754             -123.69644746
              48.25286637              -15.28935931               78.03049851                0.00010000                6.90641720                4.76544116              -21.13305469               -2.13706067               10.28774813             -146.88841928
              49.32679988              -18.88194662               76.75664481                0.46147008                7.39335104                5.56936762              -23.88031905               -0.79883190                5.31734856             -172.17665817
              42.56225751               18.05442997               86.50834807                0.50048545               -0.43322781               -1.01312824                2.98064060               -0.09336415                0.09480716               15.42466658
              43.55792523               14.53565441               85.03616227                0.01413891               -0.12336063                0.16156605               -0.10964915               -3.03930308               35.00979663              -11.72824724
              44.55979029               10.95425897               84.26214219                0.00010000                0.50814914                1.09003498               -2.60097427               -5.91972654               68.88866230              -23.40408980
              45.56808821                7.36450965               83.47183373                0.00010000                1.23987516                1.76405207               -5.18190219               -6.05086845               65.91762062              -35.04046013
              46.58458780                3.76818255               82.64495111                0.00010000                2.12611731                2.36244115               -7.94401439               -6.00265543               60.91485302              -47.23511538
              47.61061056                0.16739011               81.76248770                0.00010000                3.12927009                3.00118887              -10.92562703               -5.72794275               54.07815714              -60.53552678
              48.64717320               -3.43563549               80.80673073                0.00010000                4.22416836                3.70871104              -14.11252951               -5.21210425               45.60489478              -75.43219311
              49.69509392               -7.03869209               79.76115362                0.00010000                5.37926195                4.46936917              -17.44027373               -4.45736886               35.68800311              -92.35217798
              50.75475844              -10.63942315               78.61069871                0.00010000                6.53880312                5.26650033              -20.80279928               -3.42931380               24.55641267             -111.65405163
              51.82586999              -14.23471540               77.34278109                0.00010000                7.63750355                6.07564159              -24.06731868               -1.98842681               12.52433744             -133.61385318
              52.90750851              -17.81977079               75.94881180                0.46198775                8.16385219                6.81299695              -27.09651108               -0.74780433                6.46425010             -158.42345058
              46.07431709               19.04510293               86.23520292                0.49959496               -0.24896632               -0.86241788                2.57141003               -0.09117082                0.12812564               15.52805162
              47.07182742               15.53824524               84.62697330                0.01382843                0.34429669                0.37041182               -0.91495094               -3.11906991               42.93027290              -11.79326518
              48.08120302               11.96709731               83.87484409                0.00010000                1.24131949                1.44456950               -3.61214685               -6.04275789               84.49874213              -21.28105623
              49.09665381                8.38477154               83.10482873                0.00010000                1.94785872                2.19906971               -6.38595139               -6.13510340               80.96950076              -30.70616882
              50.12016019                4.79493190               82.29127087                0.00010000                2.81634924                2.87719196               -9.34137435               -5.90103404               74.91457749              -40.71551955
              51.15298080                1.20101089               81.41048202                0.00010000                3.79699434                3.62121613              -12.53194018               -5.42143504               66.60417004              -51.84104910
              52.19610008               -2.39434903               80.44056169                0.00010000                4.86670053                4.46161811              -15.94851656               -4.77977880               56.27921338              -64.54128734
              53.25031481               -5.98905609               79.36097834                0.00010000                6.00042424                5.37233670              -19.52392594               -3.99023358               44.14894119              -79.29685840
              54.31610857               -9.58107672               78.15272107                0.00010000                7.15653344                6.31206179              -23.14445461               -3.00471761               30.45888907              -96.65546052
              55.39344548              -13.16784648               76.79956037                0.00010000                8.29230076                7.21122686              -26.66850388               -1.70868242               15.57334319             -117.19666648
              56.48195458              -16.74568668               75.29010336                0.46271248                8.85091043                7.94253042              -29.95367280               -0.62737679                8.04389558             -141.41937622
              49.57414946               20.03718161               85.96167753                0.49682241               -0.06000119               -0.73455960                2.13682901               -0.10128296                0.16092699               15.40747797
              50.57354945               16.54306265               84.21662720                0.01449774                0.91296916                0.60764112               -1.72078493               -3.20034386               52.14374163              -12.00958817
              51.59240884               12.98315036               83.51147306                0.00010000                2.20010536                1.69670211               -4.60388735               -6.08620413              102.62833450              -18.63025412
              52.61755155                9.40849104               82.78624004                0.00010000                2.89594627                2.40405535               -7.52049611               -6.07323849               98.42875647              -25.26417095
              53.65032777                5.82572639               82.00966968                0.00010000                3.69556188                3.14000242              -10.61614138               -5.54838204               91.22717647              -32.68623305
              54.69146279                2.23981443               81.15388449                0.00010000                4.56584173                4.03312300              -13.96163215               -4.84574631               81.41494488              -41.26178498
              55.74164460               -1.34640313               80.19342628                0.00010000                5.52770731                5.03234205              -17.55348086               -4.09584858               69.23120280              -51.32936161
              56.80201694               -4.93124536               79.10329600                0.00010000                6.59049373                6.09384112              -21.32279457               -3.30079984               54.75910996              -63.37859873
              57.87345447               -8.51318191               77.85841821                0.00010000                7.71446852                7.16629946              -25.15027841               -2.40284260               38.10645830              -78.15925290
              58.95630631              -12.09049086               76.43543160                0.00010000                8.85934542                8.16651593              -28.88815952               -1.32466827               19.61578295              -96.72202316
              60.05064138              -15.66092018               74.81661151                0.46326043                9.43350768                8.94203288              -32.39068862               -0.46083090               10.15664896             -120.07484887
              53.06052934               21.03041174               85.68555715                0.49528382                0.13224472               -0.60814980                1.70685349               -0.09910562                0.25009034               15.22358091
              54.06185179               17.55039807               83.80376801                0.01676640                1.67606000                0.85727447               -2.55523616               -3.37208112               63.01885576              -12.55543304
              55.09405054               14.00103135               83.17778290                0.00010000                3.53806123                1.65988647               -5.55027866               -6.09333056              123.87341364              -14.94181389
              56.13261302               10.43285265               82.52765576                0.00010000                4.19093097                2.19856036               -8.54221405               -5.54370532              118.67847391              -18.38324774
              57.17786916                6.85773195               81.81495611                0.00010000                4.77911864                3.15304337              -11.71807119               -4.65072387              110.09310370              -23.08233779
              58.22819539                3.28167335               81.01077608                0.00010000                5.36868680                4.25601365              -15.16331994               -3.80405582               98.82342533              -28.86587355
              59.28524290               -0.29370219               80.08788296                0.00010000                6.14411036                5.43041197              -18.87714413               -3.07643297               84.93799361              -35.87687040
              60.35107760               -3.86717927               79.01700613                0.00010000                7.10271595                6.63081046              -22.78698997               -2.38088104               68.19673496              -44.53050398
              61.42729722               -7.43775073               77.76499376                0.00010000                8.18063943                7.81662451              -26.76828165               -1.65245290               48.25083788              -55.63741116
              62.51469038              -11.00451616               76.29524806                0.00010000                9.31496961                8.92169388              -30.66905098               -0.86013459               25.17282416              -70.85213503
              63.61359661              -14.56684603               74.57675297                0.46356488                9.89062262                9.79691618              -34.34052426               -0.25770640               13.12670757              -92.78065681
              56.53219468               22.02501861               85.40830537                0.48962041                0.32935204               -0.45824429                1.25271343               -0.10863845               -0.31724823               13.12599185
              57.53548820               18.56020814               83.38305127                0.01704815                2.79464828                1.09818367               -3.41370900               -3.84942669               76.13927127              -11.60412581
              58.58808765               15.01634809               82.88754748                0.00010000                5.72443229                0.56396899               -6.39945109               -4.86535827              149.19468485               -8.76789531
              59.64997685               11.45246225               82.34422177                0.00010000                6.02024680                1.73640288               -9.38500664               -3.79498381              141.61014670               -9.82493225
              60.70849259                7.88878726               81.72169299                0.00010000                5.84194825                3.03964330              -12.58241364               -2.77374365              131.47161198              -12.02512269
              61.76681581                4.32493471               80.99757373                0.00010000                6.02379856                4.38012902              -16.07809374               -2.15960411              119.05662184              -14.92011634
              62.82896856                0.76220511               80.14451758                0.00010000                6.58160181                5.71003241              -19.86499643               -1.68387225              103.93200527              -18.52469245
              63.89844785               -2.79862915               79.13020274                0.00010000                7.43868768                7.01552174              -23.86293994               -1.25695965               85.48410541              -23.08028851
              64.97774231               -6.35684942               77.91415086                0.00010000                8.48755319                8.27548987              -27.94043421               -0.82069174               62.53940023              -29.14676987
              66.06819891               -9.91205698               76.44042561                0.00010000                9.62023391                9.44930729              -31.94381959               -0.38682866               33.59022799              -38.06925856
              67.17014699              -13.46498186               74.63929603                0.46413655               10.19480736               10.46777085              -35.73036404               -0.06534784               17.68891650              -54.99615392
              59.98797752               23.02124685               85.09067164                0.74383883                0.55562561               -0.37717623                0.67356914                0.68977271                5.87920574               11.06359220
              60.99353378               19.57236174               82.98970044                0.46401414                5.82558729                1.21536004               -4.21100459               -4.64224847               95.09804176              -10.25822784
              62.10448927               16.01231073               82.67393955                0.44083175                9.53701984               -0.40373583               -7.03462574               -3.59889004              177.12175751               -4.39267549
              63.18427417               12.46758070               82.25075385                0.43825187                7.27162834                1.51184528               -9.95859285               -1.25956348              165.97777532               -4.88519275
              64.24992183                8.91852482               81.74182825                0.43746765                6.36556387                2.97375584              -13.13907212               -0.77231385              155.15326286               -5.93175157
              65.31158545                5.36927593               81.12675622                0.43811260                6.26037369                4.43412221              -16.64881443               -0.42435431              142.24302775               -7.38280171
              66.37512931                1.82049846               80.37888646                0.44008885                6.67037423                5.82933442              -20.46767259               -0.19116296              126.67113868               -9.20068336
              67.44499294               -1.72686883               79.46506479                0.44386627                7.45909559                7.17603142              -24.50264605                0.01753919              107.63652699              -11.52341890
              68.52431122               -5.27224093               78.34183158                0.44987458                8.50466571                8.46084911              -28.61144108                0.22383180               83.64619094              -14.70076344
              69.61508625               -8.81553001               76.94622375                0.45780651                9.69140947                9.65269676              -32.63446646                0.42624953               50.10446629              -19.47116358
              70.71813941              -12.35749061               75.14408935                0.73219576               10.30531585               10.74912498              -36.45277095                0.60318251               30.35498803              -32.28020256
              25.64151621               13.55420584               89.00887669                0.79399495               -1.37722593               -1.52699573                5.22249073               -0.41496893               -6.95962344                7.41713739
              26.62774395                9.84637253               88.11298016                0.52180772               -1.46960722               -0.88382086                3.49431450               -0.62506492               -9.09127311               -6.00380592
              27.61212407                6.12788564               87.17301446                0.46700954               -1.30117214               -0.50002163                1.90534480               -0.37980843               -8.82875433                0.13683542
              28.60172051                2.39288203               86.27985723                0.45323537               -0.70399620               -0.00824661                0.34489529               -0.37126525               -6.18106119               -0.31898946
              29.59804414               -1.35448987               85.39046004                0.45064736               -0.00606817                0.48899123               -1.25448428               -0.35723990               -5.75651252               -0.19976777
              30.60159915               -5.10918096               84.50413311                0.45509557                0.71624632                0.99744214               -2.88295238               -0.34655431               -5.63739370               -0.13803485
              31.61236907               -8.86608856               83.61657822                0.46680612                1.41751855                1.50658819               -4.53852669               -0.33889858               -6.01251209               -0.06497678
              32.62994952              -12.62112660               82.72348972                0.48686110                2.06040502                2.01567855               -6.22522223               -0.32694400               -6.88518529                0.00877851
              33.65357717              -16.37194939               81.82052641                0.51786136                2.60191560                2.51920481               -7.92568195               -0.31554717               -8.51844784                0.01745139
              34.68198783              -20.11864068               80.89796707                0.56172180                3.02426843                3.01138352               -9.60933323               -0.30390426               -9.04640833                0.79336238
              35.71406254              -23.86423501               79.98854865                0.79960810                3.20747093                3.53401502              -11.32026614               -0.15884218               -8.62893027               -5.48061862
              29.34519983               14.53893588               88.65201520                0.54760673               -1.05464268               -1.59557484                4.54731942               -0.29785993                6.03489957               12.17589097
              30.33465341               10.83753432               87.75388838                0.08587191               -0.50643007               -0.59469683                2.83816740               -0.75503664               13.61344425              -11.08331562
              31.33507123                7.12288542               87.00638390                0.04556537                0.22711028               -0.91632530                1.44471922               -1.85127924               20.04072744              -14.96239340
              32.33919561                3.39279957               86.23772608                0.03797155                0.52160059               -0.58352898               -0.11517451               -2.68510913               19.27674213              -22.17114812
              33.34550324               -0.34959996               85.47662811                0.03998955                0.73686671               -0.08355128               -1.75652381               -3.17446691               19.61710752              -30.17876689
              34.35393295               -4.09920654               84.71656620                0.04424275                0.97248297                0.46709095               -3.45106507               -3.27944780               19.48913649              -39.04613546
              35.36495290               -7.85102267               83.95461433                0.05174328                1.28387754                0.98698686               -5.18342597               -3.00182123               19.04212044              -48.91929947
              36.37961050              -11.60096981               83.18716237                0.06314024                1.71129180                1.42937188               -6.94937545               -2.37234527               18.21441477              -59.98924388
              37.39917874              -15.34675735               82.40994411                0.08036970                2.27405499                1.77480449               -8.70622886               -1.46345535               17.13256258              -72.49990519
              38.42509160              -19.08852684               81.62205954                0.10150155                2.94448568                2.07105762              -10.44058058               -0.36177758               13.74713288              -86.78024781
              39.45806845              -22.82889486               80.77838377                0.53322605                3.29768557                2.30954080              -12.09004774                1.01052154               10.89272167             -106.11904436
              33.03836214               15.52229434               88.38872972                0.50556495               -0.96684523               -1.51259895                4.15513029               -0.07751135               -0.44963694               15.66228050
              34.02869368               11.83447859               87.29241977                0.02710297               -0.92644499               -0.28325353                2.07135456               -1.79218176               16.65177685              -14.18982805
              35.01983324                8.10955913               86.53732383                0.00010000               -0.40949884               -0.76773634                0.48361718               -4.25236050               32.57810105              -29.02023640
              36.02050371                4.38121146               85.75861296                0.00010000                0.33638394               -0.63102148               -1.27001025               -5.14622171               30.46509516              -43.39817606
              37.02656092                0.64383910               84.96372743                0.00010000                0.84645994               -0.15748348               -3.20281633               -5.92045639               28.59399362              -59.27650610
              38.03743291               -3.09983914               84.15176697                0.00010000                1.37675014                0.41564551               -5.30436189               -6.11918290               26.37030275              -76.76158273
              39.05409592               -6.84634882               83.31697744                0.00010000                2.04021893                0.94994356               -7.54832847               -5.68534452               23.56019043              -96.21026108
              40.07823728              -10.59253916               82.45282747                0.00010000                2.88845879                1.35593243               -9.88511587               -4.65985489               20.09228145             -117.98310951
              41.11186509              -14.33645330               81.55147230                0.00010000                3.93262553                1.61216656              -12.24638324               -3.13776379               15.54881281             -142.45796128
              42.15688979              -18.07721953               80.59752984                0.00010000                5.15719582                1.78360480              -14.53988152               -1.41082485                8.72829591             -170.29271708
              43.21500901              -21.81804420               79.55872336                0.45688190                5.81192149                2.18991218              -16.68849409                0.29464677                4.67299953             -199.89696199
              36.71928111               16.50868390               88.09860450                0.49814916               -0.77361205               -1.25959395                3.70856120               -0.09943887                0.07004259               14.87545309
              37.71154498               12.83186925               86.87203078                0.01719420               -0.79949725               -0.20701441                1.37353554               -2.29239090               22.18080461              -12.16030720
              38.70329116                9.10753069               86.08706355                0.00010000               -0.47768900                0.09084704               -0.45716292               -4.62866214               43.55938290              -27.23510218
              39.70199120                5.38017914               85.28804429                0.00010000                0.24267767                0.34089751               -2.45451901               -5.05837399               41.41728166              -41.81049153
              40.70814471                1.64725037               84.46368499                0.00010000                0.98730024                0.79972893               -4.68663630               -5.49470018               38.20260469              -57.06058471
              41.72173721               -2.09089363               83.60613706                0.00010000                1.79006580                1.36055680               -7.16384086               -5.59519369               34.12507307              -73.69657438
              42.74394603               -5.83202380               82.70666111                0.00010000                2.73903374                1.92387077               -9.85436460               -5.23531425               29.17954526              -92.14613090
              43.77651788               -9.57385116               81.75581016                0.00010000                3.85788990                2.42215569              -12.68756930               -4.43766077               23.33566739             -112.76902500
              44.82110383              -13.31451401               80.74301112                0.00010000                5.09740538                2.84625020              -15.55593822               -3.30453542               16.46251078             -135.82626173
              45.87846599              -17.05285475               79.65533222                0.00010000                6.22534511                3.27619820              -18.32281708               -1.85526700                8.55798981             -161.13536635
              46.94561073              -20.78509662               78.48177547                0.45744193                6.71447381                4.11126985              -20.81881067               -0.63530179                4.52078403             -187.50599644
              40.39000266               17.49710246               87.81662649                0.49759724               -0.60035875               -1.07737117                3.31536059               -0.10017189                0.05265578               15.57172852
              41.38399908               13.83033831               86.45242451                0.01542689               -0.55262793               -0.07080890                0.62919157               -2.53606979               28.35837494              -12.07134397
              42.37895011               10.11137607               85.65393968                0.00010000               -0.21912639                0.60372368               -1.41493898               -4.96902126               55.75166258              -25.64379897
              43.37961655                6.38802941               84.83939891                0.00010000                0.43947877                1.11762732               -3.65591453               -5.13061500               53.09266009              -39.21946413
              44.38773968                2.65983368               83.99299910                0.00010000                1.25933285                1.65191120               -6.17073199               -5.28941861               48.81189360              -53.35480262
              45.40480321               -1.07262801               83.10034335                0.00010000                2.23037429                2.25593214               -8.98390935               -5.24165878               43.12869134              -68.68356033
              46.43234717               -4.80787140               82.14832884                0.00010000                3.35855374                2.89483883              -12.06241863               -4.89187653               36.23227471              -85.70891928
              47.47197428               -8.54409605               81.12455954                0.00010000                4.62154004                3.53258230              -15.31967621               -4.23659615               28.26789465             -104.81430646
              48.52477797              -12.27952830               80.01731097                0.00010000                5.91963892                4.16516507              -18.62074583               -3.28579565               19.39451209             -126.22982165
              49.59036706              -16.01169556               78.81637148                0.00010000                7.10043756                4.86352473              -21.79020092               -1.94577029                9.85392161             -149.92714565
              50.66678672              -19.73581880               77.51475800                0.45781665                7.64196597                5.65100929              -24.63145798               -0.67134385                5.13717974             -175.76825082
              44.05080598               18.48713648               87.53794001                0.49657211               -0.42560021               -0.93599483                2.93573273               -0.10883651                0.09290923               15.92011369
              45.04654998               14.83045307               86.03500515                0.01428313               -0.22931748                0.11516797               -0.13083211               -2.64227962               35.34428697              -12.00453439
              46.04621964               11.11960517               85.23691869                0.00010000                0.21856557                1.01827021               -2.39767273               -5.12351063               69.49255572              -23.94747377
              47.05092129                7.40253169               84.42124031                0.00010000                0.83970593                1.71589113               -4.86323008               -5.20465669               66.28433669              -35.81161935
              48.06301375                3.68028860               83.56667912                0.00010000                1.68439123                2.36420027               -7.63002171               -5.17223360               60.94127285              -48.23124306
              49.08460912               -0.04577499               82.65385860                0.00010000                2.72813926                3.05609394              -10.73316753               -4.96606016               53.74559356              -61.78078689
              50.11757654               -3.77412703               81.66528655                0.00010000                3.94168697                3.80961607              -14.14070592               -4.55524321               44.97811133              -76.96969199
              51.16344286               -7.50319952               80.58522716                0.00010000                5.27054452                4.60702149              -17.75572453               -3.92973268               34.90841086              -94.23556134
              52.22298743              -11.23121071               79.39989863                0.00010000                6.61991137                5.43459779              -21.42385265               -3.05073104               23.82418325             -113.94077549
              53.29584109              -14.95558425               78.09832257                0.00010000                7.87214500                6.27381807              -24.94837733               -1.78501048               12.06728601             -136.36275439
              54.38043033              -18.67207643               76.67360585                0.45816599                8.45892440                7.04633444              -28.11601286               -0.61710120                6.27355055             -161.69586014
              47.70119275               19.47838257               87.26099311                0.49551096               -0.25079501               -0.82374604                2.57421302               -0.10874011                0.10748460               16.03283467
              48.69868480               15.83264167               85.61781098                0.01410270                0.16042661                0.33594505               -0.91476028               -2.69025048               43.35335305              -12.09232350
              49.70440128               12.13174147               84.83957819                0.00010000                0.80775941                1.38804210               -3.39116921               -5.18467568               85.27062810              -21.85142797
              50.71483999                8.42234723               84.04221309                0.00010000                1.41002007                2.18037044               -6.05635782               -5.22477925               81.47870459              -31.47545233
              51.73260168                4.70711769               83.19895564                0.00010000                2.25288187                2.91620626               -9.03475597               -5.02670116               75.04656534              -41.65980955
              52.75989762                0.98849387               82.28558178                0.00010000                3.30325754                3.71785350              -12.37717014               -4.64311232               66.33388112              -52.97472602
              53.79866683               -2.73167908               81.28036800                0.00010000                4.52828451                4.61007938              -16.05546970               -4.12837387               55.67665867              -65.90262612
              54.85046331               -6.45195562               80.16361808                0.00010000                5.87406238                5.56848338              -19.96619772               -3.48151094               43.36834685              -80.93743445
              55.91614808              -10.17083634               78.91769887                0.00010000                7.25346274                6.55613025              -23.94181318               -2.64854174               29.71625865              -98.63284810
              56.99553257              -13.88621920               77.52810321                0.00010000                8.56404884                7.51208381              -27.77073137               -1.52004528               15.10969918             -119.57049459
              58.08742906              -17.59489211               75.98520892                0.45884563                9.18964883                8.32209063              -31.22922837               -0.50368616                7.85182278             -144.25227576
              51.34011299               20.47066156               86.98329219                0.49314742               -0.07269219               -0.71983138                2.19560384               -0.10319017                0.16932613               15.90238348
              52.33938607               16.83717197               85.19951278                0.01481099                0.63537855                0.57595829               -1.70635420               -2.73876540               52.68395380              -12.32473438
              53.35282056               13.14736601               84.46629127                0.00010000                1.58317156                1.68777802               -4.37757643               -5.19629316              103.59711024              -19.20549519
              54.37104950                9.44613909               83.71220167                0.00010000                2.17562639                2.46645698               -7.20253730               -5.14997187               99.11933043              -25.99006525
              55.39633309                5.73861272               82.90442224                0.00010000                2.97470719                3.26770607              -10.34327900               -4.70665786               91.49573688              -33.52781594
              56.43054364                2.02858208               82.01436109                0.00010000                3.95627320                4.21176190              -13.87164961               -4.13047657               81.23061206              -42.22872268
              57.47545855               -1.68192544               81.01668181                0.00010000                5.12131302                5.25929992              -17.76437565               -3.52169286               68.67109545              -52.45639134
              58.53296990               -5.39182985               79.88725388                0.00010000                6.44108136                6.37061805              -21.91286998               -2.87102028               53.99097001              -64.71312780
              59.60428018               -9.10008811               78.60246115                0.00010000                7.82630223                7.49797560              -26.13839529               -2.11596445               37.36181677              -79.75429186
              60.68949595              -12.80534258               77.14075748                0.00010000                9.17111251                8.56681150              -30.21642338               -1.17903087               19.14902092              -98.63113709
              61.78770243              -16.50563462               75.48625017                0.45942711                9.82064818                9.44529527              -33.91369950               -0.35618162                9.96508622             -122.35039529
              54.96610812               21.46398594               86.70310684                0.49153591                0.10969259               -0.61679387                1.80681042               -0.11055862                0.24933835               15.71456440
              55.96720504               17.84416083               84.77838995                0.01702506                1.27000908                0.82868311               -2.51521048               -2.86785001               63.69703608              -12.90336860
              56.99150830               14.16549704               84.12310714                0.00010000                2.66943979                1.75951291               -5.32874716               -5.17932549              125.09374188              -15.47095432
              58.02059384               10.47167637               83.44325715                0.00010000                3.22586195                2.41464201               -8.25020148               -4.70623353              119.58102822              -18.99027330
              59.05602554                6.77247181               82.69842482                0.00010000                3.86162070                3.40859370              -11.49708846               -3.95425188              110.50713083              -23.74096802
              60.09782625                3.07272911               81.85881588                0.00010000                4.63096860                4.54270118              -15.15901608               -3.24937112               98.72211753              -29.59028458
              61.14864491               -0.62649308               80.89729754                0.00010000                5.66896634                5.75483612              -19.21464231               -2.65195886               84.41245490              -36.69689275
              62.21120558               -4.32454326               79.78552094                0.00010000                6.93483041                7.00232965              -23.54799432               -2.08183610               67.43200703              -45.48546376
              63.28734152               -8.02087683               78.49187621                0.00010000                8.31464425                8.24357247              -27.96852512               -1.47083242               47.49546644              -56.77080996
              64.37749846              -11.71488297               76.98166568                0.00010000                9.67739987                9.41557497              -32.23801642               -0.77853472               24.69612238              -72.20685699
              65.48088951              -15.40598621               75.22577821                0.45970177               10.33910509               10.38932662              -36.11073555               -0.18090713               12.93230275              -94.39354325
              58.57755203               22.45832568               86.42155522                0.48553674                0.29659365               -0.49769029                1.40500779               -0.11376660               -0.32798730               13.53227439
              59.58051797               18.85374564               84.34917101                0.01708878                2.20832391                1.07726191               -3.35480101               -3.24391253               77.01479945              -11.92964789
              60.62171851               15.18255627               83.82434707                0.00010000                4.47160417                0.94469604               -6.18181512               -4.11997339              150.73949378               -9.13578517
              61.66995005               11.49443193               83.25124837                0.00010000                4.72383973                2.12806454               -9.11936017               -3.23603977              142.72443483              -10.19048595
              62.71619531                7.80678459               82.59622921                0.00010000                4.72855284                3.42543713              -12.41809150               -2.37718554              132.00280119              -12.40020631
              63.76452111                4.11943611               81.83599277                0.00010000                5.17482163                4.77235169              -16.17046354               -1.85909699              119.00179076              -15.31674081
              64.81969174                0.43317128               80.94336573                0.00010000                6.05979088                6.12984740              -20.34656927               -1.46518014              103.40715534              -18.96203046
              65.88571693               -3.25178326               79.88704368                0.00010000                7.27557521                7.48078632              -24.81850539               -1.11502025               84.69692279              -23.58226456
              66.96520324               -6.93521666               78.62818892                0.00010000                8.66588482                8.79777878              -29.38226642               -0.74985033               61.75675987              -29.74020841
              68.05903462              -10.61703108               77.11283736                0.00010000               10.05437563               10.03455295              -33.78564866               -0.36597412               33.09397118              -38.78042491
              69.16629076              -14.29784809               75.27320011                0.46019398               10.72561313               11.12353906              -37.76724151               -0.00944143               17.48719493              -55.84880627
              62.17299287               23.45403213               86.09829564                0.74204449                0.51033318               -0.42935480                0.86748879                0.71147760                6.05637549               11.39267403
              63.17809621               19.86570607               83.94800660                0.46151992                4.77148283                1.19604326               -4.12310479               -3.72423526               96.34419595              -10.54842607
              64.26842253               16.18439096               83.60444492                0.44020653                7.67742538                0.18346898               -6.79760648               -2.90301858              178.96361743               -4.56652719
              65.33164471               12.51423766               83.15199693                0.43826170                5.75275612                1.98057239               -9.69582449               -1.00105423              167.22335135               -5.06528967
              66.38347765                8.84098055               82.61056070                0.43757822                5.13064538                3.41959566              -13.01775395               -0.57484098              155.71747355               -6.11595253
              67.43425762                5.16817614               81.95899182                0.43787084                5.35415074                4.87400377              -16.83639473               -0.27018319              142.15929007               -7.57382464
              68.49056067                1.49610386               81.17096031                0.43965744                6.15177470                6.29325806              -21.10421330               -0.06829070              126.08853679               -9.40261170
              69.55729312               -2.17492753               80.21447933                0.44303589                7.35158301                7.68557277              -25.67569439                0.10636272              106.79238832              -11.74419704
              70.63759233               -5.84492126               79.04786006                0.44771111                8.77586469                9.02954024              -30.33106076                0.27568949               82.82967812              -14.95155663
              71.73281041               -9.51419191               77.61019738                0.45462673               10.23711901               10.28391652              -34.80624223                0.44787014               49.60254179              -19.76462105
              72.84233471              -13.18351542               75.76918829                0.73032287               10.95242994               11.43326639              -38.83122768                0.67204402               30.16847051              -32.63523021
              26.47612652               13.98893337               90.05984778                0.78727484               -1.29879932               -1.43995599                4.95109843               -0.39362734               -7.01488979                7.46582557
              27.46313852               10.14833974               89.14706341                0.51415181               -1.35625343               -0.84264394                3.31016445               -0.57090046               -9.05776249               -6.06728014
              28.44900145                6.29830587               88.19176642                0.46460331               -1.15840621               -0.47642845                1.84051574               -0.35512744               -8.65729813                0.15702517
              29.43997040                2.43412320               87.28351853                0.45277264               -0.58848157               -0.01079110                0.39238859               -0.35567472               -5.97765022               -0.31560420
              30.43723182               -1.44019237               86.37869859                0.45081663                0.05533492                0.46087280               -1.08292287               -0.34350966               -5.56211550               -0.20407320
              31.44107710               -5.32022868               85.47668479                0.45437710                0.70950443                0.94579232               -2.58135459               -0.33595760               -5.46639636               -0.14332521
              32.45142191               -9.20168015               84.57316437                0.46439735                1.34143021                1.43142574               -4.11088074               -0.33009011               -5.87812621               -0.07726943
              33.46790570              -13.08131222               83.66384461                0.48118972                1.91969085                1.91386075               -5.66949768               -0.32542760               -6.78753121               -0.01110977
              34.48981572              -16.95752764               82.74450528                0.50762258                2.40620227                2.38971173               -7.24700053               -0.31756872               -8.44922290               -0.01334438
              35.51602975              -20.83100059               81.80555595                0.54458904                2.78677496                2.86052220               -8.82348311               -0.30035851               -9.01883734                0.74265888
              36.54555122              -24.70509155               80.87946989                0.78844031                2.95214743                3.35825464              -10.43522986               -0.05308782               -8.65097030               -5.46005232
              30.31278387               14.97453381               89.69639407                0.53742872               -1.00406031               -1.46540368                4.31293701               -0.25177937                6.13301540               12.38101417
              31.30274327               11.13991330               88.78156381                0.08263025               -0.51127147               -0.60426632                2.68543244               -0.65197184               13.86592685              -11.19710236
              32.30255845                7.29354158               88.02037589                0.04577044                0.14597493               -0.82859562                1.34752668               -1.60084251               20.31850092              -15.14679828
              33.30566277                3.43401529               87.23636683                0.03829651                0.42071060               -0.46932691               -0.16698308               -2.34604762               19.38692971              -22.44855787
              34.31097266               -0.43558364               86.45902730                0.04005379                0.63993201                0.02453128               -1.76272414               -2.80744305               19.62494829              -30.57342560
              35.31846141               -4.31077075               85.68219544                0.04370535                0.88450582                0.54565652               -3.41897361               -2.93504374               19.43401751              -39.61030645
              36.32866277               -8.18736589               84.90310083                0.05017468                1.20568801                1.01554650               -5.10646554               -2.71389415               18.95633769              -49.71269607
              37.34257517              -12.06217361               84.11834311                0.05995280                1.64107232                1.39113068               -6.81974163               -2.15227480               18.11672015              -61.06222905
              38.36148422              -15.93363052               83.32380034                0.07466950                2.21164732                1.65475110               -8.52591501               -1.29230626               17.04026391              -73.87699868
              39.38680812              -19.80239536               82.51872098                0.09211144                2.88135423                1.85317410              -10.21962015               -0.19815935               13.71336513              -88.45005234
              40.41911130              -23.67150900               81.65880140                0.52166102                3.23031876                1.91619159              -11.81413543                1.34263292               10.90291879             -108.01165305
              34.14033195               15.95962530               89.42936137                0.49940889               -0.92406344               -1.34357300                3.95899737               -0.06810064               -0.51137183               16.04873535
              35.13109132               12.13625441               88.31265778                0.02595079               -0.87246690               -0.35277015                1.97090856               -1.49420480               16.85704716              -14.37854966
              36.12288261                8.28173395               87.54236493                0.00010000               -0.44583229               -0.69896827                0.54505310               -3.56778688               33.00070903              -29.34189377
              37.12217467                4.42473666               86.74656037                0.00010000                0.14931915               -0.47825564               -1.10438248               -4.37558326               30.65894907              -43.89392955
              38.12586900                0.56029825               85.93252198                0.00010000                0.59919001                0.02334610               -2.99807086               -5.12479493               28.52935269              -60.01253998
              39.13415847               -3.30931555               85.09946751                0.00010000                1.13389405                0.58105958               -5.11830910               -5.38148729               26.06350511              -77.84190020
              40.14854688               -7.18136922               84.24196052                0.00010000                1.84831823                1.06371718               -7.43101820               -5.06476801               23.05930428              -97.74365607
              41.17112484              -11.05348960               83.35398029                0.00010000                2.78222378                1.38851424               -9.87466366               -4.17619574               19.48328808             -120.06527906
              42.20419135              -14.92443262               82.42850682                0.00010000                3.94101028                1.53256849              -12.36103087               -2.77637145               14.95938078             -145.14803379
              43.24994504              -18.79393710               81.45123519                0.00010000                5.32199006                1.54110877              -14.76006620               -1.18382339                8.31783139             -173.59206169
              44.31063115              -22.66676772               80.39089335                0.45354941                6.06861127                1.70981455              -16.93714745                0.55335857                4.51512254             -203.83876159
              37.95816363               16.94766235               89.13495477                0.49285453               -0.74131103               -1.10803734                3.55173598               -0.09252635                0.05153243               15.30400217
              38.95075052               13.13285790               87.88541011                0.01677015               -0.77215836               -0.28208735                1.30063828               -1.84473245               22.45238060              -12.37665730
              39.94272046                9.27956222               87.08318561                0.00010000               -0.55818582                0.04157675               -0.27934048               -3.73893480               44.07217454              -27.57705473
              40.93958680                5.42445017               86.26478672                0.00010000               -0.00957492                0.35842674               -2.13163872               -4.12325349               41.66997075              -42.32523757
              41.94252896                1.56488328               85.41823855                0.00010000                0.64561671                0.86473210               -4.32886512               -4.55407694               38.10541421              -57.81212399
              42.95249914               -2.29914956               84.53561116                0.00010000                1.45062523                1.44549584               -6.87492799               -4.70837964               33.67395696              -74.76588301
              43.97154147               -6.16609155               83.60854121                0.00010000                2.48077579                2.00210715               -9.72412091               -4.45556803               28.44070582              -93.62419458
              45.00211465              -10.03440332               82.62840787                0.00010000                3.74314117                2.46715038              -12.78199627               -3.79810755               22.44149500             -114.74031734
              46.04640429              -13.90297915               81.58588287                0.00010000                5.16760480                2.82709783              -15.90261209               -2.83056943               15.60978003             -138.35775142
              47.10546675              -17.77157319               80.46966338                0.00010000                6.47177034                3.15222623              -18.89130043               -1.58904144                8.01015634             -164.27982590
              48.17583970              -21.63731271               79.27080222                0.45405447                7.03729497                3.88128464              -21.49497146               -0.46698741                4.28948183             -191.28691475
              41.76809033               17.93746455               88.84927520                0.49318477               -0.57935287               -0.95983661                3.21427573               -0.09409936                0.03858992               16.06810953
              42.76229680               14.13061267               87.45848320                0.01541758               -0.57893450               -0.13403196                0.57576251               -1.99086455               28.71800059              -12.34698408
              43.75651164               10.28256549               86.64081447                0.00010000               -0.39541327                0.50543821               -1.15607630               -3.90108425               56.40750522              -26.05225066
              44.75438854                6.43190519               85.80455607                0.00010000                0.09377756                1.05064526               -3.22612237               -4.02724405               53.43452931              -39.78957908
              45.75838719                2.57759290               84.93308802                0.00010000                0.82885836                1.63589347               -5.71452024               -4.20224124               48.73883263              -54.13350804
              46.77096570               -1.28040563               84.01179821                0.00010000                1.81510426                2.28427537               -8.63858258               -4.22520560               42.62839939              -69.73734551
              47.79468928               -5.14132708               83.02799908                0.00010000                3.05422917                2.95115270              -11.94671998               -3.99577838               35.38275509              -87.11626918
              48.83205029               -9.00414660               81.97031013                0.00010000                4.50302754                3.59707325              -15.52017385               -3.50140867               27.23343848             -106.65707721
              49.88474983              -12.86789066               80.82858748                0.00010000                6.02237417                4.21762976              -19.17390893               -2.75017953               18.41876630             -128.58564783
              50.95249777              -16.73089258               79.59469449                0.00010000                7.40103096                4.89354917              -22.66010504               -1.66048163                9.23497140             -152.86542709
              52.03277045              -20.58914202               78.26401565                0.45424806                8.02726763                5.65868970              -25.68869228               -0.49628120                4.87000480             -179.35490284
              45.56998541               18.92846562               88.56706273                0.49228970               -0.41531205               -0.85285512                2.88625755               -0.09180090                0.08857709               16.44519333
              46.56583229               15.13017726               87.03354563                0.01452763               -0.32895803                0.06392404               -0.16195744               -2.03910216               35.80834360              -12.31136838
              47.56340625               11.28967098               86.21418873                0.00010000               -0.09088888                0.90653411               -2.08568404               -3.95061770               70.32070328              -24.42939783
              48.56401451                7.44546308               85.37456913                0.00010000                0.36943561                1.61979677               -4.36958956               -3.98039565               66.75755031              -36.44713978
              49.57079496                3.59760115               84.49235068                0.00010000                1.14502420                2.31998480               -7.12337976               -3.97957574               60.94502077              -49.04023165
              50.58691500               -0.25346406               83.54782435                0.00010000                2.22859514                3.07097537              -10.37499286               -3.86946425               53.26485572              -62.81153572
              51.61536687               -4.10706849               82.52391661                0.00010000                3.58675332                3.87651317              -14.07095322               -3.60450617               44.10030655              -78.29003213
              52.65865006               -7.96246186               81.40603913                0.00010000                5.13899100                4.71575498              -18.07631829               -3.16287365               33.81956517              -95.92321489
              53.71814669              -11.81862656               80.18222166                0.00010000                6.74292084                5.57972285              -22.17848342               -2.50207812               22.79410250             -116.07592726
              54.79350848              -15.67370221               78.84381355                0.00010000                8.21331378                6.46006528              -26.09997912               -1.49403616               11.41727674             -139.02488850
              55.88241296              -19.52413892               77.38649155                0.45478888                8.89044808                7.28827521              -29.52648869               -0.44321298                5.99053728             -164.96340941
              49.36283104               19.92040745               88.28668718                0.49194906               -0.25216366               -0.76750366                2.57457825               -0.09616107                0.11062329               16.56998664
              50.36030940               16.13189115               86.60867810                0.01447986               -0.03087837                0.29058642               -0.92059388               -2.06570669               43.92803203              -12.42249237
              51.36221347               12.30069617               85.80702070                0.00010000                0.32705286                1.29202638               -3.04861351               -3.96670596               86.29182439              -22.39342154
              52.36685046                8.46430113               84.98370157                0.00010000                0.77546718                2.10913007               -5.53535359               -3.94554486               82.11549577              -32.16127246
              53.37772281                4.62399259               84.11057576                0.00010000                1.56978030                2.90498724               -8.51969390               -3.79995653               75.16445545              -42.47693956
              54.39824606                0.78101388               83.16293862                0.00010000                2.69370735                3.77349721              -12.04663006               -3.54444707               65.91330188              -53.95364049
              55.43159696               -3.06379681               82.11945229                0.00010000                4.10524079                4.73040009              -16.06479620               -3.20192573               54.81265135              -67.10043547
              56.48035088               -6.90983150               80.96165438                0.00010000                5.71758272                5.75255453              -20.42834811               -2.75462314               42.26384189              -82.42524785
              57.54594861              -10.75629620               79.67388481                0.00010000                7.38892657                6.80907332              -24.90527268               -2.14096283               28.66182207             -100.48647389
              58.62812941              -14.60169127               78.24414575                0.00010000                8.94154983                7.85130669              -29.19626521               -1.25455469               14.44474911             -121.86467729
              59.72477961              -18.44337652               76.66551879                0.45505503                9.66502003                8.78207699              -32.97013433               -0.34128665                7.56225298             -147.06023736
              53.14509479               20.91311555               88.00558961                0.49007171               -0.08653572               -0.69837312                2.25724428               -0.10671366                0.16370796               16.42534586
              54.14422944               17.13598899               86.18250011                0.01521863                0.32836790                0.53906578               -1.69022460               -2.10606149               53.37587451              -12.66787628
              55.15166215               13.31551151               85.42392153                0.00010000                0.87888792                1.64301487               -4.02196827               -3.97492960              104.83360789              -19.78260650
              56.16180719                9.48764568               84.64218929                0.00010000                1.32104669                2.48496765               -6.68318602               -3.88725827               99.94171883              -26.68146022
              57.17808309                5.65570089               83.80280410                0.00010000                2.10041335                3.35565107               -9.85418185               -3.54547728               91.74534172              -34.29899095
              58.20381546                1.82200589               82.87645150                0.00010000                3.20453198                4.36110522              -13.60375589               -3.13212134               80.88041990              -43.09852417
              59.24217372               -2.01246049               81.83813877                0.00010000                4.61207653                5.47364212              -17.88457463               -2.71133405               67.82599952              -53.47297397
              60.29605699               -5.84741077               80.66503861                0.00010000                6.25067419                6.65765745              -22.54174419               -2.25982055               52.87211768              -65.93842795
              61.36718721               -9.68244509               79.33565030                0.00010000                7.97203560                7.87007522              -27.32562729               -1.70760546               36.28160502              -81.25353372
              62.45549770              -13.51667607               77.83110313                0.00010000                9.58852551                9.04790442              -31.91611244               -0.97354313               18.46699369             -100.46413692
              63.55895772              -17.34849738               76.13833752                0.45560187               10.34600143               10.08548466              -35.96503992               -0.22023074                9.66817389             -124.56825567
              56.91494988               21.90643999               87.72169336                0.48818398                0.08423268               -0.63201238                1.91798946               -0.11132382                0.25968018               16.21521942
              57.91579221               18.14267246               85.75346380                0.01738296                0.80541515                0.80047747               -2.46829511               -2.20603045               64.53155403              -13.26587022
              58.93105818               14.33355647               85.07120796                0.00010000                1.65618485                1.83915526               -4.97162991               -3.97669844              126.57388680              -16.02857310
              59.94891590               10.51400048               84.36265173                0.00010000                2.06974368                2.61335373               -7.75062874               -3.58373221              120.60561891              -19.60065176
              60.97245306                6.69110561               83.58501434                0.00010000                2.74245581                3.64731774              -11.05675409               -3.00216866              110.87822573              -24.37481411
              62.00376502                2.86823598               82.70759576                0.00010000                3.71669389                4.82090277              -14.97966435               -2.47649663               98.41784599              -30.26605986
              63.04678694               -0.95432397               81.70359011                0.00010000                5.06870222                6.08811117              -19.47300758               -2.05136513               83.55529931              -37.45354166
              64.10513907               -4.77667835               80.54604624                0.00010000                6.71374362                7.40889674              -24.37018196               -1.65323035               66.26700240              -46.37228994
              65.18106181               -8.59889470               79.20562325                0.00010000                8.47858845                8.74038234              -29.40205622               -1.20791116               46.36147517              -57.83815544
              66.27471083              -12.42073319               77.65048773                0.00010000               10.14778982               10.02394458              -34.22347013               -0.66013387               23.97863721              -73.49473563
              67.38401760              -16.24166683               75.85453826                0.45592139               10.93067697               11.15646558              -38.46238710               -0.08297987               12.61858453              -95.91899990
              60.67040336               22.90047530               87.43640553                0.48167285                0.25889819               -0.54102452                1.57404711               -0.11101459               -0.33495587               13.96510015
              61.67299235               19.15199854               85.31595525                0.01722151                1.51984003                1.05247887               -3.28408359               -2.48522384               78.04522975              -12.28182374
              62.70080016               15.35229461               84.76391118                0.00010000                2.97955294                1.36140119               -5.82088782               -3.16863407              152.53588268               -9.53673389
              63.73258340               11.53991275               84.16183457                0.00010000                3.15020244                2.53886556               -8.63902019               -2.49689254              143.93265009              -10.57462577
              64.76380421                7.72864725               83.47333116                0.00010000                3.35658544                3.82185862              -12.03131227               -1.83327274              132.44074642              -12.77556075
              65.79971511                3.91842394               82.67416446                0.00010000                4.11282687                5.17826734              -16.09164167               -1.43694462              118.67532149              -15.69762157
              66.84606075                0.10930173               81.73758620                0.00010000                5.39240005                6.57905166              -20.76240513               -1.15155908              102.47027180              -19.37279014
              67.90756311               -3.69923283               80.63383263                0.00010000                7.05115372                8.00271341              -25.85991972               -0.90686454               83.42565882              -24.05244858
              68.98708382               -7.50763744               79.32650554                0.00010000                8.87520207                9.41401778              -31.09371930               -0.64197081               60.52041424              -30.29986475
              70.08506716              -11.31619718               77.76471264                0.00010000               10.60407884               10.75953620              -36.08965698               -0.33162975               32.31062311              -39.45104128
              71.19916540              -15.12536807               75.88395120                0.45631814               11.40982460               11.97476248              -40.43346754                0.05838121               17.14115011              -56.61889872
              64.40968311               23.89561950               87.10802141                0.74024128                0.45853028               -0.48558024                1.08611537                0.73822946                6.24995914               11.75596256
              65.41426842               20.16372204               84.90723834                0.45920602                3.50440856                1.17235042               -4.02095030               -2.61414311               97.77082111              -10.87210957
              66.47977128               16.36078449               84.53798742                0.43947152                5.41785010                0.84898789               -6.39995106               -2.05010032              181.04604944               -4.77317364
              67.52262542               12.56477779               84.05683736                0.43808827                3.87525640                2.48650388               -9.20273137               -0.65788384              168.50546827               -5.27393302
              68.55727641                8.76754279               83.48147317                0.43756897                3.58731135                3.88955382              -12.66355987               -0.30160326              156.09708327               -6.31863260
              69.59437165                4.97180133               82.79002833                0.43760769                4.20680594                5.33773840              -16.85186106               -0.04863292              141.68996052               -7.77270551
              70.64141253                1.17725706               81.95680220                0.43913817                5.47846519                6.79553320              -21.68604980                0.11390780              124.96799259               -9.60253501
              71.70394095               -2.61662408               80.95155090                0.44199772                7.18871033                8.26087553              -26.95899530                0.24421321              105.33562525              -11.95406619
              72.78518674               -6.41061434               79.73521037                0.44593769                9.09339564                9.70231005              -32.35842613                0.36437217               81.43703746              -15.18201736
              73.88580886              -10.20554246               78.25009890                0.45164955               10.91701297               11.06547185              -37.49098197                0.49630894               48.71982054              -20.02373533
              75.00352700              -14.00217158               76.36746480                0.72839921               11.77181357               12.31964888              -41.89377367                0.77324819               29.76867280              -32.90090510
              27.32678715               14.43042976               91.10789866                0.77991740               -1.21170842               -1.33871849                4.65296804               -0.36701089               -7.05415973                7.51130162
              28.31467006               10.45602613               90.17918345                0.50628442               -1.21320781               -0.80282201                3.10920582               -0.49912135               -8.99270978               -6.12370343
              29.30252299                6.47380720               89.20982477                0.46235253               -0.97173662               -0.44562555                1.77000295               -0.34611543               -8.42235436                0.16909180
              30.29523533                2.48087334               88.28770500                0.45207728               -0.44437116               -0.00867754                0.44992158               -0.34705039               -5.69909577               -0.32076055
              31.29363557               -1.51922874               87.36880158                0.45049894                0.12850540                0.43368840               -0.88491606               -0.34330243               -5.28264434               -0.20564288
              32.29780544               -5.52306876               86.45250602                0.45329963                0.70055826                0.88733760               -2.23954356               -0.34047304               -5.20990050               -0.15224340
              33.30764673               -9.52750685               85.53436060                0.46175180                1.25262739                1.34341150               -3.62672416               -0.33532708               -5.66247800               -0.08333293
              34.32285799              -13.53034581               84.61009976                0.47553001                1.76173199                1.79957349               -5.04760675               -0.32623657               -6.61722792               -0.03141023
              35.34288137              -17.53080639               83.67558640                0.49745331                2.18942435                2.25075405               -6.49625688               -0.31610944               -8.31233545               -0.03860924
              36.36664647              -21.53011756               82.72149741                0.52831654                2.51669338                2.69104323               -7.93311766               -0.29349697               -8.93021671                0.69495120
              37.39321524              -25.53209907               81.77984405                0.77788570                2.65687672                3.15476855               -9.41685508                0.07692410               -8.62131351               -5.41125395
              31.29752067               15.41704257               90.73827394                0.52811679               -0.95305377               -1.28607024                4.05410835               -0.16672943                6.21634915               12.58009842
              32.28799013               11.44799791               89.80759703                0.07924438               -0.54412183               -0.64824172                2.51656852               -0.47653122               14.08914348              -11.29136986
              33.28663823                7.46935094               89.03333444                0.04572929                0.01463340               -0.69478344                1.23526237               -1.18947552               20.52152753              -15.22744848
              34.28828280                3.48078657               88.23438642                0.03834046                0.27676836               -0.29801861               -0.23569265               -1.79762479               19.40433698              -22.54391647
              35.29217360               -0.51489186               87.44137362                0.03982323                0.51284832                0.18028977               -1.77963660               -2.21883484               19.53327197              -30.74040874
              36.29853976               -4.51419539               86.64818672                0.04285017                0.78791935                0.64879485               -3.38525827               -2.38609241               19.28053242              -39.93456915
              37.30793198               -8.51407274               85.85248501                0.04829541                1.13528134                1.04222656               -5.02597794               -2.25160953               18.77397000              -50.28533595
              38.32124539              -12.51235007               85.05076754                0.05650504                1.58370849                1.32181583               -6.68809074               -1.78636768               17.93424186              -61.95772839
              39.33960615              -16.50829885               84.23942581                0.06883747                2.15562251                1.46549418               -8.34860267               -0.99703085               16.87987755              -75.13786424
              40.36435784              -20.50320713               83.41766714                0.08280492                2.81799166                1.50571992               -9.98213044                0.09804423               13.60858779              -90.06110388
              41.39596599              -24.50055138               82.54210106                0.51062915                3.16081470                1.26394067              -11.49684820                1.90456915               10.84112053             -109.84857866
              35.26154189               16.40470835               90.46790967                0.49409759               -0.87108172               -1.10962273                3.72944650               -0.07068604               -0.58304412               16.43236561
              36.25283107               12.44306130               89.33183794                0.02486978               -0.77985314               -0.47436150                1.85503074               -1.02125989               17.09690751              -14.55628383
              37.24594482                8.45991153               88.54822490                0.00010000               -0.46527162               -0.59054425                0.65578201               -2.47142560               33.50132550              -29.44017524
              38.24352564                4.47491297               87.73652531                0.00010000               -0.08519979               -0.25539395               -0.85509180               -3.17397943               30.86289465              -44.01801504
              39.24424083                0.48437705               86.90376602                0.00010000                0.28694171                0.26668564               -2.69670461               -3.88754387               28.40101743              -60.29817220
              40.24926447               -3.51009287               86.04940079                0.00010000                0.82642005                0.78266976               -4.84234233               -4.23327277               25.62445903              -78.44916300
              41.26076923               -7.50666232               85.16835707                0.00010000                1.60461384                1.17632389               -7.24752469               -4.08925829               22.36896074              -98.84706425
              42.28135675              -11.50390949               84.25533420                0.00010000                2.65142911                1.36813604               -9.83682849               -3.40367256               18.64223969             -121.80391606
              43.31379781              -15.50149651               83.30425169                0.00010000                3.97515700                1.32745703              -12.50078871               -2.18279557               14.12723381             -147.61913843
              44.36085989              -19.50000316               82.30232852                0.00010000                5.60986596                1.06482818              -15.06840293               -0.79659105                7.72813132             -176.80002213
              45.42599513              -23.50682025               81.21998041                0.45037756                6.51352424                0.82970853              -17.32530376                0.97612561                4.28071927             -207.82087604
              39.21940106               17.39485012               90.16963922                0.48805476               -0.70393077               -0.91758301                3.37810864               -0.09311545                0.03338239               15.75917827
              40.21236175               13.43851068               88.89804354                0.01644311               -0.70215099               -0.38990942                1.21665366               -1.16606554               22.82592748              -12.62223954
              41.20535804                9.45754006               88.08147674                0.00010000               -0.60120348               -0.02917969               -0.00818992               -2.38747365               44.77583253              -27.73769639
              42.20033768                5.47567869               87.24541151                0.00010000               -0.29647422                0.37712234               -1.65703663               -2.72951269               42.01419436              -42.52330065
              43.19942856                1.49044186               86.37710769                0.00010000                0.22879992                0.93371663               -3.79875458               -3.15936608               37.98570392              -58.16779843
              44.20491368               -2.49854199               85.46863850                0.00010000                1.02674426                1.52523791               -6.42683245               -3.38962297               33.08923336              -75.41441723
              45.21996344               -6.49054626               84.51217870                0.00010000                2.15462216                2.05450669               -9.47930277               -3.28621177               27.47034952              -94.70601515
              46.24800613              -10.48498735               83.50017024                0.00010000                3.60402347                2.45203186              -12.83688057               -2.82527751               21.24903594             -116.38643735
              47.29204391              -14.48174971               82.42495888                0.00010000                5.28718185                2.69582297              -16.31018814               -2.09760427               14.45260964             -140.66760128
              48.35374976              -18.48191057               81.27750621                0.00010000                6.85393846                2.84244476              -19.63363443               -1.17145321                7.25457115             -167.33426516
              49.42912268              -22.48395721               80.05187604                0.45063781                7.53729181                3.41070369              -22.44262144               -0.22719661                3.96093727             -195.13588735
              43.17235845               18.38635669               89.88091200                0.48973513               -0.55386366               -0.81108778                3.09544602               -0.09882557                0.01018667               16.59574964
              44.16681982               14.43526311               88.46393976                0.01551946               -0.56655567               -0.22399356                0.51652027               -1.18998297               29.23211855              -12.65767605
              45.16102734               10.45932794               87.63081815                0.00010000               -0.53931161                0.36354574               -0.77287156               -2.32777647               57.35084354              -26.32634808
              46.15603359                6.48245542               86.77487646                0.00010000               -0.28765770                0.93823492               -2.59666179               -2.43519417               53.93360544              -40.10523116
              47.15527419                2.50305139               85.87870870                0.00010000                0.32132700                1.57771834               -5.03333672               -2.64065711               48.68401838              -54.58538537
              48.16246013               -1.47958811               84.92757170                0.00010000                1.31080828                2.26979427               -8.08792809               -2.75984783               42.00942832              -70.43557601
              49.18149035               -5.46557219               83.90939444                0.00010000                2.67972612                2.95826897              -11.68782815               -2.69381472               34.29533107              -88.18129040
              50.21605465               -9.45486886               82.81415606                0.00010000                4.36392916                3.59896432              -15.67985803               -2.42424388               25.88198534             -108.20972235
              51.26876894              -13.44758005               81.63383279                0.00010000                6.17918369                4.18615649              -19.82252971               -1.96171306               17.12022715             -130.74095685
              52.33963832              -17.44315427               80.36316938                0.00010000                7.83877766                4.81886418              -23.77944978               -1.24295796                8.39809909             -155.72803467
              53.42554449              -21.43860618               79.00098415                0.45118760                8.59061673                5.55547240              -27.13833025               -0.25707179                4.49877249             -183.02528181
              47.11961172               19.37862836               89.59566517                0.48918506               -0.40208713               -0.75506374                2.83046752               -0.10650921                0.08534092               17.00003239
              48.11559085               15.43403081               88.03176601                0.01488534               -0.40007605               -0.00128873               -0.20063048               -1.18626463               36.46744158              -12.65489454
              49.11161020               11.46481097               87.19520501                0.00010000               -0.38402503                0.74061556               -1.62732709               -2.27002349               71.50326903              -24.82048273
              50.10791035                7.49444339               86.33384852                0.00010000               -0.14756299                1.45230993               -3.64358086               -2.26267446               67.43890900              -36.89556656
              51.10865894                3.52199622               85.42421153                0.00010000                0.52149745                2.20370446               -6.35743631               -2.31049704               60.99973785              -49.59809369
              52.11834030               -0.45314611               84.44635874                0.00010000                1.63544759                3.01910124               -9.78370342               -2.32750533               52.68263142              -63.56047127
              53.14136789               -4.43138088               83.38386749                0.00010000                3.15944050                3.88311205              -13.84444980               -2.25741070               42.98916495              -79.33140986
              54.18152911               -8.41300807               82.22370079                0.00010000                4.98635844                4.77044028              -18.36411194               -2.06963558               32.41061291              -97.36881290
              55.24109506              -12.39802658               80.95632896                0.00010000                6.91938117                5.67927944              -23.06472333               -1.72004974               21.43558337             -118.04000774
              56.31991673              -16.38553328               79.57632299                0.00010000                8.68950038                6.61759672              -27.57134236               -1.08329678               10.54574739             -141.62087977
              57.41488507              -20.37284776               78.08307608                0.45171381                9.49683366                7.53316737              -31.43928542               -0.21227129                5.59965125             -168.30095637
              51.05942338               20.37125542               89.31248467                0.48880250               -0.25114641               -0.72330331                2.57358379               -0.10408794                0.10518337               17.13393239
              52.05691192               16.43523733               87.59939910                0.01495637               -0.21045432                0.24989653               -0.93023618               -1.20671923               44.72165672              -12.78733011
              53.05521429               12.47414025               86.77860592                0.00010000               -0.16585335                1.13578240               -2.54388059               -2.27711894               87.71257164              -22.88702802
              54.05359485                8.51150162               85.93150602                0.00010000                0.07197240                1.95581714               -4.76078250               -2.19619114               82.99038329              -32.72764620
              55.05665374                4.54712548               85.02856176                0.00010000                0.78461366                2.80990491               -7.72478750               -2.11944667               75.35183322              -43.12104972
              56.06928712                0.58079392               84.04464918                0.00010000                1.97751785                3.75502844              -11.46884698               -2.02791762               65.39830264              -54.72817409
              57.09620410               -3.38790995               82.95907208                0.00010000                3.60102581                4.79290725              -15.91511653               -1.91152119               53.71348119              -68.08782036
              58.14130764               -7.35946005               81.75505112                0.00010000                5.53445287                5.90088978              -20.87259229               -1.73564524               40.83191657              -83.72369157
              59.20689316              -11.33399446               80.41959341                0.00010000                7.57429648                7.05646775              -26.03739043               -1.42947985               27.27030063             -102.19899647
              60.29279357              -15.31080233               78.94417790                0.00010000                9.45174355                8.22829918              -31.00534115               -0.88582537               13.55267899             -124.09119374
              61.39592803              -19.28794283               77.32580623                0.45180937               10.31344593                9.34142792              -35.30763756               -0.12844714                7.16067075             -149.89451730
              54.98956614               21.36416230               89.02843707                0.48679250               -0.09944984               -0.68905059                2.31877118               -0.09648352                0.17160318               16.97336757
              55.98857164               17.43902874               87.16570829                0.01571250                0.01187015                0.50754781               -1.67148636               -1.26130352               54.30173895              -13.04049833
              56.98980354               13.48752662               86.38585191                0.00010000                0.12148312                1.53978362               -3.49288177               -2.34425980              106.48309230              -20.35138565
              57.99100130                9.53355973               85.57853795                0.00010000                0.35870849                2.42582185               -5.89707188               -2.20136563              101.01217593              -27.31681721
              58.99697771                5.57819432               84.70733860                0.00010000                1.09080349                3.36614964               -9.07451167               -1.98064935               92.06265474              -34.97132944
              60.01281737                1.62195446               83.74228597                0.00010000                2.32068630                4.44505205              -13.08425075               -1.76983915               80.42347222              -43.83878189
              61.04339144               -2.33552274               82.65899032                0.00010000                4.00416747                5.64492987              -17.85167969               -1.59242111               66.72482835              -54.34689805
              62.09290072               -6.29499027               81.43641899                0.00010000                6.02281569                6.93384831              -23.17259847               -1.40848219               51.40084449              -67.02779570
              63.16384775              -10.25689723               80.05594861                0.00010000                8.16239389                8.27496428              -28.71851562               -1.13703252               34.84141087              -82.64180712
              64.25614860              -14.22096730               78.50243523                0.00010000               10.13746885                9.62075720              -34.05567632               -0.68796741               17.54408050             -102.22333139
              65.36659713              -18.18601920               76.76694937                0.45227280               11.04485288               10.89814775              -38.68963020               -0.04358495                9.25116898             -126.75328614
              58.90776083               22.35747441               88.74146663                0.48512309                0.05606961               -0.64313344                2.03855095               -0.09924497                0.27487699               16.75192946
              59.90832152               18.44538829               86.72902405                0.01782954                0.30186411                0.76529406               -2.41632018               -1.35966050               65.60076625              -13.66457251
              60.91379811               14.50493592               86.02367455                0.00010000                0.52891581                1.87577530               -4.43106029               -2.43084643              128.46418749              -16.60728646
              61.91889984               10.56001805               85.28824458                0.00010000                0.74239580                2.75970286               -6.97588237               -2.11528373              121.86558847              -20.20642384
              62.92864602                6.61444847               84.47728974                0.00010000                1.43537785                3.83101108              -10.32095359               -1.73102299              111.29093516              -24.97106294
              63.94760739                2.66969496               83.55922259                0.00010000                2.63271928                5.05483224              -14.55051776               -1.42523459               97.96625078              -30.87650402
              64.98130041               -1.27501135               82.50783739                0.00010000                4.34525456                6.40130657              -19.58984257               -1.22202393               82.39080297              -38.12861764
              66.03451249               -5.22078308               81.29811730                0.00010000                6.44145616                7.83266924              -25.21828007               -1.05368894               64.69453669              -47.17468002
              67.11012953               -9.16849518               79.90383509                0.00010000                8.68218556                9.30480785              -31.07903990               -0.83601669               44.81925344              -58.82844300
              68.20815620              -13.11838719               78.29719627                0.00010000               10.75153046               10.76521116              -36.69991764               -0.49159375               22.99145384              -74.71204020
              69.32516014              -17.06997988               76.45653047                0.45280787               11.70039441               12.14333023              -41.54899946                0.04270699               12.16883833              -97.35959350
              62.81175347               23.35129963               88.45303617                0.47868884                0.21634418               -0.57773939                1.75194820               -0.10663230               -0.34683822               14.42022244
              63.81391692               19.45433462               86.28348934                0.01742856                0.74016866                1.01547009               -3.19487988               -1.55161995               79.30810304              -12.65915907
              64.82655685               15.52504213               85.70792932                0.00010000                1.26330812                1.79195422               -5.26605012               -1.98172188              154.72962306               -9.96892064
              65.83918308               11.58875379               85.07846797                0.00010000                1.30617498                2.93676798               -7.87437170               -1.54295493              145.34309299              -10.97812904
              66.85268035                7.65481454               84.35560297                0.00010000                1.72947094                4.19376980              -11.34466308               -1.10601750              132.86218974              -13.14911654
              67.87377250                3.72305111               83.51415993                0.00010000                2.83743252                5.56496687              -15.76652525               -0.85953665              118.12181539              -16.05761353
              68.90942900               -0.20749660               82.52811763                0.00010000                4.57691353                7.03162581              -21.05100629               -0.71452278              101.13207686              -19.75014693
              69.96531077               -4.13833689               81.36984529                0.00010000                6.76512623                8.56688479              -26.95442546               -0.61097510               81.64826104              -24.48413035
              71.04473152               -8.07080107               80.00631454                0.00010000                9.12453286               10.12619525              -33.08939068               -0.48353228               58.78679807              -30.82064500
              72.14780143              -12.00566307               78.39104422                0.00010000               11.29525607               11.64740210              -38.93650805               -0.27776695               31.20247489              -40.07759654
              73.27063664              -15.94315260               76.46453076                0.45290011               12.28352185               13.07095715              -43.88923505                0.14185899               16.62932479              -57.29829457
              66.69955820               24.34591962               88.12001795                0.73829216                0.39884284               -0.53800092                1.31251869                0.75827918                6.44876407               12.13635994
              67.70354662               20.46569769               85.86758759                0.45730691                2.00931542                1.13630700               -3.88280669               -1.29426004               99.44928721              -11.21710473
              68.73974450               16.54077501               85.47644590                0.43898332                2.73608508                1.57328770               -5.78812534               -1.02844834              183.51950945               -5.02227445
              69.75826833               12.61875341               84.96794230                0.43781938                1.62419256                2.99996258               -8.40552785               -0.21403240              169.92610518               -5.52155741
              70.77222835                8.69832386               84.35728951                0.43737168                1.72297414                4.35093226              -11.99643597                0.06684477              156.35350925               -6.54800415
              71.79272781                4.78099429               83.62195460                0.43784593                2.80847956                5.79431882              -16.61910643                0.26039614              140.85839311               -7.98499217
              72.82839795                0.86562117               82.73723931                0.43900434                4.64348209                7.31177710              -22.15260929                0.37491071              123.29551571               -9.80390356
              73.88559745               -3.04944539               81.67529943                0.44083421                6.96935644                8.88914990              -28.32289607                0.44904628              103.21773819              -12.15479144
              74.96778507               -6.96597127               80.40069154                0.44417788                9.46774693               10.48297993              -34.71377646                0.50566725               79.39822496              -15.39217115
              76.07495239              -10.88543915               78.86037774                0.44889946               11.75956486               12.02239276              -40.77768329                0.58562309               47.39757518              -20.24574959
              77.20297637              -14.80856073               76.93131281                0.72662159               12.80239836               13.45918656              -45.80984952                0.92181406               29.11865594              -33.06272379
              28.19247375               14.87840885               92.15290714                0.77338970               -1.11155347               -1.22840744                4.32589918               -0.33794160               -7.08165443                7.53758585
              29.18135822               10.76903850               91.20924753                0.49907722               -1.02204742               -0.76070932                2.88913288               -0.37628100               -8.89418521               -6.17218190
              30.17203281                6.65466837               90.22716648                0.46015268               -0.71732738               -0.40758837                1.69450514               -0.31798788               -8.11393587                0.17137212
              31.16701167                2.53434515               89.29251696                0.45112819               -0.26274487               -0.00285019                0.51572982               -0.33601916               -5.33136315               -0.32960405
              32.16677791               -1.58944931               88.36100027                0.44954218                0.21541982                0.40930616               -0.66554286               -0.34301640               -4.90358520               -0.20946488
              33.17132007               -5.71463495               87.43189392                0.45211489                0.69003474                0.82780467               -1.86531364               -0.34325613               -4.85332937               -0.15387790
              34.18057860               -9.83959563               86.50062989                0.45882281                1.15076359                1.25265517               -3.09475839               -0.33377515               -5.35256662               -0.09427163
              35.19433534              -13.96327597               85.56289247                0.47025310                1.57963826                1.67133544               -4.35946961               -0.32076226               -6.36267785               -0.04380123
              36.21217137              -18.08597863               84.61458015                0.48802503                1.94162115                2.09255421               -5.65311511               -0.30717292               -8.09637032               -0.06145634
              37.23316776              -22.20944103               83.64689359                0.51283112                2.21301469                2.49924754               -6.92989489               -0.27891504               -8.76456563                0.64478787
              38.25643166              -26.33783064               82.69113279                0.76750680                2.32638991                2.92137112               -8.27338449                0.22445960               -8.51311119               -5.32798235
              32.29846468               15.86612477               91.77747624                0.51884290               -0.89990335               -1.07507581                3.76860700               -0.05229721                6.27803422               12.75388335
              33.28946565               11.76143141               90.83189518                0.07576232               -0.61325374               -0.71781392                2.33379986               -0.20881304               14.26875558              -11.37055900
              34.28619961                7.65059249               90.04508113                0.04542587               -0.18776624               -0.49401109                1.10265533               -0.54629107               20.63143969              -15.16263231
              35.28571032                3.53431664               89.23165298                0.03809573                0.08190937               -0.04969409               -0.31577253               -0.95344829               19.32532810              -22.39069511
              36.28783779               -0.58535625               88.42343456                0.03929949                0.36251731                0.40250294               -1.81544667               -1.32187939               19.36500946              -30.59975201
              37.29296067               -4.70635690               87.61449028                0.04171110                0.68617839                0.79421818               -3.36398380               -1.54881535               19.04834169              -39.93698748
              38.30156136               -8.82706908               86.80258127                0.04616021                1.06792736                1.07957251               -4.96024996               -1.53958170               18.50677523              -50.56351757
              39.31431922              -12.94656261               85.98458130                0.05278522                1.53104038                1.21526714               -6.54644743               -1.21221641               17.65515543              -62.62584417
              40.33218217              -17.06505309               85.15682829                0.06282528                2.09927019                1.18150855               -8.15013444               -0.51577964               16.61760961              -76.25923245
              41.35630462              -21.18444855               84.31907837                0.07360593                2.74418532                0.98322052               -9.71770382                0.60236685               13.42630628              -91.62655137
              42.38706587              -25.30861693               83.42886443                0.49981036                3.07612554                0.24352133              -11.13334552                2.80866657               10.71689753             -111.67823512
              36.40081453               16.85690733               91.50395030                0.48885758               -0.81002891               -0.81405925                3.47667619               -0.04461251               -0.65339361               16.82498809
              37.39271424               12.75468222               90.34975839                0.02391265               -0.62963910               -0.65600630                1.72605424               -0.30766354               17.40866893              -14.74292949
              38.38822175                8.64478815               89.55548057                0.00010000               -0.44113993               -0.41887266                0.83229722               -0.83307115               34.14211426              -29.23170094
              39.38389144                4.53335126               88.72945853                0.00010000               -0.36039404                0.06581830               -0.49847054               -1.38289929               31.12113082              -43.64566759
              40.38101387                0.41860075               87.87858789                0.00010000               -0.09174254                0.59704402               -2.26780020               -2.04617958               28.23954234              -59.97973222
              41.38205659               -3.69875059               87.00262066                0.00010000                0.44894052                1.03740411               -4.44182070               -2.51764003               25.07207225              -78.43092503
              42.38999268               -7.81800418               86.09701002                0.00010000                1.30092119                1.29099349               -6.96113302               -2.61823371               21.49037287              -99.37562650
              43.40807502              -11.93897063               85.15724372                0.00010000                2.48745166                1.28043418               -9.74532843               -2.21741517               17.55044927             -123.10316874
              44.43974171              -16.06234846               84.17849104                0.00010000                4.03519634                0.95704035              -12.65538464               -1.24338216               13.01508957             -149.82849370
              45.48877894              -20.18977662               83.14986713                0.00010000                6.06000211                0.26745959              -15.47618586               -0.16376807                6.91322531             -179.95215370
              46.56094176              -24.33296022               82.04438728                0.44779573                7.21628109               -0.62086344              -17.89299050                1.64428545                3.94404633             -211.98697972
              40.50202264               17.84984359               91.20251694                0.48431332               -0.65910822               -0.67768640                3.18397331               -0.08202951                0.00273260               16.23635241
              41.49543156               13.74831128               89.90974319                0.01625324               -0.55767480               -0.54727708                1.11973218               -0.16548840               23.35420901              -12.89231519
              42.49086914                9.64221503               89.08302181                0.00010000               -0.55959089               -0.12389477                0.38370056               -0.41541050               45.78143236              -27.65523426
              43.48423974                5.53563301               88.23164599                0.00010000               -0.59265449                0.40061502               -0.98882477               -0.71758738               42.53645018              -42.30053153
              44.47901605                1.42658463               87.34226345                0.00010000               -0.25134702                1.00903031               -3.04605726               -1.14416905               37.91400447              -58.00419825
              45.47921280               -2.68560882               86.40707451                0.00010000                0.52003361                1.59565986               -5.76425541               -1.47109521               32.42267317              -75.51364016
              46.48941673               -6.80124921               85.41895515                0.00010000                1.75511942                2.06812550               -9.06603494               -1.56631226               26.29562475              -95.27710685
              47.51431519              -10.92095393               84.37167025                0.00010000                3.43518951                2.35495142              -12.80934020               -1.37432217               19.75448376             -117.62164498
              48.55812052              -15.04591228               83.25967911                0.00010000                5.46629141                2.41342921              -16.76214440               -0.98730467               12.95918725             -142.72229155
              49.62364102              -19.17909936               82.07699069                0.00010000                7.40991343                2.27532794              -20.57455466               -0.52962356                6.25708945             -170.33740690
              50.70631878              -23.32103420               80.82194979                0.44791347                8.26777691                2.60562579              -23.73621253                0.11524624                3.51594460             -199.19041186
              44.60223855               18.84335360               90.91118412                0.48588029               -0.52055185               -0.64749947                2.95661623               -0.08829612               -0.00249902               17.14841937
              45.59703303               14.74373668               89.46881360                0.01575575               -0.48233660               -0.33456280                0.45232802               -0.04168121               29.97793131              -13.00810363
              46.59259181               10.64231025               88.62535703                0.00010000               -0.59314632                0.16292592               -0.23186591               -0.09265711               58.72339909              -26.41745723
              47.58517010                6.54136356               87.75262283                0.00010000               -0.66097465                0.76445880               -1.71595900               -0.19912305               54.71126097              -40.08356070
              48.57937232                2.43878135               86.83242128                0.00010000               -0.23507845                1.46007884               -4.06581501               -0.44687553               48.74983303              -54.60960495
              49.58046853               -1.66683739               85.85003965                0.00010000                0.73196113                2.19289303               -7.26575285               -0.68620795               41.35453251              -70.67355367
              50.59401154               -5.77664167               84.79424252                0.00010000                2.23915549                2.89374406              -11.22180056               -0.83214082               33.02493780              -88.80834226
              51.62525164               -9.89187160               83.65671297                0.00010000                4.20647526                3.51103769              -15.75008268               -0.86762687               24.23281890             -109.40144680
              52.67814105              -14.01407987               82.43213689                0.00010000                6.40283752                4.03624723              -20.55199680               -0.81414102               15.48576389             -132.66783450
              53.75330839              -18.14427006               81.11910549                0.00010000                8.44876568                4.59855192              -25.18861363               -0.63662654                7.32052841             -158.55305725
              54.84711636              -22.28084770               79.72124904                0.44811426                9.38079697                5.30270368              -29.09192236                0.07128714                4.00956321             -186.91257666
              48.69949055               19.83689360               90.62367208                0.48631675               -0.38492723               -0.65197057                2.77164931               -0.08399185                0.07793529               17.57891987
              49.69564128               15.74162003               89.02953302                0.01536347               -0.40507167               -0.07672106               -0.24766782                0.00841060               37.40928859              -13.03792184
              50.69138912               11.64547355               88.18164219                0.00010000               -0.59275507                0.49992297               -0.98412614                0.05341632               73.21482615              -25.08467410
              51.68378618                7.55092219               87.30169751                0.00010000               -0.65548108                1.18476024               -2.62836644                0.09224174               68.47119988              -37.09257170
              52.67827950                3.45578621               86.36520195                0.00010000               -0.14372562                1.98315847               -5.26523922               -0.02145761               61.23032511              -49.82590211
              53.68091167               -0.64175096               85.35215029                0.00010000                0.97643094                2.86802763               -8.88783694               -0.19636334               52.10472876              -63.94408221
              54.69780812               -4.74337433               84.24702762                0.00010000                2.67445920                3.79828126              -13.39329985               -0.37645554               41.72255045              -80.01608203
              55.73440085               -8.85073318               83.03875689                0.00010000                4.82140195                4.74240344              -18.56957144               -0.52983871               30.72193921              -98.51273997
              56.79423615              -12.96518734               81.72092719                0.00010000                7.16377298                5.70920475              -24.07338314               -0.61541753               19.75226652             -119.80756766
              57.87767631              -17.08712832               80.29238670                0.00010000                9.33318290                6.73213347              -29.41887137               -0.50655059                9.43964560             -144.17970233
              58.98089981              -21.21498013               78.75770584                0.44832488               10.32235034                7.78537693              -33.99821940                0.09581945                5.09130602             -171.81501172
              52.79110585               20.83031419               90.33815885                0.48558611               -0.24845619               -0.66463275                2.56503955               -0.08649909                0.12385123               17.71930067
              53.78862128               16.74220226               88.59007337                0.01553125               -0.33739321                0.19670206               -0.93889337               -0.03986877               45.83525212              -13.18632626
              54.78435798               12.65230871               87.75614309                0.00010000               -0.59595012                0.89708094               -1.83665264               -0.00191393               89.71293224              -23.30546405
              55.77670228                8.56505877               86.88848592                0.00010000               -0.63708326                1.68242961               -3.67216277                0.14568246               84.25924106              -33.12762212
              56.77161632                4.47844452               85.95608001                0.00010000               -0.05002390                2.58800618               -6.58004261                0.13865277               75.74576158              -43.53359454
              57.77570180                0.39052316               84.93356168                0.00010000                1.19241657                3.62039026              -10.56976057                0.03004778               64.90878817              -55.23454251
              58.79546465               -3.70067605               83.80114996                0.00010000                3.03830344                4.76052839              -15.53693316               -0.14087667               52.47179155              -68.80299989
              59.83646787               -7.79702353               82.54420254                0.00010000                5.33815973                5.98501562              -21.25004489               -0.32524946               39.12674467              -84.78246827
              60.90222784              -11.89989578               81.15313700                0.00010000                7.82511494                7.28322159              -27.33394705               -0.44204125               25.55606011             -103.74383136
              61.99297017              -16.00962739               79.62403892                0.00010000               10.12542602                8.64836235              -33.26666501               -0.37710723               12.42624341             -126.26196330
              63.10473636              -20.12514016               77.95936604                0.44859292               11.17661916               10.03463965              -38.40887094                0.15137241                6.63996996             -152.82123099
              56.87398443               21.82360094               90.05196503                0.48438362               -0.11350446               -0.67173539                2.37878914               -0.09335080                0.17313813               17.54569049
              57.87284938               17.74555407               88.14907039                0.01627926               -0.27450467                0.46988500               -1.64881735               -0.16037195               55.55489230              -13.44719696
              58.86849433               13.66341517               87.35406389                0.00010000               -0.61426814                1.35123086               -2.74538521               -0.21099317              108.73724496              -20.89185835
              59.86056402                9.58457078               86.52424785                0.00010000               -0.64530865                2.24416101               -4.78131281                0.00206802              102.48666605              -27.86634748
              60.85558816                5.50754633               85.62131387                0.00010000                0.00345870                3.24877331               -7.93216611                0.08817496               92.58863471              -35.50621243
              61.86063319                1.43065684               84.61476649                0.00010000                1.34745570                4.41543883              -12.23727795                0.05652456               79.98467515              -44.40512259
              62.88253727               -2.64816376               83.48110517                0.00010000                3.32411995                5.73262064              -17.59495653               -0.07230352               65.46574829              -55.03256921
              63.92711559               -6.73103286               82.20158664                0.00010000                5.77309580                7.17126428              -23.75662726               -0.23974558               49.63622820              -67.94091166
              64.99799919              -10.81952290               80.76127999                0.00010000                8.41314776                8.70331445              -30.31547745               -0.34940756               33.05901092              -83.89203152
              66.09537855              -14.91416107               79.14998961                0.00010000               10.84768097               10.30222006              -36.71058455               -0.29450344               16.37457377             -103.90337613
              67.21495281              -19.01428733               77.36454492                0.44911196               11.95742621               11.93500411              -42.26715268                0.18685530                8.70727869             -128.92981881
              60.94533257               22.81687948               89.76246438                0.48255066                0.02670415               -0.66362570                2.15080562               -0.09916063                0.28880256               17.29586373
              61.94559961               18.75159996               87.70513740                0.01832242               -0.21055826                0.73488720               -2.34604327               -0.30671380               66.99808631              -14.08011259
              62.94112141               14.67933333               86.98258675                0.00010000               -0.64935664                1.83648380               -3.66007893               -0.48691539              130.94769001              -17.19892812
              63.93261248               10.60994199               86.22313408                0.00010000               -0.69138291                2.80408345               -5.86121543               -0.23528747              123.51234613              -20.79395773
              64.92729375                6.54341999               85.37859526                0.00010000               -0.00350471                3.90594099               -9.21611396               -0.06710845              111.88251615              -25.51046459
              65.93254239                2.47883194               84.41658540                0.00010000                1.42072674                5.19414080              -13.79445787               -0.02200279               97.48871118              -31.39644673
              66.95570828               -1.58602364               83.31179326                0.00010000                3.52448563                6.65303144              -19.49347439               -0.09752601               81.01291040              -38.69383135
              68.00303210               -5.65359824               82.04168064                0.00010000                6.13298077                8.24676461              -26.04331499               -0.22950105               62.76871285              -47.86524714
              69.07836790               -9.72582949               80.58404245                0.00010000                8.94062152                9.93080524              -32.99908204               -0.31815424               42.88168257              -59.71947478
              70.18184453              -13.80358299               78.91648938                0.00010000               11.51790437               11.66152486              -39.74573928               -0.25443501               21.72563855              -75.84449606
              71.30872599              -17.88644008               77.02355827                0.44940950               12.68814567               13.40855133              -45.55492895                0.20559198               11.57413953              -98.70843304
              65.00256025               23.81032843               89.47144449                0.47615091                0.17010039               -0.62481760                1.91818495               -0.09833486               -0.36026109               14.87425035
              66.00426126               19.76025181               87.25205765                0.01765429               -0.10731283                0.97917372               -3.06881693               -0.44784930               80.88808124              -13.03893858
              67.00041400               15.70014485               86.65859018                0.00010000               -0.62448231                2.19862519               -4.46952626               -0.54570046              157.48901309              -10.42984290
              67.99177161               11.64065245               86.00434714                0.00010000               -0.75289778                3.27279922               -6.75936668               -0.33941318              147.10008185              -11.40069054
              68.98535604                7.58566515               85.24643789                0.00010000               -0.10674250                4.48948202              -10.28385447               -0.15361194              133.39435910              -13.51613266
              69.98963676                3.53453966               84.35883395                0.00010000                1.38304472                5.88401057              -15.11786245               -0.08604872              117.44986740              -16.38762412
              71.01301694               -0.51510313               83.31656607                0.00010000                3.63473322                7.44796277              -21.14121810               -0.11837489               99.47127465              -20.08218052
              72.06233143               -4.56609757               82.09474412                0.00010000                6.43019566                9.14850259              -28.05456244               -0.19961394               79.40201800              -24.86471091
              73.14162085               -8.62090680               80.66471772                0.00010000                9.42845049               10.93088588              -35.37179452               -0.25639888               56.55271739              -31.29101434
              74.25090043              -12.68093058               78.98598248                0.00010000               12.15789928               12.72292521              -42.40860611               -0.19574731               29.75034868              -40.64946474
              75.38477883              -16.74611631               77.00616650                0.44988994               13.38783990               14.47249543              -48.32218079                0.24662573               15.93711515              -57.86964152
              69.04351910               24.80438313               89.13427179                0.73710260                0.33071051               -0.59452976                1.53671173                0.77591577                6.65648970               12.50783529
              70.04682621               20.77118344               86.82958221                0.45535573                0.31438301                1.09316228               -3.69645278                0.20263046              101.45255883              -11.55410714
              71.04980676               16.72330583               86.42222491                0.43862025               -0.32611470                2.31609870               -4.91060780                0.15000372              186.55285612               -5.32916323
              72.04030392               12.67539797               85.88872680                0.43762830               -0.97362327                3.47455264               -7.23546035                0.34842020              171.62110266               -5.82111522
              73.03033430                8.63320963               85.24154445                0.43748611               -0.43571084                4.75444785              -10.94112843                0.55353467              156.59494425               -6.81386843
              74.03158970                4.59651215               84.45764620                0.43769371                1.18218597                6.19724908              -16.06172028                0.68159333              139.74815185               -8.21701768
              75.05397802                0.56293562               83.51375001                0.43834476                3.66268937                7.80387545              -22.43530029                0.73909129              121.12118026              -10.01043632
              76.10484349               -3.47062819               82.38509298                0.44033799                6.70474542                9.54693810              -29.72454274                0.74383647              100.44494940              -12.34800890
              77.18807293               -7.50721177               81.04093484                0.44269953                9.91478030               11.36950263              -37.40698069                0.72039333               76.67799173              -15.58130546
              78.30313909              -11.54912448               79.43454524                0.44668330               12.79785179               13.18060942              -44.75942949                0.73494585               45.59048273              -20.42597010
              79.44402996              -15.59699017               77.45126781                0.72497570               14.08908709               14.91261362              -50.77855241                1.13854407               28.18424724              -33.10056099
              29.07247328               15.33204327               93.19441665                0.76697507               -0.99462576               -1.09661911                3.96037471               -0.29858904               -7.08160680                7.53858643
              30.06252702               11.08728719               92.23696610                0.49169473               -0.77492167               -0.72113197                2.64647782               -0.20856460               -8.74761768               -6.19856159
              31.05697484                6.84140533               91.24371487                0.45770951               -0.38763739               -0.36211189                1.61377967               -0.31045981               -7.72530759                0.15901352
              32.05477427                2.59600922               90.29801960                0.45035699               -0.03939718                0.00218660                0.58801607               -0.31843169               -4.87074102               -0.34225669
              33.05618690               -1.64828662               89.35549072                0.44917948                0.31674798                0.38121104               -0.42498442               -0.32245413               -4.42271494               -0.21727941
              34.06110923               -5.89133903               88.41519975                0.45124414                0.67049753                0.76771510               -1.45220426               -0.32535496               -4.39784551               -0.14954586
              35.06959685              -10.13329504               87.47246543                0.45574820                1.02724721                1.15718217               -2.51363295               -0.32506133               -4.95027872               -0.10465217
              36.08165417              -14.37459949               86.52291037                0.46517570                1.36779968                1.53812864               -3.60612527               -0.31710695               -6.02116200               -0.04542913
              37.09695284              -18.61653180               85.56252410                0.47915317                1.65741695                1.91374015               -4.71973141               -0.29874984               -7.79055531               -0.07977928
              38.11480251              -22.86159135               84.58289951                0.49802141                1.87608881                2.28796631               -5.83253966               -0.27497961               -8.52617459                0.58830804
              39.13447462              -27.11412200               83.61437636                0.75807707                1.96721061                2.67514291               -7.03401830                0.37265421               -8.34944828               -5.20465166
              33.31424347               16.32107708               92.81364608                0.51039029               -0.84831239               -0.79379283                3.45209722                0.11910646                6.31299166               12.90582487
              34.30576035               12.08007587               91.85427303                0.07219300               -0.73671213               -0.84662444                2.13547202                0.18271429               14.38975397              -11.42222695
              35.29950923                7.83778421               91.05538754                0.04486350               -0.46622084               -0.20342459                0.95484434                0.40336717               20.65016181              -14.90162030
              36.29643593                3.59603109               90.22807097                0.03752540               -0.14363702                0.29986910               -0.41079517                0.29039705               19.13691107              -21.91073926
              37.29663649               -0.64447451               89.40506469                0.03839522                0.19619810                0.71200717               -1.85387062               -0.00051645               19.06637462              -30.05494560
              38.30035989               -4.88366188               88.58090705                0.04020573                0.56699896                1.00217137               -3.35401761               -0.30370800               18.68366433              -39.51393149
              39.30797647               -9.12172322               87.75328002                0.04368996                0.98707965                1.13731532               -4.88834307               -0.45997696               18.13073553              -50.45403916
              40.32010148              -13.35921820               86.91983859                0.04886256                1.47424057                1.07688341               -6.41066524               -0.32203191               17.28390213              -63.00013340
              41.33746128              -17.59739440               86.07642312                0.05669205                2.03731668                0.78072979               -7.91780344                0.25149300               16.24179090              -77.21940564
              42.36084782              -21.83871169               85.22331306                0.06464338                2.66352650                0.23163964               -9.42397249                1.42247363               13.15496525              -93.17538401
              43.39073181              -26.08737057               84.31943415                0.49022723                2.98839899               -1.27616053              -10.75923552                4.20216897               10.53649562             -113.58466435
              37.55685783               17.31616741               92.53744320                0.48476198               -0.73836516               -0.43668650                3.20195964               -0.04328393               -0.74016711               17.22045756
              38.54947418               13.07035470               91.36635902                0.02313526               -0.38854324               -0.92333532                1.58721404                0.71750688               17.81654209              -14.93671263
              39.54908696                8.83733683               90.56487084                0.00010000               -0.33166228               -0.16126504                1.09035678                1.56132837               34.99369877              -28.61780857
              40.54284093                4.60200661               89.72655590                0.00010000               -0.66087112                0.52363346               -0.00843331                1.20029022               31.49545891              -42.62413457
              41.53586954                0.36595352               88.85841001                0.00010000               -0.52785767                1.04995049               -1.68225263                0.61707132               28.10606596              -58.87395890
              42.53228378               -3.87129560               87.96056437                0.00010000                0.00420454                1.37140489               -3.87799166               -0.00933509               24.46077569              -77.59717457
              43.53595363               -8.11054874               87.02913441                0.00010000                0.93004675                1.42011637               -6.53080225               -0.42312422               20.45796826              -99.15962195
              44.55088471              -12.35306182               86.06042763                0.00010000                2.27612789                1.11643491               -9.55388136               -0.40490498               16.21014536             -123.83805045
              45.58147619              -16.60091720               85.05114399                0.00010000                4.11717221                0.37765032              -12.79941362                0.22746015               11.59734436             -151.73519733
              46.63322816              -20.85695856               83.99280480                0.00010000                6.71797834               -0.95926882              -15.98852999                0.85225204                5.83470794             -183.11070781
              47.71583576              -25.13964521               82.86212060                0.44497516                8.26075996               -2.86283234              -18.68044083                2.67091327                3.47966349             -216.54061647
              41.80500322               18.31234335               92.23331869                0.48040222               -0.60621583               -0.39987356                2.97100589               -0.06383551               -0.02874807               16.73564167
              42.79894106               14.06160916               90.92043819                0.01625176               -0.29596675               -0.75217487                1.01493180                1.24734519               24.10626491              -13.20148371
              43.79908389                9.83455891               90.08915075                0.00010000               -0.35580082               -0.24892094                0.92033828                2.37468646               47.23093726              -27.25517782
              44.79182505                5.60650376               89.22563502                0.00010000               -0.84018814                0.43630383               -0.08977242                2.11596090               43.36372367              -41.53398195
              45.78228012                1.37652450               88.31618654                0.00010000               -0.75748010                1.09836340               -2.02385643                1.71234713               38.01231412              -57.17596584
              46.77667545               -2.85623378               87.35335340                0.00010000               -0.04999632                1.65803249               -4.83033411                1.28001839               31.78945783              -74.91377644
              47.78128020               -7.09332089               86.33085800                0.00010000                1.28482031                2.03686216               -8.41941072                0.93532188               25.00866474              -95.19999902
              48.80237185              -11.33688951               85.24398343                0.00010000                3.23135106                2.15386967              -12.63958721                0.77057220               18.00765623             -118.34246882
              49.84590722              -15.58984139               84.08971599                0.00010000                5.71245061                1.93661870              -17.22423692                0.68039697               11.13038703             -144.47975479
              50.91662086              -19.85789707               82.86601511                0.00010000                8.18080751                1.36735712              -21.73293384                0.44613768                4.99548659             -173.34751536
              52.00952337              -24.14462722               81.57715179                0.44519049                9.29025059                1.35157257              -25.46772836                0.60762955                2.93833700             -203.65708667
              46.05704950               19.30816994               91.94004433                0.48261843               -0.48439706               -0.45556635                2.82352107               -0.06360792               -0.00617484               17.75068278
              47.05220553               15.05531120               90.47298632                0.01615741               -0.26817001               -0.47982780                0.37334041                1.55269615               31.04603992              -13.41674335
              48.05168610               10.83235842               89.62618083                0.00010000               -0.45054830               -0.11137346                0.49680033                3.00399149               60.71518235              -26.26752237
              49.04319456                6.61073268               88.74055728                0.00010000               -0.94160340                0.51125527               -0.54185894                2.87559558               55.93715869              -39.62821799
              50.03285403                2.38792079               87.79739240                0.00010000               -0.77325114                1.26474793               -2.76009058                2.58324541               49.10495687              -54.09014225
              51.02772954               -1.83813496               86.78225665                0.00010000                0.12308821                2.03420019               -6.10910997                2.21007438               40.82888724              -70.32950938
              52.03531579               -6.06981149               85.68495842                0.00010000                1.75435594                2.73554640              -10.47778462                1.80413142               31.71433455              -88.88400317
              53.06281666              -10.30998443               84.49915441                0.00010000                4.03879497                3.30685363              -15.66662686                1.36615638               22.38224624             -110.14548894
              54.11609169              -14.56218483               83.22279285                0.00010000                6.70600402                3.73316735              -21.33278272                0.84881888               13.55464714             -134.33198589
              55.19693674              -18.82961142               81.85939711                0.00010000                9.26784779                4.19181530              -26.92762790                0.24406056                6.00339453             -161.39467398
              56.30144865              -23.11261376               80.41914570                0.44528582               10.45119111                4.86811113              -31.69025573                0.52724308                3.39723069             -191.20774296
              50.30944855               20.30323202               91.65109815                0.48368791               -0.36420322               -0.54107323                2.70004082               -0.07084809                0.06466690               18.19710895
              51.30580651               16.05201261               90.02681265                0.01596707               -0.28531558               -0.16688802               -0.29308837                1.62633054               38.73893746              -13.47590456
              52.30374224               11.83233144               89.17552249                0.00010000               -0.60159644                0.16254248               -0.12637945                3.20452766               75.66908352              -25.17585479
              53.29377459                7.61672886               88.28128119                0.00010000               -1.04647826                0.78330748               -1.28070148                3.25681069               70.05013819              -36.96252166
              54.28281267                3.40181946               87.31890674                0.00010000               -0.75826860                1.62104422               -3.79480281                3.06802704               61.83529658              -49.63135821
              55.27860921               -0.81554978               86.26860200                0.00010000                0.31998145                2.58109105               -7.62431734                2.71169844               51.73138740              -63.86294336
              56.28921230               -5.03860997               85.11600149                0.00010000                2.17295507                3.58819955              -12.64663803                2.22403148               40.48103195              -80.24816975
              57.32206832               -9.27075243               83.85230936                0.00010000                4.66491437                4.60226341              -18.63062953                1.62353806               28.88641738              -99.27779952
              58.38251059              -13.51517804               82.47486130                0.00010000                7.49313436                5.64804739              -25.18292489                0.93889749               17.81359706             -121.34197741
              59.47193100              -17.77406076               80.98794556                0.00010000               10.17811617                6.79834554              -31.70297172                0.30328549                8.11814719             -146.73525885
              60.58607291              -22.04726499               79.40311169                0.44571590               11.41419074                8.07036130              -37.38594353                0.51080401                4.46921872             -175.64651459
              54.55807137               21.29734848               91.36378546                0.48285713               -0.24386466               -0.62307186                2.56223243               -0.06902145                0.14973214               18.32076841
              55.55563272               17.05197344               89.58062123                0.01619152               -0.35054896                0.15040833               -0.95329302                1.50124495               47.37759735              -13.62438986
              56.55106039               12.83560926               88.74187287                0.00010000               -0.83949839                0.54571779               -0.89217268                3.00270651               92.52051328              -23.61100483
              57.53884275                8.62639883               87.85806277                0.00010000               -1.22835882                1.24278767               -2.22657889                3.22212350               86.12750356              -33.30317918
              58.52649321                4.42034167               86.89696091                0.00010000               -0.82249142                2.18676787               -5.03400770                3.12535674               76.55992875              -43.64251240
              59.52239293                0.21348687               85.83325397                0.00010000                0.42529304                3.31890336               -9.28674209                2.78605893               64.66485594              -55.39199830
              60.53499907               -3.99804750               84.64833341                0.00010000                2.47312847                4.58962743              -14.85970259                2.26239636               51.29088077              -69.16406983
              61.57185550               -8.21793916               83.33005022                0.00010000                5.15894476                5.97329108              -21.50005102                1.61028870               37.30354993              -85.52982619
              62.63817797              -12.44922388               81.87291447                0.00010000                8.16169496                7.47673660              -28.77857766                0.92045321               23.60658113             -105.07556576
              63.73508940              -16.69364451               80.27884460                0.00010000               10.99476118                9.12877428              -36.05351381                0.32307458               11.09455002             -128.37888400
              64.85807319              -20.95120653               78.55762881                0.44621777               12.29837980               10.92285897              -42.48189772                0.52175597                6.00833793             -155.91290984
              58.79881819               22.29077059               91.07601286                0.48187664               -0.12475651               -0.67181288                2.41459068               -0.06900842                0.18098154               18.11425632
              59.79757063               18.05502077               89.13273194                0.01687700               -0.47236091                0.44126648               -1.60594029                1.25016780               57.24697618              -13.87269191
              60.78937097               13.84324579               88.33094420                0.00010000               -1.20429895                1.04109038               -1.74512545                2.51293409              111.81157952              -21.37609411
              61.77348465                9.64158462               87.48291170                0.00010000               -1.55696013                1.88203921               -3.29185825                2.83022568              104.57000597              -28.28990023
              62.75823177                5.44555481               86.54869528                0.00010000               -1.03825407                2.93867377               -6.37497632                2.77977410               93.53997060              -35.85173248
              63.75271957                1.25082829               85.49754041                0.00010000                0.38272403                4.21058452              -10.99882319                2.47092329               79.79117218              -44.73595749
              64.76588625               -2.94681742               84.30709118                0.00010000                2.63654510                5.68493127              -17.04171099                1.96747026               64.26087099              -55.46328791
              65.80545047               -7.15128661               82.96128645                0.00010000                5.53693729                7.33468226              -24.23098907                1.34780789               47.74202676              -68.61353918
              66.87662500              -11.36564331               81.44963906                0.00010000                8.74623375                9.14507386              -32.09933058                0.72889069               31.02824732              -84.95250347
              67.98037514              -15.59148528               79.76822354                0.00010000               11.75035398               11.11872625              -39.95649225                0.24496262               14.99061205             -105.47645653
              69.11163208              -19.82880781               77.92160632                0.44636401               13.12569336               13.27182079              -46.91305480                0.48934349                8.04552872             -131.10510274
              63.02819083               23.28391222               90.78448274                0.48052721               -0.00299562               -0.68966803                2.23400133               -0.08615792                0.30829553               17.81363696
              64.02816087               19.06079877               88.68210319                0.01881493               -0.67178011                0.70451336               -2.23983029                0.97405414               68.81744642              -14.49104026
              65.01475523               14.85643107               87.95047297                0.00010000               -1.75113117                1.67806587               -2.62194350                1.89587499              134.22629347              -17.78939414
              65.99313825               10.66403962               87.17102027                0.00010000               -2.09550995                2.67813183               -4.36109043                2.12682125              125.74114478              -21.34260696
              66.97284503                6.47911515               86.29296746                0.00010000               -1.44773133                3.79939432               -7.68850940                2.07539405              112.86440605              -25.96299083
              67.96418362                2.29769856               85.28333343                0.00010000                0.18091755                5.17047707              -12.64494502                1.82290376               97.20857783              -31.78639390
              68.97646338               -1.88434888               84.11796790                0.00010000                2.67269638                6.78602257              -19.10748232                1.40569972               79.63009821              -39.10278449
              70.01763755               -6.07124551               82.77725100                0.00010000                5.82455348                8.61215842              -26.77788959                0.88877414               60.64890836              -48.39526958
              71.09295445              -10.26632240               81.24385344                0.00010000                9.27578000               10.60647854              -35.14022389                0.39490253               40.63799439              -60.46518292
              72.20315315              -14.47126998               79.50228149                0.00010000               12.47753470               12.73885226              -43.43181285                0.07683850               20.21007649              -76.85178757
              73.34250514              -18.68577012               77.54543189                0.44647695               13.93519920               15.02764236              -50.69048803                0.41892844               10.84097927              -99.93014199
              67.24332193               24.27697723               90.49139987                0.47354692                0.12109246               -0.67452401                2.05566967               -0.09280289               -0.36524516               15.31595382
              68.24453286               20.06911104               88.22211300                0.01787250               -0.96371529                0.93838319               -2.89493715                0.81568442               82.87100385              -13.41677167
              69.22404763               15.87680711               87.61853879                0.00010000               -2.55979304                2.52455991               -3.39251985                1.14690110              161.00287221              -10.91782452
              70.19333700               11.69514725               86.94328063                0.00010000               -2.89834577                3.47660768               -5.24773026                1.14840885              149.38783478              -11.83846547
              71.16608071                7.52154270               86.14992588                0.00010000               -2.03476656                4.63591148               -8.79481647                1.07266969              134.23603797              -13.86638690
              72.15264167                3.35423783               85.21180269                0.00010000               -0.15681975                6.06654462              -14.07825129                0.93310006              116.86841278              -16.67056218
              73.16294432               -0.81109697               84.10529327                0.00010000                2.62789063                7.76967200              -20.95491458                0.68150603               97.67975487              -20.34662127
              74.20519948               -4.97904344               82.80875404                0.00010000                6.08015992                9.70711197              -29.09068084                0.36286421               76.82761807              -25.16911531
              75.28454752               -9.15351374               81.29887865                0.00010000                9.80800729               11.81453944              -37.91673011                0.06367080               53.88887577              -31.68485344
              76.40135963              -13.33670823               79.54287210                0.00010000               13.22316983               14.00929566              -46.57420555               -0.07326512               27.97106300              -41.13869592
              77.54901091              -17.52825497               77.49808714                0.44695012               14.76512876               16.24977658              -53.93670479                0.38087787               15.06387897              -58.29264766
              71.44206714               25.27042174               90.15075218                0.73620185                0.25775337               -0.65554844                1.74025356                0.78899012                6.87321797               12.89282387
              72.44464468               21.07956643               87.79365854                0.45408670               -1.52050547                1.04553953               -3.45715624                1.83620812              103.88126045              -11.90478731
              73.41165703               16.90692227               87.37823374                0.43786130               -3.66369195                3.01151605               -3.72567306                1.46120715              190.34481801               -5.70985535
              74.37137084               12.73357177               86.82323310                0.43757360               -3.82245928                3.84245155               -5.64641952                1.04893915              173.76057750               -6.18764118
              75.33520785                8.57183338               86.13846694                0.43748655               -2.79427746                5.02906784               -9.44570734                1.18559728              156.99660389               -7.12623139
              76.31548529                4.41902945               85.30072020                0.43761473               -0.59165387                6.47916202              -15.11576702                1.24492130              138.53950830               -8.47420496
              77.32337477                0.27104456               84.28853331                0.43809736                2.59131613                8.21415285              -22.46015428                1.23640891              118.60471744              -10.22417638
              78.36731161               -3.87710328               83.08080857                0.43927698                6.42589406               10.19401670              -31.09951000                1.15740407               97.12203813              -12.53299670
              79.45189265               -8.03003162               81.65255193                0.44132317               10.45587312               12.34821259              -40.42149299                1.03547372               73.30786906              -15.74516426
              80.57642907              -12.19108407               79.96518915                0.44442896               14.06617614               14.56241605              -49.51605639                0.96979627               43.28180784              -20.55380503
              81.73321617              -16.36077458               77.91574177                0.72325745               15.67871011               16.74803831              -57.01619178                1.45147456               26.93855782              -32.98166120
              29.96574270               15.79072170               94.23211463                0.76083691               -0.86350638               -0.95069833                3.56578229               -0.25403598               -7.06002506                7.52134060
              30.95710764               11.41045342               93.26217708                0.48560701               -0.46347712               -0.68594735                2.38689286                0.03024260               -8.56096645               -6.20861038
              31.95647316                7.03450330               92.25944207                0.45647364                0.03566806               -0.30991877                1.52022671               -0.25963393               -7.25988493                0.12754697
              32.95782100                2.66739727               91.30427728                0.44958852                0.23351487                0.01682873                0.66267236               -0.27726715               -4.32217334               -0.36526389
              33.96114346               -1.69294283               90.35250058                0.44885615                0.42837249                0.35683828               -0.16549891               -0.30331179               -3.84114612               -0.21348754
              34.96638845               -6.04904047               89.40284984                0.44983139                0.63594743                0.70403077               -1.00759930               -0.31573255               -3.84826074               -0.14481340
              35.97386241              -10.40331784               88.45035723                0.45387621                0.87324909                1.04989966               -1.88751576               -0.31181345               -4.46135914               -0.09863451
              36.98385343              -14.75804098               87.49076997                0.45999615                1.12543585                1.39584429               -2.79671139               -0.30264797               -5.59010092               -0.05360083
              37.99637112              -19.11537225               86.52018552                0.47019214                1.34692889                1.73111572               -3.73687479               -0.30581053               -7.40417162               -0.08364311
              39.01079201              -23.47850197               85.53024280                0.48512022                1.50589344                2.06404516               -4.66494103               -0.27326173               -8.21867650                0.54052000
              40.02648899              -27.85203925               84.55045243                0.74933172                1.56969825                2.39847950               -5.68931605                0.55273447               -8.11579883               -5.05256700
              34.34347062               16.78121472               93.84651818                0.50242871               -0.79513565               -0.45389148                3.11189276                0.35976450                6.32432500               13.03011718
              35.33551927               12.40359395               92.87460462                0.06874815               -0.90328612               -1.03353051                1.92489464                0.73495980               14.44617354              -11.45389078
              36.32540490                8.03140411               92.06417802                0.04403586               -0.83739348                0.20827354                0.79505904                1.76986460               20.52292504              -14.39377459
              37.31877140                3.66756556               91.22343707                0.03658490               -0.45378462                0.79536287               -0.51468695                2.08309438               18.79607774              -21.01637992
              38.31632921               -0.68937445               90.38635715                0.03707309               -0.01763829                1.14712738               -1.89236100                1.92087724               18.61207204              -29.00119047
              39.31841863               -5.04200016               89.54740992                0.03827374                0.44576622                1.29500204               -3.34174299                1.53574291               18.17259922              -38.55475156
              40.32524453               -9.39281885               88.70481441                0.04084076                0.92177627                1.22716192               -4.79798469                1.16719986               17.60902391              -49.84828234
              41.33685416              -13.74408254               87.85636799                0.04474138                1.41494900                0.90822525               -6.25923637                1.05863334               16.79043837              -62.98979054
              42.35354351              -18.09806109               86.99847222                0.05057675                1.97693685                0.25134844               -7.67921033                1.45806657               15.77890438              -77.98575181
              43.37639289              -22.45786152               86.13059892                0.05603717                2.60050518               -0.80954260               -9.11434051                2.68555623               12.77450431              -94.73721108
              44.40555362              -26.82805445               85.21367972                0.48102896                2.91607225               -3.47254671              -10.33550221                6.25142822               10.22904601             -115.64903775
              38.72817953               17.78164387               93.56798949                0.48043641               -0.65620909                0.03702840                2.90923587                0.00079709               -0.82974602               17.62616837
              39.72161744               13.38978281               92.38150267                0.02266066               -0.01403415               -1.29698193                1.43802059                2.16152154               18.37264285              -15.14932260
              40.72789885                9.03866877               91.57728770                0.00010000               -0.06779943                0.21986857                1.44501551                4.92039339               36.16175524              -27.49097544
              41.72026145                4.68330453               90.72928987                0.00010000               -0.93860659                1.16932184                0.63421374                4.85189817               32.07862467              -40.78307412
              42.70912672                0.32999972               89.84494283                0.00010000               -0.98568730                1.67286887               -0.91365240                4.43849004               28.10047324              -56.78969305
              43.70054771               -4.02314043               88.92506083                0.00010000               -0.49189645                1.82117686               -3.11250815                3.65687759               23.89846746              -75.73658934
              44.69928879               -8.37877460               87.96639398                0.00010000                0.48603197                1.58728206               -5.90184220                2.84896980               19.37522002              -98.00415681
              45.71026834              -12.73987648               86.96616609                0.00010000                2.00113226                0.87762310               -9.20259989                2.35927417               14.68777431             -123.84154832
              46.73931143              -17.11034528               85.92250277                0.00010000                4.21140759               -0.45475726              -12.87806805                2.51683604                9.87271707             -153.27896627
              47.79449650              -21.49469282               84.83009653                0.00010000                7.62959966               -2.73902287              -16.59258105                2.42885780                4.45446520             -186.34875294
              48.89190343              -25.92149018               83.67077846                0.44230464                9.74069291               -6.15732921              -19.74234411                4.18319213                2.86590718             -221.74859894
              43.12720868               18.78195529               93.26193706                0.47740555               -0.54838863               -0.05280396                2.75506250               -0.02752123               -0.05805086               17.28636490
              44.12172480               14.37765431               91.93004182                0.01651492                0.15411866               -1.03777299                0.90076114                3.20230397               25.16935025              -13.57157580
              45.13029106               10.03580149               91.10142858                0.00010000                0.13768100               -0.40403531                1.61942575                6.23616667               49.30183932              -26.45339796
              46.12447842                5.69095199               90.22985054                0.00010000               -0.93735489                0.49242544                1.06081867                6.03608510               44.67161699              -40.09338706
              47.11154396                1.34408293               89.30178632                0.00010000               -1.20739573                1.21292970               -0.70433471                5.70583826               38.47848677              -55.52675743
              48.10033050               -3.00557662               88.31046783                0.00010000               -0.62919882                1.72321200               -3.57889486                5.18882046               31.40755581              -73.45005204
              49.09895998               -7.36107320               87.25056694                0.00010000                0.76399066                1.96546871               -7.46926634                4.55791141               23.81667487              -94.31635538
              50.11561032              -11.72653008               86.11887851                0.00010000                2.98682968                1.83845874              -12.24440414                3.93553804               16.16107889             -118.42801212
              51.15869658              -16.10715624               84.91519437                0.00010000                6.02523183                1.22401924              -17.63480154                3.17839785                9.03555362             -145.88879163
              52.23611495              -20.51264198               83.64233202                0.00010000                9.20578013                0.02994188              -23.11422446                1.92410673                3.47479551             -176.44492820
              53.34281218              -24.95120104               82.31259523                0.44277923               10.66972265               -0.47361391              -27.74585726                1.32711201                2.21736341             -208.83652892
              47.53623106               19.78058779               92.96765454                0.48045907               -0.44137364               -0.24303244                2.68455529               -0.04873331               -0.02593895               18.37399946
              48.53181732               15.36902735               91.47628041                0.01676985                0.15467220               -0.65936433                0.28539605                3.71355855               32.54264485              -13.88194778
              49.53932450               11.03058807               90.63529304                0.00010000                0.04421947               -0.47685341                1.42807952                7.20684360               63.55566182              -25.81333583
              50.53270171                6.69315303               89.74178565                0.00010000               -0.97762035                0.16071386                0.93971724                7.02982574               57.83845081              -38.63751295
              51.51977209                2.35425831               88.77721947                0.00010000               -1.16107314                0.97537987               -1.09641524                6.71457190               50.01270735              -52.90485672
              52.50948025               -1.98867619               87.72785745                0.00010000               -0.41858103                1.77847338               -4.57783815                6.21953124               40.72903941              -69.27114618
              53.51140047               -6.33946523               86.58468683                0.00010000                1.27909450                2.46802448               -9.38804803                5.51651469               30.65588266              -88.27878142
              54.53506214              -10.70310730               85.34338043                0.00010000                3.87954062                2.96725494              -15.34846708                4.56297052               20.56457642             -110.33606731
              55.58899129              -15.08586489               84.00548124                0.00010000                7.09806473                3.25038664              -22.11102518                3.25943201               11.46512734             -135.68785456
              56.67702343              -19.49409398               82.58055293                0.00010000               10.32862512                3.56804940              -29.02847822                1.52881706                4.49650993             -164.32123311
              57.79556379              -23.93096246               81.08744393                0.44298320               11.85403563                4.24037549              -35.10946412                1.17014022                2.67651112             -196.17083432
              51.94935490               20.77709464               92.67767290                0.48142205               -0.33592023               -0.43864698                2.61014202               -0.05286683                0.07538901               18.81298754
              52.94599569               16.36446703               91.02367125                0.01670868                0.04736757               -0.26160909               -0.33691674                3.77191410               40.58045686              -13.95930508
              53.95030225               12.02626442               90.17911460                0.00010000               -0.22955032               -0.29605832                0.95793363                7.38507286               79.10926082              -25.04141761
              54.94140469                7.69416627               89.27608348                0.00010000               -1.13188165                0.21058225                0.40470420                7.43943543               72.43068660              -36.42442713
              55.92766462                3.36359053               88.28930590                0.00010000               -1.14800110                1.07737128               -1.93685675                7.18390848               63.11616602              -48.91377081
              56.91844467               -0.97000715               87.19966394                0.00010000               -0.19716099                2.12104854               -5.96260481                6.64214660               51.90895130              -63.20358003
              57.92372140               -5.31171271               85.99409485                0.00010000                1.74123622                3.22090443              -11.54431512                5.79538564               39.61410730              -79.91111989
              58.95326939               -9.66718498               84.66614430                0.00010000                4.55752503                4.32550846              -18.47340340                4.62299419               27.19610628              -99.56189659
              60.01487190              -14.04214850               83.21726870                0.00010000                7.92597340                5.48400196              -26.35156963                3.12388946               15.80695419             -122.58454867
              61.11178886              -18.44128099               81.65832726                0.00010000               11.25400193                6.83054716              -34.48147406                1.44391871                6.66037474             -149.31576012
              62.23995193              -22.86639353               80.00998697                0.44351054               12.81630757                8.45347365              -41.83063749                1.07729140                3.76256293             -179.96601253
              56.36042895               21.77181485               92.38940350                0.48152063               -0.23431234               -0.59529240                2.54055811               -0.06141881                0.15680463               18.88877101
              57.35808582               17.36379517               90.57100751                0.01692330               -0.15511162                0.10756266               -0.95846385                3.48569548               49.45546295              -14.08160260
              58.35732671               13.02466690               89.73829964                0.00010000               -0.69607567                0.05143868                0.29674504                6.89067127               96.38740910              -23.75863219
              59.34416431                8.69736468               88.84395434                0.00010000               -1.48515141                0.58245011               -0.42466282                7.19736040               88.85642084              -33.18756312
              60.32762369                4.37580574               87.85539985                0.00010000               -1.32689449                1.54573037               -3.08419009                7.02371728               78.11264594              -43.36197764
              61.31762642                0.05374479               86.74782684                0.00010000               -0.15688365                2.79326938               -7.59448344                6.43815939               65.03847879              -55.09915455
              62.32448601               -4.27504714               85.50395591                0.00010000                2.01656948                4.23243533              -13.82635210                5.49726725               50.55143267              -69.06073062
              63.35795781               -8.61659714               84.11420151                0.00010000                5.05395346                5.83402774              -21.55092015                4.25005746               35.68599174              -85.85956538
              64.42556508              -12.97618486               82.57756545                0.00010000                8.60945100                7.63182794              -30.33391588                2.79346214               21.63515176             -106.11292890
              65.53014683              -17.35748304               80.90296865                0.00010000               12.08848064                9.70769484              -39.43516798                1.28632668                9.65104415             -130.41406464
              66.66733470              -21.76189299               79.10972809                0.44367278               13.71878652               12.11005334              -47.77902885                1.01629959                5.30173748             -159.22740965
              60.76416589               22.76518879               92.10025685                0.47967178               -0.13083272               -0.70248215                2.41425637               -0.06561896                0.20303192               18.62002178
              61.76285756               18.36661828               90.11695158                0.01746951               -0.48098591                0.43014626               -1.53509116                2.99884465               59.47428017              -14.28642501
              62.75454617               14.02729319               89.31916138                0.00010000               -1.43222484                0.56419795               -0.48456573                5.93002366              115.94004704              -21.76902421
              63.73421306                9.70581527               88.45841069                0.00010000               -2.13936566                1.26781174               -1.43103182                6.39942592              107.51695240              -28.53438996
              64.71175885                5.39450513               87.49381434                0.00010000               -1.80761652                2.35619182               -4.40129163                6.23439928               95.23654136              -35.93794326
              65.69806073                1.08585823               86.39479002                0.00010000               -0.38750962                3.75485025               -9.34182809                5.62589711               80.22278901              -44.74424774
              66.70400866               -3.22706401               85.14027095                0.00010000                2.06737619                5.43828668              -16.13007446                4.67720041               63.50197455              -55.53886421
              67.73940825               -7.55050443               83.71696685                0.00010000                5.38091917                7.38129552              -24.51690547                3.48594874               46.05295959              -68.94078158
              68.81162704              -11.88951195               82.11929338                0.00010000                9.19076349                9.59060581              -34.02486315                2.19547745               28.97064854              -85.72569125
              69.92322352              -16.24712709               80.35085976                0.00010000               12.87353870               12.11078699              -43.85579044                0.98201362               13.48928132             -106.86647643
              71.06909782              -20.62419246               78.42628382                0.44395132               14.58742944               15.01846244              -52.87478197                0.88896711                7.30265433             -133.23839635
              65.15625759               23.75776521               91.80714440                0.47747150               -0.02992760               -0.74053643                2.27992728               -0.05355172                0.34094665               18.30172905
              66.15595832               19.37239810               89.66034079                0.01923460               -0.97636986                0.68713752               -2.09619015                2.49352496               71.14548821              -14.89937473
              67.13673020               15.03595086               88.93014788                0.00010000               -2.55087149                1.33671950               -1.30550909                4.75402282              138.51041630              -18.35260696
              68.10494089               10.72272091               88.13591227                0.00010000               -3.22307428                2.29275203               -2.47660365                5.04534344              128.79158544              -21.81838584
              69.07226871                6.42292957               87.22482508                0.00010000               -2.66136911                3.41664001               -5.73360441                4.79583862              114.54810398              -26.28124355
              70.05171350                2.12884179               86.16368650                0.00010000               -0.89380139                4.89417089              -11.06880382                4.21829594               97.50131785              -31.98265140
              71.05439268               -2.16628141               84.92964361                0.00010000                1.92056088                6.72315191              -18.36001442                3.39195016               78.63058589              -39.27785156
              72.09012472               -6.46897123               83.50612285                0.00010000                5.58523079                8.87334865              -27.32971099                2.38994093               58.66540126              -48.67800036
              73.16609730              -10.78437274               81.88123798                0.00010000                9.71714484               11.31047969              -37.44073974                1.36785888               38.30465923              -60.97488379
              74.28446762              -15.11526730               80.04785312                0.00010000               13.65737397               14.02574686              -47.80082454                0.53693392               18.53802274              -77.64175887
              75.43924478              -19.46152374               78.00974851                0.44413349               15.47771581               17.09566607              -57.17897676                0.70078222               10.00261802             -100.92837187
              69.53382908               24.75037806               91.51255789                0.47112510                0.07133300               -0.71151202                2.14200592               -0.05604527               -0.36671692               15.74288407
              70.53454241               20.38036103               89.19415891                0.01801401               -1.72626359                0.87992585               -2.66166370                2.23305303               85.33348646              -13.79399713
              71.49930381               16.05402758               88.59073978                0.00010000               -4.32005956                2.68839803               -2.02096021                3.08538274              165.45776771              -11.42086722
              72.44814122               11.75167031               87.89939253                0.00010000               -4.88745290                3.45096569               -3.34013650                2.95758687              152.42790679              -12.28023667
              73.40155475                7.46283793               87.07054157                0.00010000               -3.82517943                4.53366559               -6.87194521                2.62909538              135.68308321              -14.17885629
              74.37163763                3.18374165               86.07726893                0.00010000               -1.59470343                6.01756206              -12.61056797                2.25805424              116.73775244              -16.87431236
              75.36966068               -1.09260097               84.89746778                0.00010000                1.68303882                7.91267073              -20.41253046                1.74061016               96.12882141              -20.50190009
              76.40529841               -5.37303745               83.51293051                0.00010000                5.78098095               10.17870149              -29.95919440                1.12197631               74.23541324              -25.34880146
              77.48528030               -9.66330235               81.90638312                0.00010000               10.29073984               12.74555605              -40.64834818                0.50888671               50.99073012              -31.94792310
              78.61111320              -13.96661215               80.05449837                0.00010000               14.51730189               15.52163136              -51.45856713                0.10705013               25.94374147              -41.48298386
              79.77562634              -18.28227914               77.92743240                0.44411875               16.45131351               18.47955460              -60.93115785                0.55585676               14.03361954              -58.48106633
              73.89517075               25.74353497               91.16907686                0.73491622                0.17991046               -0.68430911                1.88221884                0.78033181                7.08938120               13.26977446
              74.89696986               21.38999661               88.76043909                0.45222336               -3.40210932                0.96355855               -3.13201449                3.55193738              106.80637095              -12.25751811
              75.82712857               17.08971882               88.34771145                0.43810658               -7.08437932                3.56912391               -2.22140733                2.86965666              195.08000899               -6.18342174
              76.75528227               12.79174023               87.77579841                0.43730883               -6.71746448                4.00699154               -3.64357031                1.90830858              176.54479370               -6.63550378
              77.69277928                8.51360288               87.05263031                0.43749441               -5.14843892                5.07649500               -7.51117622                1.99509307              157.82636143               -7.49233246
              78.65231349                4.24919303               86.15533086                0.43728217               -2.33976438                6.54513801              -13.75024364                1.98604259              137.56212951               -8.75751400
              79.64598399               -0.00802799               85.06454693                0.43798043                1.54760682                8.45729771              -22.15172584                1.90281959              116.08406737              -10.44165108
              80.68326563               -4.26539720               83.76310278                0.43844424                6.19328717               10.76402577              -32.34661109                1.72504114               93.51992414              -12.70256763
              81.76984973               -8.52946162               82.23250498                0.43968525               11.11598902               13.38407326              -43.68456894                1.48506942               69.43591217              -15.87101373
              82.90558541              -12.80483467               80.44422411                0.44213795               15.59230748               16.17774796              -55.07996436                1.32366938               40.50672745              -20.60596741
              84.08169588              -17.09193265               78.31094397                0.72214276               17.61104729               19.03464928              -64.72765114                1.89715736               25.36845028              -32.64860140
              30.87114787               16.25366298               95.26573229                0.75462539               -0.71676179               -0.78584141                3.14824772               -0.19938439               -7.02480349                7.49054667
              31.86398025               11.73825991               94.28470396                0.47944457               -0.07354601               -0.65874417                2.11312782                0.34544196               -8.34587786               -6.20546881
              32.86967695                7.23448436               93.27411941                0.45461124                0.56460193               -0.24212804                1.41445392               -0.24794495               -6.71454363                0.08206527
              33.87527229                2.75038436               92.31127305                0.44893704                0.55572353                0.03065461                0.73653751               -0.24708733               -3.67455414               -0.38565952
              34.88079142               -1.72026951               91.35218075                0.44838721                0.55075383                0.33289368                0.10170999               -0.27562603               -3.15798119               -0.20614834
              35.88628737               -6.18335548               90.39504776                0.44924843                0.58290588                0.63875684               -0.54794245               -0.28890366               -3.20292015               -0.13576425
              36.89244954              -10.64418209               89.43471512                0.45122049                0.68682525                0.94564718               -1.23524993               -0.30067081               -3.88265850               -0.07847914
              37.90002387              -15.10686756               88.46697614                0.45467782                0.84735197                1.24574255               -1.96279398               -0.30694157               -5.08813711               -0.04916031
              38.90939658              -19.57477806               87.48778661                0.46347974                1.00691017                1.53513737               -2.71990651               -0.29009492               -6.94056577               -0.08048365
              39.92016208              -24.05149319               86.48960069                0.47360906                1.11714079                1.81835504               -3.43565284               -0.24566157               -7.80850691                0.47691033
              40.93173939              -28.54162793               85.50059004                0.74209982                1.15773175                2.09505750               -4.26613132                0.72769809               -7.77085182               -4.83641588
              35.38455710               17.24580456               94.87588394                0.49558308               -0.75331170               -0.01955356                2.75505044                0.69122419                6.31391565               13.14215775
              36.37702398               12.73167247               93.89277092                0.06569370               -1.17109107               -1.31644317                1.70597743                1.49535447               14.43324752              -11.46877674
              37.36113527                8.23206308               93.07128872                0.04303161               -1.34228129                0.78912032                0.62578606                3.69381809               20.25031835              -13.57953499
              38.35017835                3.75069090               92.21777723                0.03533374               -0.81150991                1.47736490               -0.61845821                4.62411741               18.30829813              -19.61936434
              39.34490508               -0.71694057               91.36721747                0.03535606               -0.24118677                1.74999979               -1.93430604                4.68289054               18.00949213              -27.33244030
              40.34535462               -5.17696791               90.51407219                0.03595402                0.31468983                1.71350886               -3.30699907                4.23647886               17.52352369              -36.93998459
              41.35119887               -9.63472561               89.65732032                0.03769200                0.84489129                1.38988405               -4.69154678                3.62305034               16.95943228              -48.62799251
              42.36225244              -14.09441014               88.79465386                0.04034090                1.38047838                0.72321304               -6.07608230                3.19032321               16.16980315              -62.50100797
              43.37880844              -18.55942669               87.92283891                0.04444258                1.94389765               -0.42203097               -7.41797184                3.33520080               15.18149567              -78.49514505
              44.40113040              -23.03330964               87.04102625                0.04777323                2.51713384               -2.20867633               -8.74654143                4.63145116               12.28879406              -96.34863155
              45.42915112              -27.52067736               86.11272411                0.47274939                2.80207212               -6.59523789               -9.83881115                9.26576023                9.85626936             -118.02592054
              39.91323655               18.25327191               94.59562791                0.47788972               -0.56077264                0.63005189                2.60974794                0.01969275               -0.93310891               18.04765871
              40.90762882               13.71193104               93.39511944                0.02266874                0.56491618               -1.81362813                1.27919966                4.14037165               19.12906597              -15.39178861
              41.92453487                9.25026677               92.59377115                0.00010000                0.45647354                0.77112632                1.90421259                9.60886460               37.76608957              -25.73514757
              42.91675829                4.77993166               91.73924018                0.00010000               -1.12134153                2.07246641                1.42912611                9.95925019               32.99883573              -37.96135360
              43.90210804                0.31473049               90.84013696                0.00010000               -1.39781548                2.53266435                0.04352312                9.86552693               28.39214364              -53.52710207
              44.88880198               -4.14908530               89.89831421                0.00010000               -0.98776338                2.44682310               -2.12087857                8.97882190               23.59645148              -72.63187802
              45.88235277               -8.61638440               88.91109757                0.00010000               -0.01352876                1.83923816               -5.00919943                7.73430698               18.45721169              -95.68749173
              46.88853141              -13.09240330               87.87637563                0.00010000                1.63236597                0.58730244               -8.59857606                6.59396421               13.15011718             -122.93320251
              47.91500009              -17.58321868               86.79358263                0.00010000                4.27551811               -1.55845023              -12.80074319                6.05464656                7.91302743             -154.34458556
              48.97404177              -22.09566672               85.66095318                0.00010000                8.83949711               -5.19711984              -17.25281225                4.86357523                2.73741642             -189.74115425
              50.09179004              -26.67353269               84.46727372                0.44029508               11.77482652              -10.86729528              -21.12691069                6.42305730                2.04611410             -228.04513726
              44.46763268               19.25840560               94.28841994                0.47536103               -0.47961262                0.33210944                2.53127398                0.00155096               -0.09762077               17.84867796
              45.46283655               14.69539990               92.93845341                0.01713374                0.88396394               -1.39441142                0.78111070                5.84355513               26.62986414              -14.00132703
              46.48531195               10.24748561               92.12153926                0.00010000                1.10315449               -0.59305461                2.47969793               11.47497741               52.19761426              -25.16964387
              47.48489964                5.79214023               91.24685139                0.00010000               -0.70396927                0.59089141                2.44375368               11.37529799               46.69063193              -37.85731944
              48.47123257                1.33371271               90.30209985                0.00010000               -1.44268471                1.37867981                0.89183161               11.23783276               39.61903342              -52.91403575
              49.45604595               -3.12803145               89.28177550                0.00010000               -1.10147765                1.81656562               -2.00062899               10.71937091               31.66046919              -70.96294372
              50.44920302               -7.59794085               88.18147267                0.00010000                0.24600287                1.87346844               -6.15367270                9.79625237               23.12582601              -92.45988779
              51.46096600              -12.08266409               86.99909535                0.00010000                2.69808844                1.42158690              -11.51522881                8.60637629               14.55425238             -117.72990118
              52.50316479              -16.59059569               85.73701996                0.00010000                6.38749552                0.26012141              -17.88663479                6.93168480                6.87286043             -146.88206301
              53.58871591              -21.13725204               84.40373063                0.00010000               10.50897143               -1.81823061              -24.69199068                4.17174482                1.76018298             -179.72890299
              54.71334421              -25.73802326               83.02223464                0.44056228               12.46283009               -2.99447467              -30.69990685                2.39321920                1.36593426             -215.13448246
              49.03927897               20.25991410               93.99373543                0.47902510               -0.38590466               -0.03313966                2.52230909               -0.02078118               -0.03887917               18.97760805
              50.03541992               15.68404282               92.47869424                0.01762525                0.90075635               -0.86502488                0.20080225                6.58144892               34.57593702              -14.39673662
              51.05729409               11.23840568               91.65474242                0.00010000                1.13086147               -0.94945594                2.54460514               12.79549684               67.48740991              -24.99700869
              52.05803715                6.79174948               90.75935163                0.00010000               -0.51288585               -0.30342996                2.68233639               12.55978935               60.70404201              -37.02239111
              53.04703638                2.34230408               89.77546409                0.00010000               -1.15970908                0.58254716                0.87217545               12.29097464               51.86736881              -50.94238501
              54.03484297               -2.11275399               88.69069988                0.00010000               -0.70629547                1.42203399               -2.69240738               11.73671097               41.55458222              -67.36800834
              55.03291047               -6.57891504               87.49719746                0.00010000                0.92354045                2.09197011               -7.91085638               10.72967445               30.38911648              -86.85078833
              56.05331378              -11.06397156               86.19218506                0.00010000                3.76556354                2.49263211              -14.69909132                9.13746899               19.25423264             -109.84324715
              57.10822174              -15.57801625               84.78057235                0.00010000                7.57952328                2.58212313              -22.79432057                6.76210789                9.53523872             -136.66355621
              58.20490424              -20.13203133               83.27882755                0.00010000               11.64875698                2.72301794              -31.50190060                3.41491896                2.94020915             -167.40078357
              59.34119688              -24.73342219               81.71695642                0.44093285               13.62926356                3.45769321              -39.56844267                2.09394161                1.89846478             -202.13548242
              53.61895961               21.25774281               93.70330099                0.47973162               -0.29856644               -0.36870740                2.51285331               -0.02831633                0.10194136               19.38696737
              54.61597395               16.67809941               92.02007431                0.01758567                0.72778058               -0.34908774               -0.38425176                6.55898053               43.03433807              -14.47617074
              55.63351522               12.22849649               91.19468116                0.00010000                0.81115368               -0.90079188                2.23749574               12.82699379               83.79472863              -24.63571563
              56.63219702                7.78607163               90.28937527                0.00010000               -0.59798453               -0.57145601                2.35659542               12.88504881               75.92607244              -35.40345256
              57.62155553                3.34536366               89.28016961                0.00010000               -1.00988695                0.31447976                0.22754100               12.60874313               65.51260943              -47.57336561
              58.61199928               -1.09959077               88.14934991                0.00010000               -0.32707244                1.45658393               -3.94833591               11.91491848               53.20282009              -61.84177260
              59.61501408               -5.55610145               86.88511519                0.00010000                1.54086581                2.67384112              -10.06400660               10.67609519               39.74095360              -78.86234585
              60.64281660              -10.03281145               85.48284130                0.00010000                4.57263113                3.90092715              -18.01648335                8.79001204               26.20809616              -99.22304143
              61.70646671              -14.53895323               83.94782990                0.00010000                8.48018139                5.22545559              -27.50398584                6.19559525               14.12186203             -123.43195805
              62.81242023              -19.08279168               82.29831608                0.00010000               12.57690262                6.87865155              -37.79573013                3.05636130                5.25045759             -151.91718006
              63.95800476              -23.66886940               80.56649894                0.44094229               14.55845330                9.06853033              -47.61234286                1.86183721                3.04609779             -184.94835676
              58.19799944               22.25253995               93.41459663                0.47950687               -0.21535961               -0.61563434                2.48375141               -0.02140114                0.17470489               19.38635208
              59.19584585               17.67706106               91.56145196                0.01767865                0.39311484                0.09297916               -0.94568991                6.00138196               52.17156701              -14.54497504
              60.20586174               13.22038984               90.74780777                0.00010000                0.15125545               -0.62397135                1.68674712               11.82284441              101.55866596              -23.70457695
              61.19887096                8.78032036               89.84956951                0.00010000               -1.04940521               -0.35663725                1.64684785               12.25887785               92.76111312              -32.70895443
              62.18487364                4.34859368               88.83527711                0.00010000               -1.21322580                0.60035327               -0.82686276               12.05425300               80.85875439              -42.59310523
              63.17460644               -0.08362231               87.68136430                0.00010000               -0.26102928                1.98372172               -5.54951962               11.23437805               66.62318667              -54.22798296
              64.17965305               -4.52543821               86.37180637                0.00010000                1.86796777                3.64095225              -12.41997604                9.82020563               50.90868988              -68.34057774
              65.21196580               -8.98595302               84.89903182                0.00010000                5.12304104                5.53939348              -21.32264020                7.83008561               34.86851547              -85.60903407
              66.28211387              -13.47350714               83.26623616                0.00010000                9.19909212                7.75617803              -31.92560365                5.35865397               20.06202415             -106.70857962
              67.39594764              -17.99445830               81.49014124                0.00010000               13.42375971               10.45462001              -43.45846943                2.61028298                8.29605966             -132.27227305
              68.55058907              -22.55205158               79.60204824                0.44137690               15.46414275               13.76366160              -54.59459927                1.68228610                4.60251761             -162.76307621
              62.76948936               23.24543012               93.12429798                0.47731795               -0.13376665               -0.74470933                2.38461190               -0.01623661                0.25591368               19.04613417
              63.76815170               18.67995899               91.10203012                0.01800951               -0.13882766                0.42714429               -1.44400508                5.14041249               62.33149188              -14.68549404
              64.76671281               14.21601706               90.32125289                0.00010000               -0.94904779               -0.12946517                0.99185668               10.12551153              121.34554599              -22.02143446
              65.74917074                9.77893889               89.45429106                0.00010000               -2.00647721                0.31848470                0.70938748               10.83877329              111.62841579              -28.53213350
              66.72658326                5.35737072               88.46066945                0.00010000               -1.92260032                1.40846867               -2.10879930               10.61520110               98.12987703              -35.67004540
              67.71071873                0.94008367               87.31070385                0.00010000               -0.64171770                2.95944663               -7.31817955                9.70659369               81.87815282              -44.30491048
              68.71374891               -3.48328240               85.98448970                0.00010000                1.83842518                4.91677382              -14.83201001                8.24392251               63.85296336              -55.10668054
              69.74748724               -7.92202358               84.47094834                0.00010000                5.41980756                7.25919233              -24.51775959                6.34190757               45.17197966              -68.75133769
              70.82214506              -12.38382967               82.76914179                0.00010000                9.78415440               10.02986581              -35.99707157                4.17638946               27.31191607              -86.03505959
              71.94317033              -16.87369928               80.89110773                0.00010000               14.23459903               13.33572658              -48.43144122                1.98444643               12.07195872             -107.90743386
              73.10683704              -21.39359617               78.86411068                0.44140525               16.36667176               17.32827238              -60.41805913                1.41919350                6.55999483             -135.18877045
              67.32861698               24.23764576               92.83008129                0.47569697               -0.05498204               -0.77638352                2.26362280               -0.03937200                0.36569139               18.69763296
              68.32806716               19.68560395               90.64017938                0.01951187               -0.96124523                0.65869083               -1.90129871                4.25118876               74.04913151              -15.26519843
              69.30939207               15.21780054               89.92436279                0.00010000               -2.68871967                0.74045672                0.24479208                8.11713329              143.99542235              -18.84551214
              70.27429276               10.78669006               89.12148820                0.00010000               -3.66795971                1.53587467               -0.29712964                8.59425622              132.93906353              -22.16825933
              71.23603288                6.37676305               88.17829537                0.00010000               -3.24506615                2.63948099               -3.44215979                8.20796417              117.37328811              -26.38976598
              72.20939144                1.97556662               87.06195735                0.00010000               -1.46970653                4.25117789               -9.10387167                7.29429895               98.95878603              -31.88245222
              73.20663875               -2.42710274               85.75076761                0.00010000                1.49798860                6.36220622              -17.20127470                5.98872268               78.67257098              -39.09075610
              74.23935121               -6.84076918               84.23065678                0.00010000                5.53393065                8.95120882              -27.57299819                4.38490415               57.41417438              -48.56435836
              75.31731736              -11.27290982               82.49503865                0.00010000               10.30259278               12.00452305              -39.76929038                2.68373031               36.29971102              -61.08295984
              76.44540307              -15.72774377               80.54626500                0.00010000               15.07246788               15.54801904              -52.83120342                1.17192709               16.90509261              -78.03224348
              77.61876672              -20.20548613               78.40185235                0.44198264               17.33636504               19.72622064              -65.23070467                1.07467339                9.13507522             -101.49730506
              71.87278555               25.22990245               92.53423998                0.46883910                0.02351460               -0.74332357                2.13325127               -0.05129791               -0.37706535               16.07294215
              72.87302070               20.69313281               90.16887973                0.01795952               -2.24080932                0.81258877               -2.33736099                3.74970457               88.30745394              -14.10386646
              73.82796936               16.23082620               89.57811959                0.00010000               -5.54636735                2.57549795               -0.39732517                5.25146938              170.99922232              -11.91294819
              74.76209335               11.80965638               88.87647790                0.00010000               -6.30516913                3.06799342               -1.12512497                5.11946180              156.46957561              -12.70124455
              75.70186598                7.41016034               88.01248697                0.00010000               -5.08114248                4.05230968               -4.60146877                4.58102995              138.15755542              -14.41338754
              76.66047050                3.02510723               86.95959133                0.00010000               -2.60034085                5.60943405              -10.74116242                3.96105987              117.63550673              -16.94066715
              77.64985916               -1.35603828               85.69704266                0.00010000                1.02609535                7.75779944              -19.44433337                3.12694097               95.46147969              -20.47375988
              78.68099241               -5.74299940               84.20957015                0.00010000                5.64675473               10.46350017              -30.50575999                2.13499495               72.20203313              -25.31577317
              79.76279426              -10.14373921               82.48591168                0.00010000               10.90963841               13.66071060              -43.39886003                1.12163534               48.25399030              -31.97829927
              80.89918517              -14.56273890               80.51370076                0.00010000               16.05104903               17.25444311              -56.99539188                0.36945048               23.84844465              -41.56101185
              82.08381524              -18.99907176               78.27946398                0.44153265               18.46300650               21.23581842              -69.45786421                0.78565075               12.91067934              -58.26948119
              76.40113031               26.22277929               92.18839656                0.73363962                0.10071920               -0.71231615                1.92341542                0.74211924                7.27846106               13.57178192
              77.40213750               21.70185572               89.73101825                0.45104142               -5.16162129                0.87229169               -2.69091783                5.23824081              110.20821908              -12.54760821
              78.29789788               17.26931049               89.33380560                0.43748127              -10.23948240                3.84842975               -0.44372382                4.30256222              200.87443982               -6.76553820
              79.19734785               12.84804993               88.75036169                0.43708615               -9.28476259                3.83935449               -1.32663828                2.95038798              180.19487945               -7.17355362
              80.11220263                8.45780924               87.98824341                0.43710880               -7.12682978                4.76489022               -5.23511089                3.01893407              159.47533383               -7.91122512
              81.05481126                4.08775531               87.02571532                0.43748911               -3.74592189                6.26480795              -11.99869274                2.94627628              137.36595340               -9.05708575
              82.03728419               -0.27194675               85.84549879                0.43751147                0.74703903                8.40915309              -21.43985453                2.77977913              114.17396630              -10.64761756
              83.06975204               -4.63149917               84.43387635                0.43792614                6.11026841               11.15002294              -33.30312877                2.48852009               90.17757891              -12.83693185
              84.15948956               -8.99969561               82.77886055                0.43876461               11.91862936               14.40435957              -47.01579806                2.11174375               65.40356591              -15.93073555
              85.30812463              -13.38265490               80.86358986                0.44027089               17.38279443               18.00839926              -61.37457581                1.84023759               37.38830662              -20.53692040
              86.50714545              -17.78076976               78.62118874                0.72096366               19.90208250               21.83019932              -74.05280513                2.52153532               23.48427598              -32.00188322
              31.78730330               16.72022935               96.29507959                0.74938705               -0.55003283               -0.60670925                2.70350735               -0.13475441               -6.97288614                7.43787458
              32.78180297               12.07021013               95.30443964                0.47394754                0.41549547               -0.64071887                1.82240240                0.77647773               -8.09825898               -6.19054172
              33.79561320                7.44180598               94.28773115                0.45387387                1.22328060               -0.16443034                1.30057193               -0.19754608               -6.09874009                0.01477176
              34.80626858                2.84667570               93.31900803                0.44862061                0.92979557                0.05354314                0.80453126               -0.17325776               -2.94081693               -0.40987705
              35.81420912               -1.72713925               92.35453478                0.44837888                0.67635487                0.31597746                0.36262905               -0.22251772               -2.39152960               -0.19765940
              36.81979568               -6.28980460               91.39189099                0.44863621                0.50358701                0.57383039               -0.09406166               -0.24887163               -2.48336339               -0.10839240
              37.82428086              -10.85009783               90.42565223                0.44911451                0.46117630                0.83366852               -0.58949728               -0.27168633               -3.24378178               -0.05563199
              38.82901920              -15.41437963               89.45151409                0.45150894                0.53272030                1.08774342               -1.13020209               -0.27819241               -4.52251299               -0.04016466
              39.83493526              -19.98708653               88.46578739                0.45646846                0.63996165                1.33265149               -1.68430574               -0.28518619               -6.39541605               -0.07241033
              40.84181844              -24.57181489               87.46152974                0.46348711                0.70789952                1.56282523               -2.19376305               -0.25094356               -7.32561705                0.43410836
              41.84909325              -29.17303569               86.46512980                0.73526757                0.72748173                1.77791543               -2.82425577                0.89692428               -7.35768176               -4.57923314
              36.43597497               17.71416225               95.90161919                0.48904697               -0.71955387                0.49158495                2.38437244                1.12561918                6.27709515               13.22919902
              37.42877943               13.06380294               94.90872417                0.06332282               -1.52850060               -1.69727881                1.48590088                2.51259870               14.34744929              -11.47505622
              38.40540496                8.44016167               94.07669374                0.04197835               -1.98854087                1.59546536                0.44386797                6.34474452               19.83852998              -12.40854683
              39.38900861                3.84721114               93.21106791                0.03382001               -1.25904319                2.41637939               -0.71611030                8.17313156               17.65700155              -17.64516151
              40.38022409               -0.72397947               92.34767103                0.03325145               -0.51111794                2.58572709               -1.95960734                8.62045023               17.24823676              -24.96116337
              41.37878625               -5.28406630               91.48126994                0.03322301                0.18137063                2.31616534               -3.23622504                8.19693887               16.71240396              -34.57175148
              42.38385150               -9.84176115               90.61098347                0.03409656                0.79726879                1.67105228               -4.53363274                7.33274244               16.15360814              -46.67489454
              43.39473163              -14.40350219               89.73484635                0.03562572                1.34747641                0.56988028               -5.82392100                6.48837761               15.40854093              -61.40224892
              44.41080103              -18.97376002               88.85011278                0.03830419                1.87759754               -1.21657541               -7.08897715                6.26873640               14.45444032              -78.67861418
              45.43228358              -23.55618664               87.95566809                0.03988930                2.42411327               -4.02026947               -8.31499687                7.61193921               11.67943395              -98.06369641
              46.45928330              -28.15525654               87.01690350                0.46498301                2.69997186              -10.94338860               -9.29379750               13.64757885                9.34926471             -120.92861808
              41.11053431               18.73006105               95.62018445                0.47605874               -0.44787829                1.33295363                2.30374341                0.08106873               -1.04980623               18.46328197
              42.10605552               14.03626455               94.40708666                0.02338355                1.42827969               -2.48749883                1.12201936                6.80387821               20.14004444              -15.66918335
              43.13909990                9.47371528               93.61537195                0.00010000                1.39084155                1.56378322                2.45942541               15.95895711               39.93911397              -23.24755872
              44.13387235                4.89500329               92.75787239                0.00010000               -1.06021722                3.32415086                2.33907045               16.97909349               34.42699094              -34.02055473
              45.11789555                0.32457530               91.84581330                0.00010000               -1.61781120                3.72272786                1.14165501               17.51459201               29.24969434              -48.93121775
              46.10151613               -4.24348129               90.88264326                0.00010000               -1.37619782                3.34225658               -0.91784334               16.70643649               23.93162228              -68.10789005
              47.09037160               -8.81667679               89.86620999                0.00010000               -0.53652517                2.26951459               -3.80200980               15.04022100               18.12944481              -91.97983585
              48.09078563              -13.40298202               88.79419457                0.00010000                1.13114194                0.32823292               -7.61381841               13.08375931               11.95670762             -120.86312132
              49.11299444              -18.01141804               87.66648791                0.00010000                4.23840570               -2.90135982              -12.41083108               11.57396086                5.90839653             -154.78445752
              50.17555374              -22.65222028               86.48504028                0.00010000               10.35950971               -8.44538827              -17.87011856                8.66674637                0.70065181             -193.39566670
              51.32018463              -27.39190346               85.24824025                0.43824577               14.46308914              -17.41584263              -22.87368978                9.72365799                0.99199566             -235.97100021
              45.82518933               19.74082133               95.31256254                0.47400802               -0.39865713                0.75989283                2.30137252                0.07324114               -0.13176305               18.40874741
              46.82120276               15.01405296               93.94566404                0.01823642                2.03280156               -1.83964181                0.66111526                9.34447802               28.56620769              -14.49254821
              47.86584536               10.47143734               93.15102254                0.00010000                2.82638563               -0.81046433                3.46374189               18.44783036               56.12325514              -23.34896863
              48.87773047                5.91369415               92.27872561                0.00010000                0.15775807                0.75890185                3.96259374               18.56131392               49.70572019              -34.74715072
              49.86900052                1.35047509               91.31962296                0.00010000               -1.17817017                1.63827784                2.64280303               18.84801705               41.89182269              -49.24503340
              50.85416707               -3.21722117               90.27045525                0.00010000               -1.24219354                1.99352672               -0.17771441               18.52382245               33.18990594              -67.32930542
              51.84415665               -7.79637085               89.12749349                0.00010000               -0.15094974                1.82766367               -4.45355001               17.38048288               23.67542828              -89.47253882
              52.85114807              -12.39693753               87.88857393                0.00010000                2.36809304                0.96319140              -10.31948741               15.52849597               13.86228732             -116.07731469
              53.89151851              -17.03178721               86.55746167                0.00010000                6.74779301               -0.92639593              -17.80129464               12.59511356                5.09250385             -147.34425514
              54.98610393              -21.72509440               85.14849220                0.00010000               12.08021595               -4.22374168              -26.38282711                7.60518137                0.03288764             -183.28481508
              56.13312283              -26.50357339               83.69859709                0.43875248               14.70188984               -6.30164710              -34.48552018                4.00663630                0.43060410             -223.09509546
              50.56553585               20.74525890               95.01810072                0.47676610               -0.32067802                0.15757333                2.36373920                0.05416916               -0.02393901               19.58240823
              51.56232907               15.99947172               93.48029646                0.01875606                2.14397321               -1.09335336                0.11420990               10.31733138               37.22961334              -14.98907244
              52.60841532               11.45750600               92.68618514                0.00010000                3.18659048               -1.54762904                3.77184627               20.08800577               72.74229651              -23.78871885
              53.62606088                6.91018133               91.79543238                0.00010000                0.86779492               -0.89074094                4.52781802               19.82710392               64.87888672              -34.73323961
              54.62577122                2.35734085               90.79466298                0.00010000               -0.36111814                0.09175542                2.94988654               19.75747799               55.23644385              -48.12942589
              55.61883852               -2.20361076               89.67400931                0.00010000               -0.40367966                0.98570706               -0.60363381               19.29620283               44.11018213              -64.51018451
              56.61769762               -6.78012351               88.42646970                0.00010000                0.89666928                1.64011579               -6.07826536               18.03924997               31.85355909              -84.44798309
              57.63677190              -11.38371819               87.04939861                0.00010000                3.76779783                1.92224852              -13.61742287               15.68730400               19.33416714             -108.49295393
              58.69305358              -16.02994596               85.54959482                0.00010000                8.13358195                1.76678720              -23.22995743               11.86694590                8.40054833             -137.12631412
              59.79944354              -20.73669511               83.95051492                0.00010000               13.21108773                1.70780591              -34.31220018                6.20172979                1.63988577             -170.66058882
              60.95727533              -25.51793641               82.29607508                0.43890853               15.78317894                2.65604564              -45.34203058                3.44513788                1.18436312             -209.47849771
              55.31784708               21.74397279               94.72792996                0.47752274               -0.25447918               -0.33569983                2.41946728                0.05513689                0.14306923               19.93164566
              56.31530229               16.99218590               93.01598622                0.01857048                1.95243901               -0.42659247               -0.43618465               10.12444549               46.18385254              -15.04563933
              57.35689586               12.44048476               92.22386451                0.00010000                2.95677008               -1.67511818                3.60540912               19.78303014               89.95652780              -23.93258907
              58.37443769                7.89587933               91.32321539                0.00010000                1.05231546               -1.59557633                4.36794427               19.88408953               80.89613321              -33.84907487
              59.37794217                3.35231019               90.29385672                0.00010000                0.15588985               -0.69485314                2.45055033               19.69232040               69.63869837              -45.52400875
              60.37755549               -1.19750703               89.12069722                0.00010000                0.35534547                0.57209707               -1.77767678               18.94218202               56.49421313              -59.64390475
              61.38504908               -5.76356854               87.79281472                0.00010000                1.85805548                1.94451539               -8.27161833               17.31545686               41.89808978              -76.91968938
              62.41471660              -10.35849256               86.30581463                0.00010000                4.83926350                3.34166662              -17.18249060               14.56217496               26.90955286              -98.04858878
              63.48183435              -14.99645147               84.66718898                0.00010000                9.17061879                4.91388106              -28.50825244               10.50984198               13.48660754             -123.68730661
              64.59812897              -19.69093829               82.90241266                0.00010000               14.13369124                7.04874819              -41.64169171                5.34056955                4.24988585             -154.44025995
              65.76450817              -24.45045248               81.05774011                0.43892503               16.63792011               10.15850773              -55.06642768                2.96336689                2.47180128             -190.70138800
              60.07021238               22.73854491               94.43907853                0.47759468               -0.19063633               -0.66729898                2.40318386                0.03813657                0.22011407               19.80477429
              61.06830602               17.99093987               92.55209371                0.01839731                1.50850496                0.09975371               -0.92367591                9.13444645               55.59830087              -15.01347778
              62.10038248               13.42400363               91.77203458                0.00010000                2.18056074               -1.50876346                3.15226741               17.98151094              108.23409439              -23.40758899
              63.11191723                8.87826980               90.87689130                0.00010000                0.63107506               -1.63127100                3.75300505               18.61836425               98.18944173              -31.79907118
              64.11300398                4.34344379               89.83886260                0.00010000                0.08218296               -0.71121150                1.46671011               18.47814047               85.41826847              -41.22323015
              65.11356089               -0.19216882               88.63683645                0.00010000                0.59941568                0.83369983               -3.36166168               17.47855277               70.32017885              -52.61265488
              66.12499230               -4.74123321               87.25555639                0.00010000                2.36687211                2.77048401              -10.70964956               15.55291626               53.42716200              -66.78525790
              67.16089834               -9.31688486               85.68774871                0.00010000                5.53519223                5.06682103              -20.73262285               12.65220092               35.86768234              -84.52072771
              68.23569614              -13.93166834               83.93905337                0.00010000                9.96788036                7.87179196              -33.41162568                8.85181676               19.63851839             -106.59505458
              69.36025594              -18.59572015               82.03379926                0.00010000               14.99374583               11.47693799              -48.10738758                4.42334627                7.40074209             -133.72040422
              70.53557106              -23.31476625               80.01783610                0.43944760               17.53151151               16.13402466              -63.24828631                2.58457159                4.06682143             -166.36790899
              64.81381989               23.73062681               94.14794909                0.47545757               -0.12873980               -0.83845177                2.30480203                0.01355794                0.30094755               19.32730174
              65.81253249               18.99418097               92.08807148                0.01837869                0.76881278                0.46523264               -1.32239535                7.70180507               65.85244498              -15.02537911
              66.82919614               14.41030949               91.33899852                0.00010000                0.74161639               -1.09148572                2.54853821               15.20101460              128.19743582              -22.07868726
              67.82736482                9.86325391               90.47259844                0.00010000               -0.56262709               -1.05504600                2.88773575               16.28244082              117.22444694              -28.19814773
              68.81794360                5.33808596               89.45163835                0.00010000               -0.77806399               -0.00635331                0.23319686               16.10871940              102.82637993              -34.91855798
              69.81180354                0.81916697               88.24842643                0.00010000                0.14399211                1.72370462               -5.12428813               14.93056344               85.65085584              -43.23670500
              70.82082344               -3.70815886               86.84363075                0.00010000                2.31961055                4.02918570              -13.19226414               12.89146339               66.37227291              -53.93495157
              71.85819575               -8.25715614               85.22661166                0.00010000                5.84412652                6.90023271              -24.11705577               10.11910313               46.10872424              -67.77068120
              72.93770597              -12.83901563               83.39935195                0.00010000               10.57490312               10.44332561              -37.83126754                6.82718869               26.79450101              -85.57618951
              74.06969381              -17.46139953               81.38223094                0.00010000               15.82929187               14.86074734              -53.61446073                3.33717365               11.10043647             -108.28017351
              75.25429181              -22.12777199               79.21792264                0.43967422               18.45980003               20.39715547              -69.79198068                2.12277983                5.96679033             -136.63364835
              69.54337523               24.72177587               93.85241686                0.47293978               -0.07157787               -0.85525905                2.16184925                0.00628490                0.40865680               18.89492217
              70.54265945               20.00024452               91.62231482                0.01950211               -0.40226980                0.66319321               -1.64358661                6.23387217               77.53816045              -15.50814686
              71.53532983               15.40217392               90.93504372                0.00010000               -1.64349373               -0.19918401                1.89538905               11.97091473              150.78744128              -19.21146926
              72.50978957               10.85716888               90.12996968                0.00010000               -2.80322580                0.27590064                1.94178682               12.84716641              138.47355080              -22.31091872
              73.47926531                6.34331672               89.15598188                0.00010000               -2.56862936                1.32680881               -1.06697093               12.43926117              121.92739635              -26.17037813
              74.45841699                1.84230527               87.98160907                0.00010000               -1.00603182                3.10016843               -6.91799561               11.20111638              102.46052534              -31.32377994
              75.45914468               -2.66064949               86.58561812                0.00010000                1.78600926                5.56757549              -15.63551653                9.34512642               80.80026054              -38.33788398
              76.49413717               -7.17888020               84.95466289                0.00010000                5.86693106                8.72918260              -27.33895049                7.00609781               57.88940187              -47.81262538
              77.57648330              -11.72280183               83.08585217                0.00010000               11.08092994               12.61626978              -41.87628887                4.44492615               35.35089862              -60.51075768
              78.71575577              -16.29850520               80.99122905                0.00010000               16.71441377               17.31211353              -58.37425885                2.04073338               15.66294755              -77.70259345
              79.91077157              -20.90682314               78.70513442                0.43961288               19.50158045               23.03834146              -74.99592528                1.56928919                8.37937177             -101.26027203
              74.25700829               25.71352163               93.55522291                0.46662024               -0.01964008               -0.75592067                2.00198798               -0.00161113               -0.36293676               16.23642140
              75.25681189               21.00744484               91.14741169                0.01760541               -2.26591052                0.72614430               -1.90977024                5.29349647               91.75820706              -14.28942431
              76.21169008               16.40632581               90.58279328                0.00010000               -5.68232721                2.04310577                1.34619608                7.56355922              177.66569056              -12.34945046
              77.14316534               11.86877193               89.87689003                0.00010000               -6.50488200                2.16663504                1.16604553                7.66244030              161.77105367              -13.05564547
              78.08159244                7.36462214               88.97851219                0.00010000               -5.16866297                3.02743904               -2.22266394                7.00327099              142.22891315              -14.49791465
              79.03979208                2.88117034               87.86244568                0.00010000               -2.63404924                4.67490254               -8.61210031                6.12653535              120.42992077              -16.77027783
              80.02891145               -1.59680735               86.50858111                0.00010000                1.03389798                7.13784386              -18.01456452                4.92073898               96.71116227              -20.13849199
              81.06047004               -6.08257249               84.90281531                0.00010000                5.86590224               10.40659846              -30.50606735                3.47176967               71.70679417              -24.92364910
              82.14622950              -10.58669024               83.03840592                0.00010000               11.70298773               14.44138834              -45.84752523                1.95697389               46.38697930              -31.60361265
              83.29452980              -15.11515725               80.91459053                0.00010000               17.80419908               19.15769583              -62.94902222                0.74763289               22.02343280              -41.16350930
              84.50231348              -19.66700516               78.53827512                0.44003955               20.77836812               24.57016553              -79.56150265                1.08581304               11.82362779              -57.37573561
              78.95549660               26.70665746               93.20754517                0.73266707                0.02286052               -0.68641756                1.83011988                0.65982610                7.39025477               13.74292239
              79.95572520               22.01476741               90.70662073                0.44954119               -6.51113375                0.73225709               -2.12218416                6.71026061              113.97380232              -12.72726778
              80.82527392               17.44303603               90.33883697                0.43712208              -12.54915790                3.67102275                1.46169452                5.64509357              207.73309653               -7.46084866
              81.70474204               12.90050158               89.74926565                0.43726935              -10.91708006                3.17296565                1.05587508                4.19914391              184.92796832               -7.79881461
              82.60693232                8.40386550               88.94792809                0.43725902               -8.11824311                3.92433641               -2.87153537                4.29907555              162.48467968               -8.36382736
              83.54237718                3.93580332               87.91535700                0.43735386               -4.28150170                5.46329835              -10.00699991                4.17060413              138.80419700               -9.34267873
              84.52130229               -0.51789261               86.63574984                0.43738785                0.55391343                7.89147348              -20.27541909                3.91150569              113.89813146              -10.80654469
              85.55345545               -4.97074824               85.09704020                0.43682561                6.34526273               11.18242540              -33.71175626                3.49446869               88.05220579              -12.89684261
              86.64820754               -9.43397406               83.29218902                0.43770771               12.87839483               15.27161759              -50.04564964                2.96765212               61.86699586              -15.87434511
              87.81102335              -13.91535129               81.21673259                0.43865532               19.39880478               19.98059690              -68.11104824                2.57706656               34.19598330              -20.26995765
              89.03618364              -18.41541983               78.82988787                0.71990607               22.51602898               25.15853236              -84.97890890                3.38016138               21.33794674              -30.88058169
              32.71297004               17.18934126               97.31980244                0.74493938               -0.36065272               -0.40575757                2.22370009               -0.05422310               -6.89039666                7.34867458
              33.70936351               12.40588002               96.32115201                0.46986548                1.00818609               -0.63556980                1.50915784                1.32915819               -7.80653117               -6.14376284
              34.73313376                7.65685461               95.30013085                0.45237911                2.01444033               -0.06032702                1.17737424               -0.14781043               -5.42464953               -0.07032423
              35.74965232                2.95806706               94.32736367                0.44833586                1.34720556                0.08562569                0.86219408               -0.09861220               -2.14811664               -0.41558330
              36.76007787               -1.71049519               93.35943333                0.44799375                0.79251659                0.30528390                0.60021892               -0.15842373               -1.58123563               -0.17615106
              37.76550265               -6.36428124               92.39316653                0.44766258                0.39364664                0.51260248                0.32317997               -0.19433988               -1.73200060               -0.07215373
              38.76795080              -11.01595720               91.42292517                0.44785140                0.19679055                0.71759437                0.01179573               -0.22832460               -2.56983861               -0.02163718
              39.76943846              -15.67433538               90.44437210                0.44868678                0.17608981                0.91997824               -0.33461896               -0.26044274               -3.91105080               -0.00415640
              40.77147260              -20.34487705               89.45410049                0.45112680                0.24344314                1.11775630               -0.69498470               -0.27732602               -5.79528909               -0.06760166
              41.77430732              -25.03108772               88.44572543                0.45568504                0.29565234                1.29936090               -0.99841394               -0.23204411               -6.76388791                0.38136297
              42.77738565              -29.73676000               87.44410493                0.73040643                0.30783238                1.43998313               -1.41418206                1.06076623               -6.83249529               -4.27415076
              37.49588905               18.18528368               96.92357139                0.48392555               -0.69906307                1.11264721                2.00693583                1.69736176                6.20612028               13.27932456
              38.48889842               13.39952432               95.92248894                0.06220115               -2.01634559               -2.21362535                1.27099599                3.84231778               14.15422586              -11.46254426
              39.45556213                8.65625134               95.08016608                0.04119441               -2.82786599                2.70660957                0.24714793                9.93983320               19.27517828              -10.82021548
              40.43234110                3.95892331               94.20345503                0.03218538               -1.79471778                3.68978994               -0.80200811               13.07553805               16.86730850              -15.05029717
              41.41966778               -0.70744235               93.32802532                0.03082071               -0.80254205                3.73246989               -1.95009412               14.20873324               16.34636494              -21.86270108
              42.41629025               -5.35915521               92.44934769                0.03007621                0.05134258                3.19264132               -3.10924083               14.00980917               15.77607737              -31.40858912
              43.42069463              -10.00878126               91.56664767                0.03005020                0.75018507                2.17330346               -4.27837774               12.97295852               15.20497600              -43.89920753
              44.43129396              -14.66513560               90.67817544                0.03055541                1.31904379                0.54710338               -5.45795843               11.65154787               14.45356475              -59.56333824
              45.44707551              -19.33369949               89.78105937                0.03199258                1.83171995               -2.06898350               -6.64952167               10.89456021               13.53200628              -78.41643832
              46.46792835              -24.01809411               88.87472632                0.03235800                2.32950426               -6.26582233               -7.80412191               12.16672327               10.92314573              -99.89347738
              47.49366559              -28.72236017               87.92684816                0.45823832                2.57372364              -16.89431434               -8.64796999               19.96561274                8.71101544             -124.60632925
              42.31843600               19.21159420               96.64170278                0.47503252               -0.31937896                2.16903001                2.00405894                0.14659950               -1.18655580               18.89240804
              43.31524221               14.36160751               95.41755982                0.02518369                2.70477153               -3.35925867                0.98103066               10.30974457               21.42890310              -16.02209734
              44.37253143                9.71098680               94.64295966                0.00010000                2.98072817                2.67208538                3.08187683               24.47043464               42.79393405              -19.94819673
              45.37485677                5.03186286               93.78602159                0.00010000               -0.51001842                5.03569561                3.26068196               26.56199658               36.56524904              -28.91805032
              46.36233106                0.36415420               92.86297006                0.00010000               -1.39095167                5.37023595                2.23374569               28.26901723               31.07260206              -42.97996651
              47.34703774               -4.30042841               91.87995734                0.00010000               -1.44703482                4.65858054                0.38375476               27.95189709               25.52911100              -62.08740476
              48.33339036               -8.97249113               90.83505737                0.00010000               -0.98250459                3.05649615               -2.28022365               26.04666825               19.16315791              -86.70064895
              49.32738765              -13.66339331               89.72409927                0.00010000                0.44659743                0.28605896               -6.09129910               23.15920109               11.85080832             -117.35738030
              50.34232231              -18.38625672               88.54536601                0.00010000                3.94574107               -4.34441121              -11.44664633               20.25051199                4.33813195             -154.32474936
              51.40630247              -23.15640416               87.30355081                0.00010000               12.14538556              -12.51644349              -18.24370359               14.59601641               -1.54618620             -197.29333227
              52.58523002              -28.07464629               86.00979992                0.43709431               17.89275555              -26.26999181              -25.02859470               14.57983411               -0.35240846             -246.24324813
              47.19879442               20.22866428               96.33444739                0.47306810               -0.30937116                1.23003184                2.08481877                0.16612194               -0.16135665               18.98485278
              48.19570071               15.33233914               94.95167571                0.01999259                3.79605311               -2.38341614                0.54646261               13.88571598               31.02893419              -15.09635301
              49.27471548               10.70969305               94.19081410                0.00010000                5.73564582               -1.05987397                4.47645452               27.58853771               61.25414003              -20.98862574
              50.31041362                6.05963723               93.32610327                0.00010000                2.13119535                1.03660306                5.38416982               28.12747985               54.04795405              -30.77840890
              51.31733939                1.39996236               92.35495591                0.00010000                0.07799561                2.06638001                4.23041226               29.26182222               45.95475465              -44.53827305
              52.31197353               -3.26598360               91.27822121                0.00010000               -0.63732433                2.36143812                1.61264863               29.52942244               37.03330410              -62.51866214
              53.30459290               -7.94765134               90.09240167                0.00010000               -0.18649852                1.96476005               -2.47283962               28.38855824               26.75773015              -85.22417093
              54.30824356              -12.65941442               88.79270560                0.00010000                2.02518468                0.61609853               -8.52537801               25.82739861               15.35536542             -113.24478904
              55.34509659              -17.42058771               87.38099407                0.00010000                6.99973413               -2.20065607              -17.09355209               21.18927601                4.61403408             -147.05575309
              56.44823825              -22.26842298               85.87607408                0.00010000               13.83249628               -7.13797008              -27.99656041               12.88734734               -1.28613162             -187.12441584
              57.62174652              -27.24776000               84.33252424                0.43668149               17.35082726              -10.37444372              -39.30335789                6.49298759               -0.45256346             -233.36991432
              52.11440871               21.23619484               96.04101022                0.47571294               -0.24809463                0.33668147                2.22732115                0.12013823                0.00678722               20.17114745
              53.11192776               16.31393919               94.48097844                0.02023387                4.12976966               -1.34748904                0.01473776               15.08051117               40.54815757              -15.67817562
              54.19700410               11.68978932               93.73017935                0.00010000                6.76046441               -2.28488863                4.94733699               29.46784293               79.49300002              -22.21565126
              55.24713705                7.05259492               92.84990799                0.00010000                3.80921142               -1.60030046                6.12707322               29.27031724               70.74075616              -31.79975327
              56.27318833                2.40548180               91.83446182                0.00010000                1.90514192               -0.46392502                4.68487786               29.68568597               60.90587738              -44.46559192
              57.28523989               -2.25319965               90.67862721                0.00010000                1.07020097                0.53437988                1.28659162               29.61371331               49.64402218              -60.62572873
              58.29459235               -6.93319593               89.37563216                0.00010000                1.58160530                1.20347047               -4.09089328               28.26969351               36.61235993              -80.89941731
              59.31687199              -11.65107134               87.91983661                0.00010000                4.02620199                1.36405459              -12.03538994               25.06579618               22.37002886             -106.02357968
              60.37511639              -16.43026984               86.31597320                0.00010000                8.71748555                0.92149017              -23.17720759               19.32060076                9.25704396             -136.79622051
              61.49122170              -21.29916356               84.59258354                0.00010000               14.93237205                0.67708813              -37.33328311               10.33816241                1.20061569             -173.97248273
              62.67376383              -26.28213516               82.81011581                0.43754234               18.25421241                2.15509099              -52.78809181                5.45480867                0.78200453             -218.51403898
              57.04570848               22.23539791               95.75169034                0.47616132               -0.19920385               -0.37892633                2.31786626                0.09727809                0.18547683               20.38354665
              58.04371645               17.30538936               94.01135062                0.01964352                3.98540620               -0.46164712               -0.49019714               14.57627107               50.03691323              -15.65067049
              59.12541661               12.66399527               93.26678934                0.00010000                6.82055190               -2.63426315                4.84087195               28.54918979               97.72223691              -22.94601556
              60.18012748                8.02763122               92.37673416                0.00010000                4.57155307               -2.88195121                6.01076304               28.76916582               87.70932526              -31.75801423
              61.21684767                3.39068386               91.32918061                0.00010000                3.13990277               -1.95671834                4.20374971               28.85891567               76.31196139              -42.70193278
              62.24292554               -1.25529600               90.11379637                0.00010000                2.55053991               -0.52024847                0.08694438               28.24052717               63.09624379              -56.45702410
              63.26785847               -5.92358193               88.71968282                0.00010000                3.18539294                1.06182661               -6.40902904               26.29271760               47.73725895              -73.82635937
              64.30663340              -10.63213333               87.13919148                0.00010000                5.58711811                2.69533689              -15.92770318               22.51872429               30.96546735              -95.68720257
              65.37960083              -15.40215791               85.37766485                0.00010000               10.01167074                4.63493235              -29.13830291               16.54847093               15.18837960             -122.95483491
              66.50686681              -20.25488121               83.46548225                0.00010000               15.85925276                7.52394531              -45.90853094                8.57288873                4.31927220             -156.54813339
              67.69678588              -25.20465818               81.46517039                0.43742239               18.99190725               12.12714367              -64.57648481                4.52670215                2.32030961             -197.08437315
              61.97637136               23.22861631               95.46266030                0.47538705               -0.15155425               -0.83800406                2.28996040                0.08674533                0.28038753               20.04050033
              62.97485582               18.30470624               93.54297844                0.01900128                3.46873411                0.19204679               -0.89175589               12.94612333               59.70322169              -15.43198809
              64.04574604               13.63710406               92.81085312                0.00010000                6.04879783               -2.62805507                4.43741606               25.54838044              116.48105556              -22.85084099
              65.09583177                8.99495589               91.92462961                0.00010000                4.37739087               -3.28668325                5.42769281               26.50678689              105.47267814              -30.39979093
              66.13329386                4.36634744               90.86461131                0.00010000                3.42422239               -2.44017930                3.24527285               26.59373460               92.58740058              -39.12064545
              67.16431622               -0.26360462               89.61413107                0.00010000                3.19950831               -0.70635264               -1.49721556               25.52555363               77.42730109              -50.02865892
              68.19728403               -4.91195940               88.15761338                0.00010000                4.07531194                1.57693820               -8.92386070               23.07953401               59.74571479              -64.07085345
              69.24582246               -9.59716461               86.48437936                0.00010000                6.57748327                4.38909757              -19.70863304               19.08476683               40.33621107              -82.17719584
              70.32883369              -14.33757120               84.59800364                0.00010000               10.96786462                8.00028279              -34.52386834               13.56474630               21.63681333             -105.28767287
              71.46517975              -19.14868466               82.52799349                0.00010000               16.75090600               12.90743363              -53.21289568                6.88602284                7.60712183             -134.25449583
              72.66385181              -24.03959229               80.33708251                0.43783413               19.86720584               19.55453648              -74.03097374                3.80941506                3.96418025             -169.56208628
              66.89526352               24.21863783               95.17039402                0.47196268               -0.11123590               -1.01729671                2.16578718                0.09038857                0.37692854               19.39316341
              67.89415116               19.30923030               93.07558221                0.01847510                2.54355222                0.56972772               -1.17103536               10.70720133               69.97315454              -15.26119424
              68.94613457               14.61143417               92.37222365                0.00010000                4.34343386               -2.36638343                3.91635256               21.22036235              136.49289441              -21.88214919
              69.98101984                9.96189755               91.51204578                0.00010000                3.05741510               -2.93879013                4.63381550               22.87199771              124.59445877              -27.42625234
              71.00728287                5.34188028               90.46533338                0.00010000                2.53618045               -1.99328934                2.08777733               22.91634756              110.08355415              -33.50524542
              72.03174345                0.73057695               89.20821809                0.00010000                2.78631338               -0.06618024               -3.19432946               21.53630215               92.79679033              -41.27991202
              73.06300914               -3.89204316               87.72064441                0.00010000                4.10985393                2.65743117              -11.39210296               18.86888962               72.65273569              -51.68066429
              74.11394053               -8.54435138               85.98860722                0.00010000                6.97033352                6.19696387              -23.18041310               15.04868248               50.46877631              -65.57406862
              75.20241581              -13.24215225               84.01251644                0.00010000               11.63339155               10.76961229              -39.18049538               10.32771552               28.64597325              -83.84933807
              76.34660836              -17.99673254               81.81881851                0.00010000               17.61868180               16.72647149              -59.13511867                5.13924071               11.18222554             -107.42130524
              77.55478944              -22.81356745               79.46827107                0.43774676               20.81810838               24.42741198              -81.14738537                3.05108908                5.77161637             -136.94892549
              71.79699419               25.20827038               94.87331827                0.47013260               -0.07906889               -0.95676286                1.97111151                0.07732905                0.45518921               18.86153860
              72.79620350               20.31610080               92.60730765                0.01908765                1.02459239                0.69040552               -1.33301416                8.39846617               81.50467027              -15.60300278
              73.81748604               15.58977639               91.96227057                0.00010000                1.33110611               -1.56951176                3.38186457               16.28747800              158.83378741              -19.36803733
              74.82282562               10.93618009               91.16032393                0.00010000                0.27276901               -1.63250236                3.78697007               17.87404648              145.64167151              -22.12617652
              75.82294142                6.32648165               90.15695595                0.00010000                0.30700420               -0.68122191                0.89015919               17.62487085              128.93546655              -25.44269287
              76.82896571                1.73507178               88.92359744                0.00010000                1.33243618                1.26883952               -4.89502785               16.09820557              109.22771438              -30.06449598
              77.84959014               -2.85881078               87.43805728                0.00010000                3.39697470                4.15516649              -13.77994730               13.62032672               86.56985129              -36.71771730
              78.89690520               -7.47322533               85.68387777                0.00010000                6.90895126                8.02508379              -26.41388934               10.39973917               61.66150710              -46.06136861
              79.98776917              -12.12217895               83.65751287                0.00010000               12.12372838               13.00019724              -43.31753348                6.77064576               36.65674800              -58.83109692
              81.13937977              -16.81415523               81.37877982                0.00010000               18.53871268               19.26099586              -64.04098602                3.21555885               15.40178990              -76.14696330
              82.35854342              -21.55104405               78.90193385                0.43796354               21.91636515               27.11137671              -86.48062380                2.21757710                7.97296076              -99.61479252
              76.68114926               26.19950257               94.57427974                0.46337509               -0.05347855               -0.76385723                1.73253633                0.04308837               -0.33460649               16.17567804
              77.68061447               21.32303841               92.13068432                0.01686186               -1.46722120                0.63957459               -1.38505564                6.73298030               95.53687600              -14.29889689
              78.65180484               16.58004394               91.60504351                0.00010000               -3.94094824                0.91148683                2.94872294                9.93189765              185.33701869              -12.67486678
              79.60179551               11.92924750               90.89979881                0.00010000               -4.54581191                0.55711540                3.09667437               10.61011928              168.54463044              -13.26136328
              80.56088860                7.32825584               89.96803370                0.00010000               -3.13977594                1.26096234               -0.20555253                9.97848429              148.60438179              -14.31175712
              81.53899999                2.75595374               88.78734932                0.00010000               -0.85879091                3.00036507               -6.55940608                8.84560359              126.33238129              -16.20637809
              82.54371278               -1.80893983               87.33675137                0.00010000                2.31517472                5.81978464              -16.17492964                7.20850219              101.42928905              -19.30844042
              83.58530349               -6.38384970               85.59944880                0.00010000                6.75229218                9.76697556              -29.65942351                5.21216480               74.31569920              -23.95398117
              84.67875862              -10.98214831               83.56896118                0.00010000               12.72405745               14.87151189              -47.43792488                3.08525001               46.58236802              -30.56561688
              85.83978463              -15.61151262               81.25472032                0.00010000               19.70800006               21.09085208              -68.79368186                1.28870295               21.05752602              -39.97443409
              87.07291862              -20.27133992               78.68823393                0.43798963               23.31339902               28.47185688              -91.09262012                1.46979094               11.00440176              -55.37922431
              81.55078428               27.19299323               94.22499896                0.73107366               -0.04625388               -0.65093400                1.58437774                0.55340783                7.42262886               13.71992508
              82.55032174               22.32889229               91.68857457                0.44771030               -7.04346918                0.58538799               -1.43358228                7.72137137              117.90492628              -12.73573523
              83.40991490               17.60800613               91.36303949                0.43660967              -13.17528175                2.79621889                3.21424815                6.73251141              215.46576567               -8.26977077
              84.28681611               12.94732240               90.77147919                0.43712575              -10.70550120                1.80748936                3.04538382                5.68679820              190.91168404               -8.48104374
              85.19580487                8.35170090               89.93081271                0.43755285               -7.18713267                2.34450579               -0.90274521                5.87946157              167.54429053               -8.79889072
              86.14307345                3.79507908               88.82557532                0.43715471               -3.11206249                3.91253450               -8.10267415                5.70154701              143.10193434               -9.55138093
              87.13356362               -0.74241508               87.43999041                0.43705120                1.56417600                6.65247490              -18.67226792                5.33683938              116.83959342              -10.85399190
              88.17435697               -5.27788582               85.75964123                0.43664560                7.17867337               10.59638844              -33.19648598                4.78866732               88.73218035              -12.82007876
              89.27713709               -9.82474871               83.77794756                0.43630900               13.99942333               15.73995966              -52.10366912                4.11522817               59.99594601              -15.63200690
              90.45434544              -14.39233819               81.50136890                0.43723985               21.52283707               21.91744378              -74.62584448                3.61317059               31.45252067              -19.69903987
              91.70759383              -18.98160691               78.92161057                0.71908731               25.32483922               28.97330106              -97.21164300                4.54064832               19.06156802              -29.05828597
              33.64679622               17.65966494               98.33955359                0.74105757               -0.14522854               -0.18165414                1.71065891                0.04621169               -6.77091045                7.22204985
              34.64534394               12.74466101               97.33462280                0.46780141                1.70561656               -0.65167738                1.17504089                2.02573491               -7.46558500               -6.06161187
              35.68090855                7.88032902               96.31127863                0.45314291                2.93299141                0.05995332                1.03330929               -0.02059619               -4.70400149               -0.17940254
              36.70400376                3.08618133               95.33625191                0.44880759                1.79364951                0.13659486                0.89051672                0.04041388               -1.37513735               -0.40632351
              37.71678154               -1.66784626               94.36653916                0.44779660                0.88300275                0.30760304                0.78193794               -0.04184754               -0.81610160               -0.14822308
              38.72166382               -6.40360999               93.39835459                0.44688137                0.24484843                0.45810976                0.65930762               -0.10430153               -1.01928961               -0.03229003
              39.72167851              -11.13797556               92.42588815                0.44593734               -0.10204761                0.60980664                0.51574073               -0.17849601               -1.90649644                0.02933099
              40.71962287              -15.88206943               91.44482171                0.44559837               -0.20011792                0.75733120                0.35154601               -0.24220241               -3.27883701                0.04553481
              41.71767615              -20.64235632               90.45188769                0.44616438               -0.15433133                0.90020177                0.18007242               -0.28458562               -5.13580504               -0.03461960
              42.71653624              -25.42218940               89.44156146                0.44866856               -0.09959008                1.03078411                0.09210029               -0.24029563               -6.11464915                0.34365312
              43.71568435              -30.22400517               88.43684616                0.72618015               -0.08518893                1.09270479               -0.11305944                1.17598148               -6.20395358               -3.88409557
              38.56226227               18.65784840               97.94175791                0.48113878               -0.69930197                1.86841289                1.64093423                2.44422783                6.09091811               13.27362488
              39.55526925               13.73814424               96.93414409                0.06328547               -2.61599173               -2.90125923                1.07225620                5.55564590               13.82771588              -11.43767766
              40.50994243                8.88092855               96.08163670                0.04095098               -3.83868538                4.18871569                0.08086293               14.75056506               18.49254350               -8.78924757
              41.47849554                4.08754728               95.19502775                0.03051901               -2.43418532                5.39063583               -0.86473100               19.77321927               15.93468428              -11.88394475
              42.46125873               -0.66477023               94.30866915                0.02806963               -1.14050421                5.29458193               -1.86877823               22.10270612               15.32290591              -18.15842871
              43.45568546               -5.39902889               93.41908513                0.02651153               -0.10677283                4.47535399               -2.86884215               22.56199751               14.73227755              -27.56091275
              44.45912327              -10.13187750               92.52541592                0.02562169                0.68528823                3.07658984               -3.90050252               21.61735491               14.13043521              -40.29608345
              45.46939122              -14.87449612               91.62568718                0.02517544                1.28835062                0.87048221               -4.97151145               19.81967409               13.35249716              -56.82496704
              46.48489028              -19.63335430               90.71712235                0.02554769                1.77832424               -2.77457037               -6.07270240               18.26219687               12.43294981              -77.48969016
              47.50495771              -24.41188156               89.79958565                0.02515931                2.21848221               -8.86226437               -7.17272160               19.19680249                9.99624744             -101.79386269
              48.52925993              -29.21307812               88.84394410                0.45166578                2.43022211              -24.92196726               -7.89508318               29.12803866                7.93470073             -129.40100950
              43.53508910               19.69703320               97.66026563                0.47609149               -0.17123966                3.16812712                1.71233149                0.22242652               -1.34331480               19.28949092
              44.53337671               14.68663583               96.42670728                0.02874325                4.57138572               -4.47184775                0.86491577               14.86078043               23.00651518              -16.46964128
              45.62651682                9.96410333               95.67700949                0.00010000                5.58951109                4.17582910                3.71781813               35.69581938               46.43680912              -15.82454434
              46.64516693                5.19399405               94.82308603                0.00010000                0.94475095                7.33461486                3.96873406               39.49971237               39.64235010              -22.78851937
              47.64541184                0.43804538               93.89048821                0.00010000               -0.25779447                7.64940476                2.97127510               43.33109922               34.46372456              -35.91074578
              48.64001104               -4.31410291               92.89031836                0.00010000               -0.79595011                6.63823121                1.45527726               44.36063911               29.41413076              -54.75297540
              49.62949283               -9.07644377               91.82060552                0.00010000               -1.12589422                4.52242205               -0.59612250               42.75733565               22.93341871              -79.79567657
              50.61749316              -13.86465979               90.67236859                0.00010000               -0.45936500                0.84627328               -3.88349539               38.94338978               14.26059823             -112.03770869
              51.62030553              -18.69784773               89.43755498                0.00010000                3.13514748               -5.50775817               -9.48635726               34.03827614                4.25603325             -152.44764466
              52.68019610              -23.59943469               88.12016621                0.00010000               14.01663497              -17.23669457              -17.96786575               23.96483196               -3.64135963             -201.21533283
              53.90063823              -28.72244451               86.74766835                0.43551395               22.04421295              -37.91047239              -27.62071071               21.79458409               -2.01239433             -259.77300781
              48.58750554               20.72121095               97.35425891                0.47272547               -0.20908155                1.72028500                1.88904728                0.28193620               -0.17690002               19.54970599
              49.58541473               15.64870729               95.95659329                0.02265209                6.44975312               -3.02012661                0.43797252               19.69902866               34.00867024              -15.85524352
              50.71650061               10.96444513               95.24055163                0.00010000               10.45665057               -1.34428007                5.34306895               39.41806212               67.68708721              -18.18466689
              51.79454774                6.23423957               94.38640901                0.00010000                5.97385313                1.47806634                6.23109706               40.75996683               60.08234070              -26.13936060
              52.83597767                1.48821787               93.40423120                0.00010000                3.14198235                2.78794659                4.97935143               43.46269312               52.76082216              -39.01581126
              53.85738739               -3.26626427               92.30270822                0.00010000                1.44245949                3.12012077                2.71941605               45.04453322               44.81904016              -56.66256585
              54.86482686               -8.04142906               91.07803669                0.00010000                0.61377958                2.55253792               -0.60991909               44.39681010               34.54454521              -79.64472080
              55.86966298              -12.85757065               89.71806637                0.00010000                1.78019260                0.69920609               -6.10850898               41.21289361               21.33890282             -108.91687343
              56.90043071              -17.74350947               88.21559063                0.00010000                6.95940744               -3.23467132              -15.35094163               34.30485932                7.27824893             -145.54982088
              58.00885113              -22.75661545               86.58856099                0.00010000               15.53702684              -10.30591203              -29.15333271               21.06695230               -1.28015327             -190.97947217
              59.21117125              -27.97128757               84.91252993                0.43546311               20.23201202              -14.92094117              -45.47176353               10.39342163               -0.94574168             -246.61132503
              53.68573515               21.73143890               97.06264714                0.47494681               -0.16120542                0.43913468                2.09150301                0.21596486                0.04603477               20.67901018
              54.68412309               16.62623330               95.48059121                0.02211716                7.18053122               -1.57673981               -0.08832978               21.06528240               44.46891680              -16.46996723
              55.82934577               11.93721773               94.78513188                0.00010000               12.62352189               -3.17772300                5.77082197               41.33892640               87.76921469              -20.39726124
              56.93659353                7.22355537               93.91797385                0.00010000                9.29118860               -2.41210740                6.81352749               41.41358832               78.66623853              -28.37101703
              58.01516954                2.49380431               92.88836054                0.00010000                6.69775483               -1.00479095                5.19900989               42.79428237               69.95632932              -40.04177013
              59.07054863               -2.25170050               91.69974114                0.00010000                4.67829381                0.20564505                2.14823298               43.61967238               60.01168789              -55.67203129
              60.10873542               -7.02539301               90.34465183                0.00010000                3.66414049                0.96760536               -2.48914295               42.52985595               47.14190671              -75.96431747
              61.14383144              -11.85067567               88.80869081                0.00010000                4.83560510                1.03956435              -10.03056953               38.46163925               31.01430918             -101.96745721
              62.20544752              -16.76254116               87.08605067                0.00010000                9.27409058                0.29654287              -22.29971689               30.20015991               14.29237073             -135.04532711
              63.32931325              -21.80555293               85.20384926                0.00010000               16.62016833               -0.03477230              -40.26796237               16.49177889                2.79262127             -176.77424813
              64.53785089              -27.02086333               83.24031324                0.43603754               20.85376397                2.60904618              -62.40306554                8.48730188                1.19438347             -229.16265086
              58.80223605               22.72999364               96.77428729                0.47442271               -0.12945015               -0.53938381                2.20046621                0.19032071                0.26217358               20.66483972
              59.80094155               17.61717249               95.00618228                0.02083283                7.18605048               -0.40823913               -0.55406162               20.04757884               54.46828214              -16.26510269
              60.94595706               12.90089067               94.32068195                0.00010000               13.26456877               -3.78326136                5.55570765               39.39157928              107.00397607              -21.76782920
              62.06623293                8.18599743               93.44343065                0.00010000               11.05810623               -4.42965020                6.51585764               39.91252240               96.68507091              -29.18738694
              63.16711919                3.46812205               92.37793171                0.00010000                9.13726155               -3.44631009                4.53624905               40.59660992               86.58427782              -39.05387968
              64.24897816               -1.26215137               91.12243611                0.00010000                7.36399807               -1.77316099                0.77444676               40.41786110               74.85157281              -52.07012686
              65.31439915               -6.02207695               89.66463414                0.00010000                6.35328770                0.08905711               -5.02941923               38.31474414               59.73227311              -69.17668627
              66.37604391              -10.83677937               87.98726057                0.00010000                7.24560149                2.04155754              -14.31710060               33.39495986               41.04015592              -91.51476512
              67.45931118              -15.73757861               86.08442292                0.00010000               11.04824873                4.51338851              -29.02389324               24.94196108               21.43180638             -120.42251597
              68.59700888              -20.75731090               83.98424204                0.00010000               17.61134564                8.57033000              -50.24350483               13.12391147                6.63061361             -157.35620997
              69.81153809              -25.91910664               81.76621041                0.43623581               21.45292048               15.58773380              -76.52523145                6.76171249                3.10350016             -203.29097662
              63.91518386               23.72065123               96.48487774                0.47228104               -0.10062244               -1.10807633                2.15056127                0.17903052                0.38380167               20.07789754
              64.91417764               18.61806852               94.53425860                0.01950359                6.65842798                0.37276919               -0.86391736               17.50628396               64.29947578              -15.80056815
              66.04835242               13.86155250               93.86078290                0.00010000               12.67174833               -3.98208089                5.10068357               34.67636294              126.10674626              -22.04957522
              67.16761260                9.13496237               92.98544516                0.00010000               11.34490582               -5.34814400                5.86966282               36.16184719              114.84975385              -28.46468777
              68.27525054                4.42487811               91.90376805                0.00010000               10.07461220               -4.62428160                3.56133322               36.70985503              103.32750256              -36.11484802
              69.36910485               -0.28716372               90.60689213                0.00010000                8.72038816               -2.68731369               -0.79436754               35.74800916               89.67704359              -46.15881392
              70.44965830               -5.02361187               89.07707918                0.00010000                7.90637235               -0.00695477               -7.55840820               32.82045410               72.21804418              -59.71124967
              71.52723229               -9.80984451               87.29357605                0.00010000                8.75799885                3.43217219              -18.23074005               27.54969087               50.82082841              -77.89848408
              72.62481828              -14.67227339               85.24857601                0.00010000               12.30436080                8.10334931              -34.77174112               19.84005764               28.15163875             -101.91357547
              73.77331951              -19.63414633               82.96954135                0.00010000               18.59291720               14.83494696              -58.25288835               10.18697705                9.99891628             -132.84932951
              74.99667662              -24.70910866               80.53721663                0.43634392               22.33571108               24.37524056              -87.06036057                5.46781466                4.75193263             -171.19798570
              69.01098208               24.70783211               96.19126483                0.46931826               -0.08161313               -1.27651521                1.98227257                0.14539548                0.45281808               19.19385694
              70.01016595               19.62462787               94.06465077                0.01826941                5.58041917                0.75069193               -1.01466901               14.15199311               74.45696967              -15.36158712
              71.12259047               14.82124905               93.41732557                0.00010000               10.79891546               -3.97795932                4.63876449               28.25217745              145.96785434              -21.37453460
              72.22614426               10.07903455               92.56527475                0.00010000               10.04259516               -5.40350271                5.15734752               30.73561875              133.90389487              -26.08222526
              73.32344237                5.37563642               91.49339390                0.00010000                9.31420272               -4.65577778                2.54996023               31.22592044              120.76892624              -31.18847863
              74.41242832                0.68410236               90.18453984                0.00010000                8.50233282               -2.54760798               -2.30484057               29.74563183              104.93058718              -38.08211330
              75.49348903               -4.02221605               88.61578869                0.00010000                8.16354646                0.62505379               -9.84964266               26.41823982               84.92031648              -47.87042484
              76.57569925               -8.76813592               86.76300340                0.00010000                9.34625602                4.94476782              -21.58763983               21.36919237               60.67688662              -61.54485719
              77.68041415              -13.57551162               84.61574204                0.00010000               13.09422266               10.82024418              -39.42018942               14.87109451               34.85234474              -80.08024742
              78.83758370              -18.46061196               82.19952856                0.00010000               19.52024436               18.84000314              -64.29224010                7.49804379               13.32342060             -104.40237474
              80.07081903              -23.43160183               79.59497493                0.43637276               23.32353358               29.50134008              -94.35620805                4.26331892                6.38850194             -135.05167059
              74.08450025               25.69512092               95.89183909                0.46657367               -0.06996929               -1.12388027                1.68280472                0.12238892                0.49956377               18.46946618
              75.08380056               20.63308235               93.59565454                0.01817912                3.72445236                0.77860554               -0.98103345               10.67460411               85.67861830              -15.45364883
              76.15898930               15.78199332               93.00268102                0.00010000                7.20685302               -3.45947521                4.25356919               21.02677242              167.80462655              -19.21283316
              77.22793762               11.02689231               92.20570908                0.00010000                6.78559190               -4.33225715                4.48896867               23.73463686              154.55618880              -21.43225712
              78.29470114                6.33176255               91.17378506                0.00010000                6.69661639               -3.55530854                1.58702097               23.88395029              139.19676688              -23.94665568
              79.36186995                1.66188412               89.88370851                0.00010000                6.77801208               -1.45187304               -3.73953832               22.12101873              120.79225556              -27.77520281
              80.43026138               -3.01111079               88.31001917                0.00010000                7.30208874                1.86533788              -11.97396302               18.95377200               98.12446923              -33.83232325
              81.50791172               -7.71094916               86.42638510                0.00010000                9.22274145                6.53601760              -24.58445071               14.70586285               71.08550629              -42.82895977
              82.61471621              -12.45586850               84.21950150                0.00010000               13.57294368               12.85371831              -43.35293291                9.78970424               42.15324574              -55.46034875
              83.77937059              -17.25734627               81.71040933                0.00010000               20.46032664               21.16884746              -68.99232121                4.78052558               17.09942997              -72.66250414
              85.02392274              -22.11908186               78.97552194                0.43637113               24.45521450               31.86677343              -99.39137405                3.05420368                8.31666007              -95.72503330
              79.13750700               26.68535451               95.58987364                0.45952980               -0.07213584               -0.77516964                1.32549570                0.09943308               -0.27676461               15.79504554
              80.13678564               21.64019998               93.11971058                0.01564528                0.59044785                0.55949301               -0.78565894                7.93438419               99.32530389              -14.05474932
              81.14931596               16.75205955               92.64176774                0.00010000                0.71410602               -1.01723288                3.98223656               12.24423655              193.61150181              -12.79568277
              82.15106776               11.99238940               91.93882352                0.00010000                0.84068050               -1.96861787                3.96363597               13.98677919              176.86891362              -13.17837178
              83.16612957                7.30453025               90.97440114                0.00010000                2.33271378               -1.47164417                0.67314782               13.58481780              158.05373343              -13.66609871
              84.19772204                2.65506490               89.73125756                0.00010000                3.96340914                0.32197863               -5.21378913               12.19643431              136.85389672              -15.02750495
              85.24539775               -1.98490929               88.18508252                0.00010000                5.84260879                3.48301260              -14.17988492               10.06432047              111.75240719              -17.73455548
              86.31457421               -6.63741557               86.30962684                0.00010000                8.86037974                8.17072502              -27.64656970                7.43511109               82.39596839              -22.12489769
              87.42260534              -11.31843726               84.08964742                0.00010000               14.09166764               14.56407750              -47.29547523                4.59315722               50.79933940              -28.53635549
              88.59640757              -16.03723501               81.53871689                0.00010000               21.63844694               22.73585121              -73.52532232                2.06055262               21.96086204              -37.59194435
              89.85537428              -20.79426636               78.71642271                0.43644210               25.89667170               32.78715167             -103.59443520                1.94731099               10.87418771              -51.77245504
              84.17679796               27.67961753               95.23923272                0.72943919               -0.10147608               -0.57369781                1.16533313                0.39456444                7.30248254               13.45228544
              85.17578320               22.64427221               92.67794908                0.44600767               -6.25566746                0.40722299               -0.63635009                8.00131220              121.58201355              -12.52834988
              86.05168461               17.76164866               92.40312194                0.43644327              -11.02903454                0.95891080                4.36555545                7.39925247              223.58504644               -9.15202878
              86.95520251               12.98751996               91.81017333                0.43746583               -7.39813056               -0.48694470                3.92344294                7.44752521              198.17924280               -9.14215928
              87.90372200                8.30232967               90.92987319                0.43704357               -2.99821713               -0.22005742               -0.09855659                7.79943027              175.43229168               -9.11409481
              88.89523816                3.66832370               89.75330352                0.43691750                1.01531276                1.32588002               -6.87977627                7.56260226              151.83020533               -9.57603285
              89.92402825               -0.94145054               88.26230448                0.43653999                4.74518738                4.34587481              -16.81098867                7.07013280              125.23475036              -10.69358909
              90.99014191               -5.54753466               86.43311048                0.43605015                9.11852691                8.98809132              -31.31150283                6.39994934               94.69888899              -12.52953827
              92.10639879              -10.16458695               84.25011564                0.43584996               15.31344197               15.38503056              -52.11143039                5.62461547               61.82018051              -15.13787865
              93.29641075              -14.80262925               81.72421570                0.43538595               23.52664335               23.46057669              -79.64083807                5.06272504               30.15404283              -18.73329652
              94.57693166              -19.46333882               78.88565501                0.71814121               28.05209074               33.09275391             -110.00981497                6.08477987               16.98292060              -26.28322695
              34.58741341               18.12937361               99.35401562                0.73767477                0.09133561                0.06705268                1.15774227                0.17532259               -6.59356576                7.03673116
              35.58832676               13.08560520               98.34465283                0.46482770                2.50056035               -0.69189103                0.82645645                2.88355825               -7.07271772               -5.93475975
              36.63742462                8.11255042               97.32079703                0.45385273                3.92811379                0.21851069                0.89370303                0.04965900               -3.99783462               -0.23401718
              37.66688904                3.23238891               96.34517400                0.44870951                2.21142734                0.20213867                0.86651774                0.19782678               -0.72832538               -0.36308179
              38.68165316               -1.59771963               95.37507209                0.44704711                0.94394143                0.31596509                0.86013310                0.10268414               -0.22656273               -0.10109988
              39.68576787               -6.40638811               94.40635268                0.44586155                0.08502957                0.40508806                0.85167906                0.00679185               -0.45378021                0.01718361
              40.68335375              -11.21442612               93.43323999                0.44402011               -0.39528472                0.50058270                0.85088916               -0.10362319               -1.32375137                0.07752431
              41.67786217              -16.03515563               92.45140302                0.44255425               -0.56685065                0.59738117                0.85304400               -0.20310161               -2.66042112                0.09904702
              42.67201674              -20.87603875               91.45770194                0.44238543               -0.54031503                0.68781720                0.86579792               -0.27344087               -4.43357592                0.01195496
              43.66705587              -25.74026303               90.44756744                0.44357172               -0.46397766                0.76869211                0.98412480               -0.23238480               -5.38574870                0.28984158
              44.66273719              -30.62863780               89.44184374                0.72359948               -0.43186866                0.74352435                0.97955982                1.25307534               -5.46552787               -3.44506469
              39.63293505               19.13004414               98.95639007                0.47994814               -0.73611077                2.77547019                1.30020288                3.42786462                5.91037598               13.16397710
              40.62557394               14.07868628               97.94393406                0.06775419               -3.42028514               -3.79198564                0.92210370                7.74966378               13.37099451              -11.41563661
              41.56452935                9.11473553               97.08178334                0.04158180               -5.07858038                6.15152830               -0.05083841               21.15941292               17.51897088               -6.32282341
              42.52400233                4.23441030               96.18616041                0.02886795               -3.12304140                7.61611448               -0.86488896               28.90202529               14.87640803               -8.36943718
              43.50206852               -0.59455998               95.29064976                0.02494711               -1.49066491                7.40484318               -1.65324620               33.29862633               14.21382663              -14.27649111
              44.49418903               -5.40233723               94.39197085                0.02245697               -0.26836188                6.36385499               -2.46846344               35.22874289               13.56756572              -23.45951196
              45.49670128              -10.20942030               93.48863762                0.02074727                0.62242182                4.67003413               -3.35064280               34.99050826               12.90620329              -36.07969703
              46.50663747              -15.02918182               92.57874521                0.01950163                1.25673751                1.93144752               -4.31354518               32.90238459               12.08879877              -53.04763031
              47.52183603              -19.86916058               91.65960532                0.01906311                1.71970388               -2.88195740               -5.32384807               30.21171619               11.13522329              -75.49339413
              48.54103155              -24.73257611               90.73127188                0.01831018                2.09033391              -11.47115664               -6.37813927               30.21320262                8.87536115             -103.50794777
              49.56364271              -29.62120255               89.76894649                0.44605411                2.26111594              -35.50272390               -7.00350646               42.49938874                6.98125260             -135.72790353
              44.75868640               20.18488301               98.67594941                0.47881225               -0.00577557                4.36163750                1.43382667                0.37087782               -1.49989611               19.62835430
              45.75862865               15.00976548               97.43485814                0.03498559                7.31012271               -5.86679737                0.79670173               20.73527161               24.84516412              -17.08392064
              46.90488886               10.23558099               96.71731602                0.00010000                9.77982024                6.15708935                4.27327969               50.45289390               50.88594547              -10.99982465
              47.95422505                5.38471120               95.86539627                0.00010000                3.97421828               10.37759480                3.97311338               56.95873875               44.05507260              -16.11863170
              48.98437322                0.55037723               94.92239557                0.00010000                2.54889967               10.81668963                2.63200833               64.51829407               40.38675566              -28.49468655
              50.00520305               -4.27911101               93.90906289                0.00010000                1.28176407                9.68397674                1.55334707               68.44785675               37.30119878              -46.78825275
              51.01000850               -9.12102544               92.82313492                0.00010000               -0.47764494                7.24141132                0.71018243               68.30043544               31.75446714              -71.50702982
              51.99565015              -13.99652668               91.64642936                0.00010000               -1.51815766                2.75538556               -1.08752669               63.90888789               21.91153927             -104.46878358
              52.97964535              -18.93367790               90.35563886                0.00010000                1.38558767               -5.54596232               -5.96257012               56.25857211                8.02759051             -148.14148847
              54.02336190              -23.96968616               88.94419349                0.00010000               15.51662505              -21.95596807              -16.21517204               38.98249769               -4.50209620             -204.29172506
              55.28997785              -29.33869227               87.45738571                0.43463068               26.66159520              -52.57144202              -30.70769226               32.66194375               -3.88847555             -277.61631538
              49.99058767               21.21727689               98.37222834                0.47359077               -0.10062680                2.24318270                1.69424111                0.44508791               -0.17911617               20.06579834
              50.98958140               15.96135034               96.96043516                0.02656457               10.40269178               -3.74073135                0.34242427               27.03965680               37.38348089              -16.81362690
              52.19864150               11.23787732               96.29767548                0.00010000               17.93997312               -1.69336095                5.72233199               54.53643815               75.40188984              -15.17370165
              53.34838086                6.44196220               95.45072521                0.00010000               12.88075576                2.17208664                5.54607571               57.34523074               68.37074039              -21.27645566
              54.45625662                1.62177381               94.45454294                0.00010000                9.30839926                4.02843292                3.60521587               62.77772517               63.82183225              -33.14768499
              55.53454885               -3.20865770               93.33260953                0.00010000                6.19345189                4.63714290                1.87941314               66.88067072               59.10438582              -50.07898937
              56.58012566               -8.06459207               92.08020329                0.00010000                3.14594198                4.09728555                0.13787910               67.65279493               50.45764160              -72.69157948
              57.59746769              -12.97407411               90.67053542                0.00010000                2.00206484                1.84559987               -3.50155070               64.23107186               35.82466215             -102.52660376
              58.62016695              -17.98007982               89.07397524                0.00010000                6.41140964               -3.31653899              -12.18821828               54.42693190               16.72860833             -141.77496790
              59.72569588              -23.17169547               87.29300743                0.00010000               16.73634283              -13.03217072              -29.14863951               33.84490466                2.16826392             -193.77988091
              60.95489381              -28.67263139               85.42308897                0.43477378               22.91979303              -19.01881931              -53.58877122               16.64369174               -0.21682380             -262.98119039
              55.27944126               22.22974667               98.08284028                0.47367743               -0.06199047                0.45936103                1.93424021                0.34913444                0.12774384               21.10360956
              56.27882135               16.93495086               96.47921185                0.02450231               11.77822511               -1.74652051               -0.19132587               28.45365622               48.73359391              -17.40290594
              57.51500576               12.20171377               95.84559579                0.00010000               21.92059067               -4.24448210                5.68312661               56.14041665               97.33443783              -18.60597690
              58.71723317                7.42815294               94.98617854                0.00010000               18.77709305               -3.27750146                5.36100483               56.87152042               89.17237695              -24.71751149
              59.89054762                2.63094589               93.93844202                0.00010000               15.59745889               -1.37875310                3.01422939               59.93750285               83.94939087              -34.99122946
              61.02918235               -2.18636816               92.72159187                0.00010000               11.89665952                0.24040813                0.57147053               62.43400473               77.86375665              -49.55591614
              62.12848081               -7.03907973               91.32584930                0.00010000                8.32884962                1.25245372               -2.38683158               62.21536433               66.99505151              -69.20154901
              63.19575934              -11.95961468               89.71922522                0.00010000                6.86622682                1.33801172               -8.12011248               57.46255513               49.46790079              -95.40274838
              64.26580535              -17.00000868               87.86997886                0.00010000                9.85261120                0.34731307              -20.28333992               46.01868204               27.39795602             -130.45992173
              65.39281156              -22.23032958               85.78722429                0.00010000               17.94590931                0.19989845              -42.49530383               25.64678657                8.73951296             -177.41965813
              66.62472354              -27.71906866               83.56205450                0.43487229               23.19119733                5.26251453              -74.83333100               13.12735828                3.46300854             -240.08466403
              60.58716198               23.22646411               97.79569966                0.47316796               -0.04745575               -0.82749740                2.06044957                0.28780311                0.35902815               20.80816345
              61.58668742               17.92641993               96.00026939                0.02220315               12.05428875               -0.23622360               -0.63063544               26.63211924               59.10312833              -16.92721107
              62.82824775               13.15298767               95.37790349                0.00010000               23.49458617               -5.11224143                5.06275833               52.58404431              117.37040229              -20.56522422
              64.05657914                8.37641217               94.50705131                0.00010000               22.06400070               -6.21674481                4.60043669               53.69098049              108.16463356              -26.21086968
              65.26952777                3.59419875               93.41990559                0.00010000               19.83377098               -5.11788023                1.98789924               55.37938031              101.80793917              -34.44681683
              66.45325456               -1.20384954               92.12928531                0.00010000               16.40758504               -3.12582353               -1.06004975               56.08109372               94.13792465              -46.11450509
              67.59767947               -6.03954300               90.61909443                0.00010000               12.71965857               -0.91296080               -5.14881407               54.15079219               81.14795235              -62.27694934
              68.70764774              -10.94731387               88.85284947                0.00010000               10.67880078                1.43687827              -12.72378135               48.06961476               61.06301671              -84.38591203
              69.81125548              -15.97313356               86.79718699                0.00010000               12.50219281                4.64234284              -27.64583337               36.48560984               35.87168594             -114.42231985
              70.95769159              -21.16769750               84.46061215                0.00010000               19.18318294               10.46859031              -53.74420625               19.47291794               13.31805604             -154.75528361
              72.19491914              -26.56738110               81.93466576                0.43522734               23.72275513               21.33760709              -91.06544312                9.97245816                5.73321012             -206.92106884
              65.88528568               24.21319672               97.50567153                0.47007536               -0.03455078               -1.54552447                2.00099325                0.22226730                0.50656196               19.86887384
              66.88494017               18.93022638               95.52570009                0.01999915               11.57043636                0.70913441               -0.86597212               22.84073094               68.93837455              -16.09217328
              68.11669441               14.09946894               94.91286679                0.00010000               23.24507629               -5.54711544                4.42088272               45.51057915              136.52203431              -21.08203176
              69.34984170                9.30381804               94.04202287                0.00010000               23.08512624               -7.82115238                3.82414925               47.77848050              126.48335834              -25.93361924
              70.57839693                4.52858829               92.93583798                0.00010000               21.73521353               -7.30525294                1.04017506               49.05829322              118.73163127              -31.96095235
              71.78454597               -0.24888463               91.59824372                0.00010000               18.82820311               -5.20160807               -2.48550441               48.43893005              109.12009925              -40.57347659
              72.95496099               -5.05733895               90.00644522                0.00010000               15.30981154               -2.14243305               -7.49046363               45.16399742               93.77108746              -53.02714019
              74.09074220               -9.93087712               88.11976456                0.00010000               13.04700885                1.96281520              -16.47802843               38.50271534               70.93483263              -70.64346897
              75.21590117              -14.90716182               85.90256882                0.00010000               14.28876300                7.92254339              -33.34994557               28.08007023               42.55523179              -94.97475923
              76.37651746              -20.02095777               83.36293572                0.00010000               20.38193660               17.10247381              -61.90462539               14.54987944               16.49974593             -127.54267695
              77.62353990              -25.29231652               80.59587530                0.43495659               24.70224435               30.72374589             -101.88158140                7.70150523                7.22457115             -168.88968639
              71.15754800               25.19555362               97.21003947                0.46555262               -0.03181775               -1.70729157                1.76872527                0.20834421                0.54020631               18.64450174
              72.15722982               19.94060262               95.05528883                0.01783804               10.36598415                1.08708161               -0.88253363               18.02427576               78.82158294              -15.27120574
              73.36486768               15.04204536               94.46499894                0.00010000               21.28997935               -5.91956914                3.97503380               36.31080599              155.94257463              -20.51446201
              74.58302941               10.21998912               93.61519273                0.00010000               21.92643102               -8.49159316                3.24972202               39.95259903              145.18963925              -23.98857745
              75.80339630                5.44809369               92.51633259                0.00010000               21.24654969               -8.10234954                0.32082916               41.13047880              135.77487504              -27.65958268
              77.00796040                0.69211830               91.16212128                0.00010000               18.97778040               -5.91326816               -3.61125616               39.67726935              123.84993281              -33.22990747
              78.18295191               -4.08239166               89.52365156                0.00010000               15.97822585               -2.37060621               -9.36192848               35.71330355              105.85806582              -41.94407254
              79.32752492               -8.90805757               87.55685443                0.00010000               13.99928158                2.72245789              -19.40532834               29.30498817               80.13783092              -54.89077878
              80.46293754              -13.81468270               85.22411265                0.00010000               15.31594803               10.09352560              -37.57075941               20.66591119               48.61701561              -73.16592949
              81.63384388              -18.82564802               82.53297371                0.00010000               21.43646028               20.71820646              -67.50138565               10.53034874               19.32851071              -97.79573477
              82.89166675              -23.95290618               79.58114691                0.43498916               25.78228677               35.26620120             -108.59576418                5.82975869                8.54396133             -129.21641889
              76.39935457               26.17905089               96.90697437                0.46196701               -0.04206280               -1.37718841                1.34836768                0.21131748                0.57672788               17.65832779
              77.39893394               20.95196802               94.58768698                0.01677601                8.20847274                0.95231306               -0.64964472               13.00116534               89.56260979              -15.01505540
              78.56352402               15.98107756               94.04734195                0.00010000               17.19557048               -5.91780028                3.79863112               26.10362071              176.97035856              -18.58936732
              79.74284535               11.13398618               93.25010331                0.00010000               18.26766514               -7.93866467                2.92069748               30.44873561              165.16393968              -19.96322904
              80.92887733                6.36654130               92.18869637                0.00010000               18.28656788               -7.46239748               -0.18193861               31.24983801              153.45018886              -21.34095657
              82.10857671                1.63285001               90.84880668                0.00010000               17.02628061               -5.31548366               -4.53577150               29.30718873              138.76703917              -24.08563251
              83.26940294               -3.10475107               89.19857802                0.00010000               15.02781469               -1.67622945              -10.96091012               25.40808816              117.98931465              -29.25902688
              84.40913300               -7.87642796               87.19218875                0.00010000               13.87034550                3.74922650              -21.85450889               20.02963987               89.45276598              -37.58677368
              85.54680985              -12.70529131               84.79045421                0.00010000               15.81074612               11.55965699              -40.91564036               13.62760685               54.96817129              -49.71790206
              86.72534792              -17.60659364               81.99893340                0.00010000               22.39207754               22.42450699              -71.53989326                6.83407602               22.52353593              -66.41510630
              87.99465140              -22.58699249               78.91410636                0.43530285               26.93034753               36.79920473             -112.80934138                4.12631421               10.12257404              -88.65290680
              81.61594009               27.16800985               96.60078966                0.45556866               -0.07136344               -0.78650553                0.81704895                0.16623460               -0.21256005               14.98656031
              82.61522646               21.95964888               94.11497114                0.01387172                4.44909207                0.49401328               -0.17387583                8.74091828              102.57882131              -13.46129143
              83.70492193               16.92368936               93.68468824                0.00010000                9.56569609               -3.94102054                3.79509981               14.37172552              201.71646291              -12.55014194
              84.80654038               12.06121583               92.97907153                0.00010000               11.23036480               -5.61032893                2.75514020               17.79803745              186.63151908              -12.56820519
              85.92952923                7.29884574               91.98149665                0.00010000               12.94280823               -5.40331941               -0.67756481               17.85179939              171.23499735              -12.29154338
              87.06539654                2.58580863               90.68307354                0.00010000               13.54312064               -3.66917565               -5.56797814               16.19537843              153.52294848              -12.97485040
              88.20039164               -2.11591625               89.05315367                0.00010000               13.16307049               -0.29898539              -12.70430262               13.50835283              130.17201343              -15.15598580
              89.32865795               -6.83307304               87.04651741                0.00010000               13.26318574                5.04920421              -24.39669752               10.19086413               99.25699166              -19.14837129
              90.46565536              -11.58348956               84.62305167                0.00010000               16.17843152               12.84242969              -44.25318745                6.57703940               62.22945291              -25.19275673
              91.65222658              -16.37715788               81.78421387                0.00010000               23.46676907               23.42959492              -75.36695052                3.15532306               26.57507632              -33.65090524
              92.93499074              -21.21692209               78.61634523                0.43540354               28.27641544               37.06282235             -116.09751241                2.50969087               12.22323045              -46.14368337
              86.81940121               28.16332078               96.24830562                0.72744986               -0.13284094               -0.46890719                0.59067006                0.19886182                6.96506475               12.75661423
              87.81807280               22.96184828               93.67584756                0.44427635               -3.50048108                0.21994045                0.20874557                7.23145240              124.29918119              -11.93819021
              88.74939158               17.90225715               93.45035060                0.43580770               -4.72115410               -2.14322127                4.26353034                7.44353099              231.19786764              -10.01389142
              89.72364971               13.02177960               92.84994805                0.43691875                0.59644636               -3.94362279                2.71388972                9.52182169              206.58597279               -9.61743302
              90.76132051                8.25847491               91.92884157                0.43769335                6.17982765               -4.03708349               -1.48114688               10.06347312              186.85316654               -9.12741876
              91.84724627                3.55946650               90.68797980                0.43738284                9.85655766               -2.63421328               -7.24300946                9.72468798              166.62161445               -9.27212304
              92.95845166               -1.11073078               89.10377064                0.43678806               11.66386630                0.51854677              -15.25342458                9.06048364              141.74915943              -10.21148719
              94.08052359               -5.77544388               87.13341117                0.43576104               13.19919077                5.76291638              -27.82535954                8.30096718              109.51424094              -11.95333804
              95.22243548              -10.44844272               84.73571895                0.43487970               17.06816632               13.50468401              -48.64868500                7.55011907               70.81027774              -14.40151222
              96.42188692              -15.13800174               81.90855214                0.43476136               25.09690745               23.91561421              -80.93978151                7.10136701               32.31214660              -17.40562674
              97.72437363              -19.84573605               78.72141427                0.71742170               30.24867090               37.11860426             -121.94789627                8.16485852               15.89652023              -22.52756913
              35.53365049               18.59565066              100.36270843                0.73388335                0.34576798                0.35434901                0.53971741                0.34840051               -6.29431606                6.71771897
              36.53710817               13.42740335               99.35115193                0.46503588                3.33900978               -0.77771529                0.49151315                3.92003970               -6.56131078               -5.70911053
              37.60043068                8.35367605               98.32915269                0.45668682                4.90270176                0.42770390                0.74184506                0.24365962               -3.44433392               -0.25018285
              38.63516220                3.39694689               97.35358227                0.44820942                2.53204636                0.29893799                0.73149217                0.46452545               -0.45774952               -0.29387592
              39.65107161               -1.50102360               96.38374182                0.44594262                0.96290563                0.34000719                0.77013457                0.29284428               -0.00976808               -0.05928745
              40.65442032               -6.37450264               95.41538817                0.44398172               -0.04592329                0.35733041                0.84631616                0.15302312               -0.18178803                0.05031341
              41.65015314              -11.24722034               94.44290593                0.44276133               -0.62339112                0.38539624                0.95375466                0.01847124               -0.93346559                0.12136496
              42.64195249              -16.13477287               93.46188259                0.44083536               -0.86564611                0.42978095                1.08494435               -0.11048232               -2.13097279                0.13944951
              43.63284022              -21.04592398               92.46920365                0.43971748               -0.86365123                0.47648728                1.25205300               -0.22864446               -3.71860841                0.06688566
              44.62467947              -25.98380147               91.46124396                0.43990215               -0.75095168                0.51348951                1.55385729               -0.21497014               -4.57257396                0.24859501
              45.61782119              -30.94711197               90.45643735                0.72072238               -0.68582795                0.39338103                1.71680603                1.24040784               -4.59329988               -2.91227079
              40.70538181               19.59919415               99.96776197                0.48131138               -0.80859371                3.90556810                0.99252839                4.72436631                5.61750894               12.84936078
              41.69729587               14.41962620               98.95258616                0.07718471               -4.36431483               -4.94735175                0.86980221               10.52820768               12.67026052              -11.39597124
              42.61809551                9.35795309               98.08061993                0.04334287               -6.50692915                8.72693233               -0.10503911               29.67884953               16.31933083               -3.47434217
              43.56715729                4.39993627               97.17772997                0.02716294               -3.91853439               10.50548589               -0.67891025               41.52250056               13.74942513               -5.15592878
              44.53972482               -0.49762353               96.27560422                0.02125480               -1.90541853               10.26410355               -1.23265840               49.37715531               13.00215262              -11.24683226
              45.52904891               -5.37092934               95.36971586                0.01777252               -0.46259255                9.19979958               -1.88737486               54.25662485               12.24056569              -20.13240826
              46.53047297              -10.24336637               94.45840306                0.01545566                0.55752895                7.45351510               -2.61109698               55.87584221               11.47769307              -31.94853983
              47.54019949              -15.13047506               93.53941628                0.01370589                1.22975540                4.44736005               -3.43139859               54.17373844               10.60388848              -48.34699514
              48.55506808              -20.04115911               92.61064538                0.01270269                1.64621324               -1.45617147               -4.32591186               50.10307370                9.61799558              -71.83267608
              49.57312376              -24.97866658               91.67202287                0.01178665                1.92338432              -13.16016337               -5.32374248               48.08544126                7.54036312             -104.34439852
              50.59353576              -29.94317816               90.70387397                0.44120589                2.04120060              -49.09006636               -5.88684180               62.48199708                5.82005973             -144.14156652
              45.98727372               20.67376202               99.68894216                0.48362582                0.16396546                5.82209470                1.12785498                0.57581689               -1.65418749               19.83241208
              46.98891338               15.32845631               98.44264131                0.04503941               11.32119373               -7.57725778                0.81661549               28.23970061               26.81857872              -17.91697472
              48.21369760               10.52821470               97.76247508                0.00010000               16.61377286                8.73691202                4.56956506               69.73765732               56.70384638               -5.66294588
              49.32118884                5.60705661               96.90254830                0.00010000                9.78913642               14.39959602                2.09684086               80.69907866               50.64295337              -10.03912056
              50.40948033                0.70425847               95.94312838                0.00010000                8.20534105               15.34206213               -0.33243348               94.66209543               51.35070500              -22.20771277
              51.48529566               -4.19050665               94.92138530                0.00010000                5.88676907               14.52781535               -0.54521838              104.11786673               52.19228990              -39.54651854
              52.52721571               -9.09815004               93.83480917                0.00010000                1.89621706               12.26956770                0.31505145              107.51309064               49.34268734              -62.51671625
              53.52322000              -14.04582567               92.65061805                0.00010000               -2.20612491                7.47882372                1.15316555              103.76437005               39.69615927              -94.14029714
              54.48309321              -19.07504741               91.31830358                0.00010000               -1.74063300               -2.60948556               -0.71845648               92.81418629               21.21667512             -139.35739729
              55.48840734              -24.24700474               89.79586277                0.00010000               15.66955414              -24.82886498              -11.29172901               63.80565177               -0.78469592             -203.84213797
              56.79648429              -29.92891329               88.13351451                0.43383179               30.80769551              -69.62010039              -34.42281663               49.46594077               -4.90372223             -300.09864271
              51.40750956               21.71563605               99.38814374                0.47470037                0.01276411                2.81388716                1.40189052                0.65815758               -0.15009448               20.49722977
              52.40763720               16.26808104               97.96344177                0.03190092               16.33693994               -4.50576795                0.31561345               36.20906855               40.78119139              -18.00715101
              53.73424836               11.53269133               97.35499827                0.00010000               29.87289432               -2.16722623                4.76658904               73.76086946               84.62781369              -12.57797385
              55.00509509                6.68792819               96.49733053                0.00010000               24.81408152                3.29112145                1.18621135               79.12661902               80.36250790              -16.88632018
              56.23052999                1.80921771               95.47633552                0.00010000               20.43598324                6.21792986               -2.08062215               89.04812402               82.55154843              -27.62481799
              57.41381475               -3.08037303               94.34029649                0.00010000               15.27619040                7.55060289               -2.70536133               97.39640455               83.88081736              -43.17270233
              58.53605380               -7.99797502               93.08079428                0.00010000                8.92847595                7.49174492               -2.21527354              101.16309190               79.24578055              -64.22930194
              59.59238427              -12.98089859               91.64803536                0.00010000                3.82385366                5.23904943               -2.57462058               98.52330433               65.05511790              -92.99974834
              60.61253087              -18.09334882               89.97182626                0.00010000                5.53592005               -0.99519643               -8.08718539               85.39845320               40.18907831             -133.34262860
              61.70310267              -23.47524388               88.00558820                0.00010000               16.70704106              -13.72730397              -27.00050190               54.06945962               14.04841920             -192.47799812
              62.94667169              -29.33558017               85.84075451                0.43393153               24.35690193              -20.26100546              -64.70116982               27.01468892                4.53024138             -280.62829340
              56.89554689               22.73003977               99.10133195                0.47356308                0.04925755                0.38448054                1.70702392                0.46849880                0.23930430               21.41536275
              57.89603946               17.23834096               97.47676470                0.02744846               18.67604756               -1.79705091               -0.28562493               37.39967451               52.68787239              -18.46254226
              59.26906784               12.48487018               96.89879442                0.00010000               36.55776877               -5.51880749                3.38868890               74.34364525              108.10966263              -17.17860692
              60.62719484                7.67287904               96.02519394                0.00010000               34.48380973               -4.09962447               -0.45795061               76.30876495              103.49936668              -20.94882704
              61.95874403                2.82861707               94.94864512                0.00010000               30.66108225               -1.37139796               -3.95072118               81.90701749              105.92871236              -29.13629637
              63.24041648               -2.03949460               93.71117055                0.00010000               24.61295338                0.96398553               -5.09114962               87.09004245              106.61131140              -41.76250398
              64.45100310               -6.94831514               92.29691520                0.00010000               17.43217025                2.48815830               -5.61097161               88.80950724              100.27454365              -59.56013667
              65.58905989              -11.94104468               90.64628856                0.00010000               11.72022318                2.79308182               -7.97626359               84.00956053               83.34720368              -84.34071843
              66.68540756              -17.09495134               88.68038387                0.00010000               11.14839925                1.73669301              -17.37551270               68.79726032               55.30852062             -119.67518323
              67.81202787              -22.52155082               86.35394318                0.00010000               18.60215440                2.35579372              -42.83643405               39.18032508               23.72760213             -171.33233318
              69.05745065              -28.33413340               83.74364662                0.43416017               24.54227790               12.21156730              -90.58669523               20.31291062               10.13554535             -246.07803292
              62.40027716               23.72332566               98.81549628                0.47105598                0.05231226               -1.31754384                1.87295487                0.36699095                0.48889331               20.80321556
              63.40080028               18.23214002               96.99356957                0.02389045               19.31530111                0.14323260               -0.71539316               34.43499656               63.11157216              -17.62486534
              64.78658318               13.42231518               96.42193712                0.00010000               39.33616070               -6.60268781                2.10868238               68.35990867              128.25010316              -19.57468797
              66.18752350                8.60593570               95.53543938                0.00010000               39.72303954               -8.23652345               -1.73477369               70.32941583              122.81383072              -22.71737371
              67.58104397                3.78178975               94.41768970                0.00010000               37.25121549               -6.96924997               -5.18149978               73.39446279              124.13152758              -28.52945017
              68.93254781               -1.06109332               93.10123511                0.00010000               31.63750277               -4.59873127               -6.71642151               75.52407511              123.33699866              -37.97479818
              70.21379403               -5.94821185               91.56165786                0.00010000               24.33319412               -2.01983292               -8.18692807               74.43062406              115.02877442              -52.08402366
              71.41921169              -10.92503695               89.73278494                0.00010000               17.75940929                0.71629164              -12.28781069               67.51711738               95.63942221              -72.45851277
              72.56898222              -16.05861496               87.53150625                0.00010000               15.33397736                4.81285540              -24.51208993               52.21265673               64.29650758             -101.86030063
              73.72589124              -21.42812800               84.90935792                0.00010000               20.45564321               13.20946925              -54.13808284               28.26231107               28.32211317             -144.26515598
              74.97809508              -27.09134882               81.94490155                0.43436471               25.22038426               30.03749348             -107.12546367               14.56983022               12.33095453             -202.25459674
              67.88525797               24.70368889               98.52489760                0.46731797                0.04918919               -2.19531734                1.85677326                0.30218858                0.64317336               19.44751592
              68.88574987               19.24120561               96.51693915                0.02072136               18.86061788                1.25384225               -0.92151660               28.99826953               72.74723846              -16.33107924
              70.26247033               14.35281642               95.94920055                0.00010000               39.42793591               -7.29152649                1.14766084               58.09489213              146.94855569              -20.02447806
              71.67430858                9.50814857               95.06192814                0.00010000               41.55959905              -10.73765718               -2.55844407               61.37477750              140.70560793              -22.60051755
              73.09366231                4.68923207               93.92457155                0.00010000               40.32955047              -10.61016933               -5.89593543               63.56747775              140.38726340              -26.31142826
              74.48089959               -0.13146922               92.55718205                0.00010000               35.49484478               -8.49827142               -7.75892420               63.58081654              137.52147700              -32.79092314
              75.80355921               -4.98871180               90.92726990                0.00010000               28.44528748               -5.25092226              -10.01264293               60.34367701              126.88372064              -43.26930927
              77.04980534               -9.92671885               88.96401548                0.00010000               21.45962702               -0.66693722              -15.38784617               52.44003197              104.81631976              -59.08708525
              78.23275175              -14.99869423               86.58157710                0.00010000               18.01013033                6.59496775              -29.40902806               38.85051863               70.27488978              -82.20006400
              79.41000795              -20.25736143               83.73144884                0.00010000               22.12685718               18.78018350              -61.27490558               20.32695623               30.81206331             -114.95583710
              80.67528889              -25.73338353               80.49958500                0.43461832               26.52809425               37.85937720             -116.47743739               10.76062947               13.36348528             -158.31282096
              73.33128750               25.67941931               98.22663933                0.46257912                0.03506460               -2.30757973                1.59260537                0.24733577                0.65716714               17.77368532
              74.33163814               20.25721687               96.04700010                0.01742753               17.51252830                1.59466632               -0.84309958               22.30003232               82.20746988              -15.00782651
              75.68153806               15.27648465               95.49682624                0.00010000               37.34826279               -8.11498737                0.71196188               45.37377520              165.51844965              -19.26053217
              77.07860340               10.39118256               94.63026919                0.00010000               40.52366270              -12.21998222               -2.80731477               50.43275594              158.55385198              -20.86935656
              78.49201132                5.56958637               93.49981048                0.00010000               40.17523006              -12.47263545               -6.07158574               52.45489603              156.25815783              -22.60057074
              79.88210800                0.76894125               92.11231472                0.00010000               36.19529393              -10.46557821               -8.28047601               51.18064098              150.89172279              -26.39579671
              81.21591720               -4.05323030               90.42855012                0.00010000               29.79433837               -6.85408213              -11.21233549               46.78947198              137.60160712              -33.47169703
              82.47799477               -8.93837569               88.37489683                0.00010000               23.03589877               -1.28143838              -17.52663014               39.09000970              112.75796293              -44.85094442
              83.67663517              -13.92671561               85.86432685                0.00010000               19.45624462                7.47643359              -32.65959570               28.02173020               75.23297241              -61.76745450
              84.86711966              -19.05252433               82.84950085                0.00010000               23.43583506               21.02364400              -65.62605477               14.43677724               32.85370532              -85.61044519
              86.14535187              -24.33416128               79.42305965                0.43424040               27.82322122               40.30226109             -121.52001428                7.87327510               14.20657475             -116.94568061
              78.73460957               26.65753730               97.91880644                0.45735263                0.00755935               -1.78324251                1.07950188                0.23643020                0.66315039               16.36242900
              79.73468517               21.27309893               95.58266164                0.01497526               15.06852853                1.27983535               -0.45611831               15.29023590               92.33078307              -14.22860285
              81.03598015               16.19051667               95.07865364                0.00010000               32.75884110               -8.92182939                0.85302652               31.43283745              185.38309103              -17.29895032
              82.38986199               11.26374892               94.26412303                0.00010000               36.45106987              -12.50010016               -2.48447707               37.87745073              177.36223090              -17.32708033
              83.76500154                6.43977936               93.17014629                0.00010000               36.87335454              -12.55160959               -5.79543050               39.51432409              172.46771122              -17.28524805
              85.12732908                1.65921922               91.79299308                0.00010000               34.08320245              -10.62732420               -8.46690967               37.44215961              164.13348490              -18.73628887
              86.44666559               -3.12579344               90.09080097                0.00010000               28.88808822               -6.99956603              -12.07525825               32.89550592              148.04943747              -22.76912815
              87.70509085               -7.95234762               87.98929492                0.00010000               23.03346989               -1.16148589              -19.16783084               26.42245727              120.52437698              -29.98055125
              88.90733499              -12.84916556               85.40118869                0.00010000               20.05491582                7.95792410              -35.06410297               18.41609164               80.30856619              -40.99025287
              90.10618916              -17.83688855               82.27961147                0.00010000               24.43466467               21.63262377              -68.55112584                9.46615648               35.23530782              -56.57820540
              91.39602828              -22.92733831               78.71933512                0.43438545               28.98391212               40.48566720             -124.36294041                5.46623910               15.27669147              -77.50214042
              84.10489283               27.64375446               97.60621462                0.45058225               -0.04293412               -0.89097039                0.30878849                0.22620106               -0.12079760               13.62729278
              85.10446349               22.28281357               95.11623306                0.01147593               10.73259982                0.53283173                0.32337940                8.96651417              104.49334354              -12.41299388
              86.31954482               17.09804807               94.71766973                0.00010000               24.12131220               -8.02352791                1.38204058               16.19641554              208.67726998              -11.64615596
              87.58688973               12.14118056               93.99392632                0.00010000               28.36413434              -10.51653303               -1.85763377               21.95375521              197.59843903              -11.04460472
              88.88682751                7.31855418               92.96084984                0.00010000               30.48171306              -10.73439530               -5.46133799               22.64831236              188.60850002               -9.88825188
              90.19652399                2.55639476               91.61989799                0.00010000               29.92833182               -9.30752513               -8.77546534               20.68182563              177.08042344               -9.84406538
              91.48539415               -2.19322162               89.93099647                0.00010000               26.66460245               -6.05603913              -13.10290747               17.44571512              158.44781448              -11.44882981
              92.72981604               -6.96160541               87.82169289                0.00010000               22.20518979               -0.40206623              -20.89752404               13.45260342              128.65616307              -14.88798347
              93.92949794              -11.76755713               85.20458367                0.00010000               20.23997507                8.56069098              -37.41666352                9.09309743               86.10708467              -20.32276160
              95.13461554              -16.61987186               82.03137788                0.00010000               25.30391175               21.87351199              -71.26865331                4.69391992               38.53925299              -27.99139628
              96.43557618              -21.52444793               78.39447246                0.43440352               30.09606362               40.16550131             -126.62721763                3.19786831               17.05682605              -38.72733663
              89.46101537               28.63971789               97.25104612                0.72486600               -0.12935213               -0.40365721               -0.03926195                0.01602208                6.32796314               11.51931909
              90.45972185               23.28375557               94.68212400                0.44145482                2.02630547                0.09419936                0.95204136                5.04224737              125.11390189              -10.86180637
              91.50154148               18.03004611               94.48839254                0.43553092                7.43545701               -6.80019517                2.01911653                6.68280009              237.19995534              -10.63771425
              92.60843099               13.05341826               93.86445112                0.43660087               15.06060522               -8.77622913               -1.68494965               11.90639254              215.92978972               -9.55725100
              93.80275358                8.22509145               92.90025025                0.43734793               22.21552024               -9.34627229               -6.03181704               12.57512951              202.27017443               -8.62076503
              95.05274139                3.47306871               91.60844333                0.43720722               25.54132456               -8.33260526              -10.19445548               12.02145632              188.29660729               -8.46573821
              96.31358007               -1.24691422               89.95723599                0.43658760               24.78685145               -5.36925999              -15.22721525               11.14570994              168.34042166               -9.34934797
              97.54847842               -5.96038894               87.87660329                0.43542132               21.69416550                0.12164722              -23.58512440               10.31436187              137.27041162              -11.11010255
              98.74746338              -10.67795174               85.27714194                0.43445115               20.42399731                8.96053826              -40.66685855                9.84507535               92.76793037              -13.52568595
              99.95695837              -15.39941831               82.10542007                0.43404085               26.08372095               22.04535431              -75.15172273                9.93045535               42.19927120              -16.24331729
             101.26913780              -20.12402829               78.44669709                0.71695938               31.21794350               40.04196446             -130.53816189               10.89516497               18.37172318              -18.33233724
              36.48464010               19.05362092              101.36480997                0.73082190                0.60161880                0.71767014               -0.09964271                0.59303246               -5.62032299                6.00244104
              37.49065629               13.76855451              100.35448309                0.46542653                4.07337485               -0.92770366                0.24396202                5.09605794               -5.89755365               -5.13894049
              38.56610760                8.60461229               99.33563393                0.45748574                5.62443157                0.73140075                0.37357520                0.44952999               -3.55591699               -0.04907905
              39.60314492                3.57821599               98.35980385                0.44647457                2.67721505                0.41097035                0.34473307                0.72403916               -0.93941803               -0.24250134
              40.61965190               -1.38263018               97.39047478                0.44381847                0.99115404                0.37470027                0.46844257                0.43471747               -0.40965684               -0.04449218
              41.62296800               -6.31403722               96.42327901                0.44165660               -0.07309379                0.30546970                0.62898271                0.30520568               -0.41774946                0.06498625
              42.61819002              -11.24299309               95.45231508                0.43998631               -0.70115006                0.26987591                0.80602139                0.16663022               -0.97162000                0.15873937
              43.60894500              -16.18743402               94.47310191                0.43850805               -0.99534118                0.25768315                0.99528582                0.02322112               -1.91121218                0.19434053
              44.59828320              -21.15758450               93.48274300                0.43770392               -1.02871536                0.26704783                1.22118964               -0.14013069               -3.14493867                0.13263457
              45.58837069              -26.15684894               92.47864458                0.43678338               -0.88993981                0.27660528                1.62009071               -0.18464383               -3.75130988                0.21848173
              46.58048440              -31.18175645               91.47617986                0.71867094               -0.78862892                0.06454102                1.88297382                1.09497847               -3.60029908               -2.28070554
              41.77563683               20.06079762              100.97624064                0.48857269               -0.95156497                5.37642818                0.60745813                6.52619793                4.96368744               12.00437833
              42.76612119               14.75927747               99.96133011                0.09398653               -5.49323389               -6.39920678                0.99109381               14.09698410               11.52696060              -11.22071660
              43.66577216                9.61192629               99.07968256                0.04601449               -8.10573206               12.16657250                0.23833759               41.79997118               15.05218899               -0.45195505
              44.60400654                4.58232569               98.17258220                0.02494434               -4.78232381               14.30561217               -0.07011494               59.62382189               12.48076995               -4.01561715
              45.57012568               -0.37888318               97.26599659                0.01656641               -2.39025166               14.40609317               -0.57985232               73.97951011               11.48330756              -11.29777731
              46.55620151               -5.31098253               96.35422335                0.01235214               -0.67854794               13.67076047               -1.16045295               83.64944525               10.59362241              -19.34594152
              47.55655472              -10.24029433               95.43641568                0.01009222                0.51357041               12.46210531               -1.77903907               88.77824060                9.85337827              -29.52385131
              48.56647292              -15.18485719               94.51011724                0.00846028                1.25173148                9.97411566               -2.41191967               89.12571120                9.02878403              -43.86741489
              49.58158935              -20.15491402               93.57308708                0.00718237                1.60686529                3.77888902               -3.09215927               84.56126198                8.04751189              -66.18166933
              50.59861022              -25.15408289               92.62479703                0.00600150                1.73761708              -11.16226589               -3.92134491               78.89446748                6.13393109             -102.62749152
              51.61634169              -30.18111104               91.65120966                0.43771469                1.77314687              -64.78946095               -4.43146653               94.10296171                4.51691345             -155.49080763
              47.21820435               21.16114948              100.69850651                0.49460412                0.32629445                7.70170375                0.29939634                1.00973232               -1.85638588               20.05469709
              48.22146730               15.64057038               99.45119045                0.06159281               18.04272230               -9.60967709                1.31134876               37.95118811               28.51855408              -19.26823795
              49.57905880               10.84794374               98.80870732                0.00010000               28.24817641               11.90361067                2.72339260               95.76473638               63.35448386               -1.01537762
              50.78643083                5.86432823               97.90733308                0.00010000               20.67457611               19.96322261               -6.43657818              114.39175851               66.49412857               -6.97613208
              51.99255032                0.90549168               96.91574690                0.00010000               18.54686142               22.13219429               -7.80363252              139.46228469               74.49770843              -20.04057717
              53.15736806               -4.04062202               95.89815852                0.00010000               13.75395860               22.45427651               -6.91283136              157.61311310               80.56205010              -35.23878502
              54.26762949               -8.99375098               94.82943595                0.00010000                7.43554325               21.45050901               -4.67025056              167.67089901               81.67488982              -54.51856499
              55.30607892              -13.98795171               93.66949267                0.00010000               -0.44476792               17.75588045               -1.30980557              167.64046974               75.59325272              -81.50234091
              56.25873414              -19.08200672               92.34126974                0.00010000               -5.68109346                7.29506654                2.08217170              154.63318859               55.84452748             -123.28906877
              57.19245705              -24.38009426               90.71835891                0.00010000               12.89328986              -21.26264783               -2.04082758              107.17934260               19.59823260             -192.84848658
              58.51659993              -30.47754566               88.76892937                0.43349222               32.41428820              -85.71091693              -37.62105966               78.19607602                0.32757950             -326.85390148
              52.83698970               22.21483170              100.40026615                0.47820247                0.13609965                3.47759475                0.79722374                0.98309807               -0.04391381               21.30669699
              53.83835070               16.56708393               98.96674743                0.04011379               26.01596628               -5.24990786                0.46853716               47.44079214               43.06972727              -19.84190589
              55.35730903               11.84999851               98.39300726                0.00010000               49.79715348               -2.83704800               -1.98922867               98.21085908               96.78425172              -10.35446409
              56.83429377                6.98159015               97.47444943                0.00010000               45.35062997                5.33696509              -11.87483176              108.23505847              105.24966239              -12.96630910
              58.26432162                2.06376071               96.41293050                0.00010000               38.67063355               10.06870528              -13.79601741              124.35538980              117.81281044              -21.86365569
              59.60770644               -2.86189700               95.27850230                0.00010000               29.64903844               12.90325761              -12.87858299              139.03627909              126.19249162              -34.78849130
              60.85730239               -7.81128415               94.03589782                0.00010000               19.99158097               14.13024661              -10.63383691              148.16908000              126.93243114              -52.24367109
              62.00753806              -12.82973958               92.61904301                0.00010000               10.45466402               12.83865355               -8.08166959              148.77136359              117.10327138              -76.75075221
              63.06639567              -18.00901269               90.91223153                0.00010000                6.50989811                6.44071948               -7.98351088              132.79953677               90.49687451             -113.30198006
              64.13773602              -23.57933584               88.75299739                0.00010000               15.43851769               -9.03258477              -22.77471293               86.26635636               48.24299375             -175.01846976
              65.37516603              -29.89532937               86.12906557                0.43338978               23.74300095              -13.36153492              -79.51114372               44.97202861               20.74069793             -287.24460992
              58.53336185               23.23070138              100.11698076                0.47489599                0.17544869                0.20655312                1.35754927                0.67726231                0.37790363               22.09295484
              59.53511633               17.53557222               98.47349935                0.03230238               29.77039612               -1.66678847               -0.34029392               48.23143613               54.68369509              -20.06079797
              61.12876977               12.79120278               97.91336956                0.00010000               60.11267311               -6.94553656               -4.79245130               96.47831459              119.40859400              -16.16583160
              62.73736979                7.97106754               96.97701952                0.00010000               59.71877477               -4.81298263              -14.37561374               99.92362161              127.73671142              -16.48873914
              64.32314526                3.10686579               95.85942760                0.00010000               53.78843496               -0.80386955              -16.00114445              108.42082828              140.70881965              -21.60294022
              65.81313849               -1.78255686               94.61976887                0.00010000               43.78542068                2.62699995              -15.18170025              117.51540490              148.83999544              -31.10776955
              67.19885368               -6.71114605               93.21362987                0.00010000               33.30481230                4.98529876              -13.46683596              123.03904811              148.32405865              -45.17568815
              68.47923474              -11.73117864               91.55969994                0.00010000               23.27337295                5.77642627              -12.39054122              120.05017220              136.01399812              -65.52272702
              69.66432114              -16.95319233               89.52246861                0.00010000               16.24330595                4.87399489              -15.91943671              101.23248349              106.21401477              -96.45432586
              70.80410086              -22.56074595               86.93049561                0.00010000               19.18532154                7.44147847              -37.90789148               59.07092547               57.68149137             -147.36626638
              72.04802757              -28.74477636               83.75032059                0.43370325               24.39267081               26.34589798             -105.59644565               31.36120579               26.44817853             -232.27984511
              64.24079327               24.21896276               99.83315876                0.47145762                0.16847537               -1.98486990                1.68157046                0.51375052                0.65435889               21.07514933
              65.24247802               18.53374816               97.98596153                0.02731180               30.52933651                0.73010232               -0.85030456               43.62953376               64.84650158              -18.74642159
              66.85138000               13.71108778               97.42007714                0.00010000               63.73125808               -8.35562599               -6.80132865               86.67445484              138.60418082              -18.28741340
              68.51710318                8.88533049               96.47235584                0.00010000               66.74912957              -10.70448254              -15.69257051               89.39043023              145.42712385              -18.00385054
              70.18636259                4.04768332               95.31627560                0.00010000               62.94615943               -9.33134269              -17.04594061               93.65277691              156.82257712              -20.58849216
              71.77602637               -0.80935700               93.99495688                0.00010000               54.01712689               -6.66129160              -16.36704098               97.99385872              163.42839266              -26.95512359
              73.26670513               -5.71157817               92.45535587                0.00010000               43.72807063               -3.92356736              -15.26786552               99.10471198              161.23657249              -37.50819992
              74.65058779              -10.71421105               90.60709326                0.00010000               32.69537664               -1.17760395              -15.48447576               92.67860200              146.83175172              -53.62685687
              75.92061266              -15.91153280               88.30694519                0.00010000               23.00753859                3.46043187              -21.34954094               73.66746274              113.90145709              -78.40034264
              77.11073856              -21.43050627               85.37785049                0.00010000               22.49191512               15.02642544              -46.79527918               40.68856734               60.84980903             -117.75394047
              78.37045096              -27.36841141               81.79215648                0.43388096               25.97124062               40.40226648             -118.11359417               21.53497207               27.67761376             -178.39860163
              69.91406605               25.19100398               99.54280699                0.46709668                0.15159424               -3.09221374                1.77777722                0.37585524                0.77121608               19.19452200
              70.91558199               19.55017427               97.50726976                0.02301110               29.83052422                2.04877163               -1.09266394               36.09002797               74.08649954              -16.88523157
              72.51067653               14.62409026               96.93582001                0.00010000               63.65004326               -9.18530690               -7.82623091               72.36956033              156.10918652              -18.37578749
              74.18858286                9.75697789               95.99085399                0.00010000               69.01058804              -14.24616986              -16.01988729               76.50838510              161.41812195              -17.87402728
              75.89088829                4.92023894               94.81791927                0.00010000               67.18471505              -14.85878885              -17.23638328               79.36953772              170.60568195              -18.77460000
              77.53227716                0.08421730               93.44306523                0.00010000               59.74568390              -13.11258343              -16.81694326               80.55862554              175.04689532              -22.66021638
              79.08580197               -4.78961740               91.80619236                0.00010000               50.02421232              -10.18892468              -16.30644010               78.33743937              170.81843567              -30.15889601
              80.53276140               -9.75473071               89.81200764                0.00010000               38.40818191               -5.80724224              -17.45534504               70.09766819              154.15794167              -42.34409242
              81.85396561              -14.88398370               87.31438826                0.00010000               27.09947095                2.09447072              -24.60823277               53.34467906              118.41359389              -61.25072908
              83.07475082              -20.26021744               84.13743761                0.00010000               25.02858389               17.22433587              -51.46439684               28.43496452               62.30148045              -90.33158387
              84.35453729              -25.93673103               80.26632655                0.43350684               27.97864650               42.84207499             -123.79108462               15.26012513               28.09303397             -133.09127865
              75.52996981               26.15711849               99.24189158                0.45999160                0.12225001               -3.21398999                1.57127797                0.30256736                0.80225063               16.90183732
              76.53119231               20.57472360               97.03842684                0.01820888               28.09988886                2.39943658               -1.01277036               27.01917838               83.11008965              -14.88950454
              78.09196758               15.52738164               96.47923818                0.00010000               60.99649494              -10.49175971               -7.92658786               55.23657110              173.32507024              -17.17197304
              79.75112221               10.60040710               95.55904643                0.00010000               67.72731706              -16.65952247              -15.37684216               61.65701798              177.08194931              -16.24176068
              81.44651393                5.75050754               94.39490087                0.00010000               67.29665042              -18.02209799              -16.66184926               64.32287209              183.76627836              -15.78674793
              83.09705521                0.92839133               92.99651176                0.00010000               61.29440046              -16.68381736              -16.66602133               63.62251803              185.66446036              -17.70659467
              84.67240194               -3.91535667               91.29940485                0.00010000               52.49261175              -13.64812918              -16.77035212               59.47703215              179.10888213              -22.60634553
              86.14690745               -8.83035590               89.20632182                0.00010000               41.02955181               -8.40521622              -18.63427738               51.10923495              160.12511231              -31.24906807
              87.49299297              -13.86964338               86.57092074                0.00010000               29.26388675                0.93152534              -26.51905440               37.65176791              121.88453050              -44.84422961
              88.73218519              -19.08601956               83.22045262                0.00010000               26.78438364               17.00913322              -53.90848231               19.76151503               63.40854545              -65.39098542
              90.02868064              -24.51156991               79.15074662                0.43363593               29.64954592               41.41414572             -126.17759086               10.75499634               28.36527756              -94.98912763
              81.08490718               27.12672418               98.92856440                0.45294222                0.07952313               -2.44012304                1.04673424                0.31975375                0.79058841               14.79946702
              82.08570241               21.59816300               96.57856462                0.01361290               25.24086394                1.86015253               -0.57367092               17.49883935               92.66421427              -13.30591848
              83.58972445               16.41425506               96.06440248                0.00010000               55.64474534              -12.31771522               -7.07837593               36.72154633              191.64724488              -14.89838717
              85.19859731               11.42378744               95.20041376                0.00010000               62.98185231              -18.02057262              -13.80242725               45.48743776              193.39664293              -13.11805747
              86.84936150                6.55979698               94.07278776                0.00010000               63.59972060              -18.97653951              -15.41411696               47.79835764              197.02012781              -11.61241181
              88.47059173                1.75054096               92.67946848                0.00010000               59.23641734              -17.74571300              -16.09187085               45.87131080              195.97349479              -11.97791518
              90.03408985               -3.06257998               90.95707285                0.00010000               51.93205475              -14.79855953              -16.90843687               41.08875523              186.97358335              -14.72020324
              91.50923282               -7.92283504               88.80883214                0.00010000               41.42873895               -9.38925914              -19.42689179               33.92566752              165.75606142              -20.23249422
              92.86266463              -12.86535319               86.08917215                0.00010000               30.13374181                0.18726755              -27.82664331               24.39596712              125.33468982              -29.05726949
              94.11190766              -17.92003478               82.62791088                0.00010000               27.90366522               16.16125700              -55.44525865               12.89213679               64.80768710              -42.25614390
              95.42073793              -23.10844812               78.42684756                0.43346234               30.88302743               39.63695609             -127.28044735                7.22153855               28.86755065              -61.32383620
              86.59348725               28.10831602               98.60696543                0.44552087                0.01509610               -1.13400151                0.05764371                0.30593956                0.04172807               11.74255665
              87.59363821               22.61192665               96.12143873                0.00867549               20.36434090                0.73336450                0.43507959                8.50066572              103.93609379              -10.93301718
              89.00077407               17.28102733               95.71232905                0.00010000               46.08454165              -13.30989126               -5.44030353               17.47040552              213.11626793               -9.59363518
              90.51532905               12.23999564               94.94191886                0.00010000               53.74767432              -16.71012263              -11.48939361               26.08699544              211.08266785               -8.23455568
              92.07572756                7.37097675               93.87226989                0.00010000               56.07646691              -17.62690883              -13.92416179               27.34258581              210.18932823               -6.27031203
              93.63685839                2.57347707               92.50756423                0.00010000               54.59127392              -16.87399500              -15.57383077               25.16481712              206.05988428               -5.81539476
              95.16755304               -2.21132786               90.79109552                0.00010000               49.56678124              -14.38083962              -17.19120493               21.56960657              194.91935566               -6.91397294
              96.62819401               -7.01814108               88.62856693                0.00010000               40.52795090               -9.23158508              -20.29284453               17.11114395              171.85024063               -9.65512335
              97.97811205              -11.86589803               85.87471840                0.00010000               30.24644199                0.06401138              -29.15074658               12.08296723              129.50984751              -14.10236381
              99.23312285              -16.76279442               82.35884080                0.00010000               28.59130194               15.45411537              -56.90133094                6.57383871               66.93593826              -20.53093392
             100.54993809              -21.71883079               78.08380087                0.43304098               31.68152427               39.58080417             -128.48507645                3.82216924               29.83371325              -30.06556565
              92.08380472               29.10404415               98.24752038                0.72229555               -0.08003105               -0.42718723               -0.46969760               -0.08963967                5.29996961                9.61366597
              93.08300441               23.61283029               95.69488839                0.43933184               11.36294219                0.09036402                1.27607509                1.13727397              122.80818440               -9.17072932
              94.31106357               18.14805724               95.49073293                0.43535329               27.36916963              -13.29700965               -3.81945632                4.86668433              240.73392878              -10.28650074
              95.63038780               13.08958498               94.81624906                0.43657734               37.58341110              -15.04106609              -10.05851151               14.46595382              227.19759020               -8.75383676
              97.06273179                8.20725880               93.80820523                0.43725505               46.29024350              -16.37179514              -13.66476131               14.87422672              221.39432957               -7.25502999
              98.55619267                3.41306106               92.48409069                0.43705405               49.71841726              -16.04160157              -16.31575926               14.06065033              215.27072822               -7.12504989
             100.05710013               -1.35019677               90.79922633                0.43647284               47.49166000              -13.88689154              -18.52182693               12.92831982              203.43993135               -8.17505316
             101.50602587               -6.10746674               88.66170868                0.43544508               39.59385861               -8.93256588              -21.78118669               12.08937687              179.49672337              -10.26904822
             102.84897731              -10.86407296               85.92238178                0.43414896               29.51456589                0.18250693              -30.60206239               11.91223855              135.22892231              -12.85256485
             104.09631719              -15.61095247               82.40551768                0.43329554               28.01383810               15.18419443              -58.50325039               13.68148050               69.90015346              -15.53941370
             105.40925407              -20.31683204               78.11065103                0.71670646               31.29368753               40.19987573             -129.88665566               15.34364114               30.94367298              -18.13882265
              37.44189778               19.49283814              102.36071558                0.72418550                0.64353478                1.27470365               -0.44974759                1.06712083               -3.76628521                4.04365397
              38.44833313               14.11093051              101.35603117                0.46001788                4.10469034               -1.24260012                0.06407725                6.19395741               -4.61834406               -3.53972028
              39.52399159                8.86459722              100.33662420                0.45705551                5.65999354                1.12433823               -0.55446289                1.17004351               -4.18503678               -0.03125236
              40.56153300                3.76654016               99.36047693                0.44450489                2.77058649                0.55545322               -0.26949037                1.01485091               -1.77430213               -0.21757004
              41.57940332               -1.25295707               98.39311067                0.43925049                1.13460133                0.41058773                0.00732037                0.75306278               -1.08452563               -0.06762230
              42.58422502               -6.23509160               97.42796782                0.43826811                0.07472627                0.23639165                0.26428491                0.66324163               -0.95885048                0.06797599
              43.58089784              -11.21224674               96.45902636                0.43691376               -0.54623470                0.12824705                0.45683707                0.58362423               -1.27529514                0.14591828
              44.57330033              -16.20491672               95.48178830                0.43614721               -0.82495316                0.07026038                0.61010414                0.49470784               -1.85166595                0.18549784
              45.56439878              -21.22395946               94.49362744                0.43571581               -0.85419594                0.06402268                0.75666801                0.35297335               -2.52966173                0.15042194
              46.55621641              -26.27173674               93.49364577                0.43521546               -0.68270629                0.08060062                1.04309722                0.20502898               -2.65664652                0.13279150
              47.55074465              -31.34278567               92.49409683                0.71750917               -0.54717594               -0.29581521                1.27700254                0.92552082               -2.29225090               -1.52327652
              42.83447662               20.50558517              101.97991113                0.50411110               -1.00834588                7.89961605               -0.09705876                9.43595074                3.38623317                9.36297283
              43.82439316               15.09850451              100.97240804                0.11539571               -6.32947115               -8.66281395                1.39148440               18.55029761                9.27302714               -9.66821385
              44.70788719                9.87584060              100.08538668                0.04560466               -9.69672531               16.49926134                1.62276776               58.71216206               12.44852169               -0.35300539
              45.63045865                4.77209469               99.17632767                0.02082278               -6.00686850               19.95632868                0.90779130               92.89035199                9.74249188              -10.98046747
              46.58774982               -0.24885119               98.26400718                0.01000271               -2.99781879               20.47350465                0.17198915              116.21916825                8.58681852              -17.40557380
              47.57050228               -5.23272769               97.34650680                0.00576889               -0.80515910               20.77651467               -0.49709381              131.82547500                7.85789357              -24.07562513
              48.57164664              -10.21096427               96.42282228                0.00448892                0.68007455               21.21216341               -1.08124940              141.84975433                7.38949608              -32.23353718
              49.58410377              -15.20421412               95.49117788                0.00392128                1.48459397               21.00592316               -1.54320374              146.87979891                6.90866877              -43.78039975
              50.60133852              -20.22331923               94.54880220                0.00304587                1.67880198               17.19931133               -1.91955088              146.00010605                6.19418222              -62.20779581
              51.61767981              -25.27093074               93.59359597                0.00166877                1.48551341                1.97809587               -2.32335100              138.70356748                4.60680368              -96.84947360
              52.63104879              -30.34574383               92.61524464                0.43440382                1.33689830              -80.05307834               -2.49931023              150.07620654                3.14186367             -169.44228742
              48.44477813               21.65083046              101.69493009                0.50990286                0.43055192               10.88552833               -1.98328833                0.64398155               -1.46043920               17.90398201
              49.44908365               15.93767423              100.46886829                0.08195984               28.99332556              -12.47852408                2.84844198               49.78247325               27.41026989              -18.13428523
              51.02464464               11.19458245               99.81694294                0.00010000               54.74740926               17.25496030              -24.01610364              134.11683522              117.19212186                6.00871519
              52.54403183                6.16566673               98.77381673                0.00010000               44.19822087               29.34104389              -24.31850561              171.08185120              131.21167292               -7.74197477
              53.90860906                1.15651302               97.78705573                0.00010000               31.94078846               33.85575465              -23.49006252              210.48777314              146.34322465              -17.51289082
              55.18284760               -3.81956131               96.78312867                0.00010000               24.03851500               36.74872384              -22.41826499              239.98392454              153.13680013              -27.62310704
              56.38937936               -8.78800348               95.74140415                0.00010000               17.02018333               39.19609585              -21.35742571              259.86390616              156.87738721              -39.68570156
              57.52325127              -13.78479826               94.62442194                0.00010000                8.08690795               39.90466063              -19.37165351              269.10212310              156.78024839              -56.47126866
              58.55111752              -18.87997323               93.35994701                0.00010000               -3.52694592               34.13659682              -15.05178618              261.98994471              145.73954788              -83.55183241
              59.45271235              -24.23217483               91.75504622                0.00010000                7.53887209                4.15903826               -9.22019199              188.47873466              101.66470408             -133.34187039
              60.70189496              -30.94384724               89.38109331                0.43304393               24.91826078              -85.80598788              -29.96143372              127.74778359               55.21409725             -290.21599732
              54.27366871               22.72329574              101.40408821                0.47901452                0.26219247                4.40878958               -0.15726149               -0.17168935                0.15315838               19.83216300
              55.27629063               16.84893402               99.97281252                0.04562099               44.42813425               -5.98816619                0.82859913               62.09424876               39.10768184              -19.33595311
              57.16223139               12.22093981               99.31521369                0.00010000               90.69372341               -3.00493929              -30.23808365              131.95282225              137.26130864               -8.80561095
              59.09016510                7.35891557               98.25983389                0.00010000               81.02509680                8.97655593              -29.86379411              144.95816455              159.91916130               -7.92116865
              60.78273333                2.42826390               97.20041517                0.00010000               61.22660813               16.83500689              -27.82514913              168.24466196              178.72289778              -13.64265777
              62.31469727               -2.49775321               96.08272483                0.00010000               47.57141922               22.07283759              -25.60149284              191.24301315              187.59834605              -21.54524999
              63.73416171               -7.42704236               94.86811754                0.00010000               37.17093622               25.83582592              -23.51289109              208.99030741              191.09867898              -32.12894829
              65.05811599              -12.40612091               93.48640197                0.00010000               27.71761344               27.26243960              -21.00783632              218.18524470              188.11881710              -47.18832867
              66.28851398              -17.54058730               91.81215605                0.00010000               19.65062582               23.06108562              -18.58127980              205.30728028              170.02535339              -70.36626096
              67.45112851              -23.18774997               89.55009395                0.00010000               16.04176536                6.92227887              -20.87991951              138.19085395              121.02768180             -114.30854485
              68.60934929              -30.06186358               86.25053163                0.43317330               15.82207848               15.05130108              -76.17638589               74.83210399               79.76606753             -224.13725431
              60.19006778               23.73900625              101.12848293                0.47137536                0.32567797               -0.21466676                0.85170877               -0.40502970                0.44282734               20.28434734
              61.19332456               17.81791090               99.46995882                0.03264340               48.18258829               -1.27464228               -0.30881609               61.49993554               50.27675276              -19.22901894
              63.15371954               13.13448366               98.80294539                0.00010000              102.12732400               -9.34116681              -33.59498658              121.86640200              154.35614268              -12.37286653
              65.23587104                8.34519785               97.73768167                0.00010000               98.82257679               -6.34456698              -32.42544569              123.42159574              175.02020083               -9.30473864
              67.13017108                3.49321316               96.62862223                0.00010000               81.35715434               -0.83678307              -29.79065564              134.44293690              193.73207281              -11.06230062
              68.86301412               -1.37810456               95.40753654                0.00010000               67.36910626                3.71305278              -27.06400059              149.14190014              202.30059691              -16.16211597
              70.47755320               -6.27128696               94.02757848                0.00010000               56.87434922                6.80520054              -24.81055302              161.53912377              205.01677208              -24.02748100
              72.00050111              -11.23954947               92.39847773                0.00010000               48.06694937                7.81195635              -22.94326675              164.93384261              200.23646029              -35.65310179
              73.43889219              -16.41875152               90.36199514                0.00010000               36.86523045                6.10229166              -22.55378147              146.67801773              179.85200762              -54.35756048
              74.73780572              -22.09372925               87.59578535                0.00010000               25.39360360                9.88005820              -31.02636806               89.12389611              125.63287060              -88.37718620
              75.94676426              -28.64282122               83.63171771                0.43323345               20.89585463               44.32683873              -92.23395298               49.77510725               82.28033795             -162.59321019
              66.10775881               24.71900241              100.84912769                0.46734745                0.30531256               -3.00798713                1.49168877               -0.47167322                0.67766272               18.89705695
              67.11081193               18.82344118               98.97656348                0.02697937               48.22568400                1.65623790               -1.04940769               54.81281784               59.99737524              -17.60490419
              69.07227249               14.03411647               98.28591055                0.00010000              104.45277933              -10.41720146              -34.35491878              107.79666730              168.32467147              -13.86227318
              71.19986752                9.23202423               97.22158797                0.00010000              106.13109955              -14.06102104              -33.17492338              108.10562462              187.00539404              -10.38673448
              73.19489448                4.41152824               96.07677088                0.00010000               93.10839328              -12.90491842              -30.37485278              113.39386220              203.57278288              -10.51659439
              75.06203538               -0.42349215               94.77389429                0.00010000               81.57473103              -10.40619361              -27.66677316              121.40418530              210.99055131              -13.43987084
              76.82638910               -5.29093835               93.25630055                0.00010000               72.11110112               -8.23258674              -25.64741230              127.35213471              212.65755273              -19.00676896
              78.50425741              -10.24988178               91.42309543                0.00010000               62.49325107               -6.66398974              -24.39307981              124.83320246              206.69234192              -27.92418137
              80.07625412              -15.41854147               89.10451544                0.00010000               47.67093585               -3.44664219              -25.41783586              104.82172160              184.43260313              -42.44699999
              81.45767612              -20.99014881               85.97345233                0.00010000               31.33906279                9.35670083              -35.74963319               60.47541038              127.33809019              -67.45668564
              82.70303538              -27.17532681               81.58262967                0.43292145               24.53592516               44.45109875              -97.74502119               33.11257145               82.89736638             -116.42502954
              71.97175676               25.67884651              100.56045315                0.46279007                0.27100793               -4.36518792                1.75793949               -0.45592499                0.76683225               16.76788913
              72.97446684               19.85103566               98.49508587                0.02272159               46.46565360                3.23453707               -1.41038992               44.64872666               69.10081031              -15.47957344
              74.90106984               14.92613963               97.79267594                0.00010000              102.30524596              -11.48268770              -33.42224151               88.40445794              181.18097274              -13.53291952
              77.02057176               10.06397743               96.74153040                0.00010000              107.62474343              -18.76183318              -32.51988158               90.68436660              197.66006374              -10.20582378
              79.05356471                5.23511479               95.57984389                0.00010000               98.64963243              -20.62726616              -30.01770153               94.23856092              211.88427528               -9.46921326
              80.99356441                0.41377157               94.22084318                0.00010000               89.87104077              -19.90508695              -27.68157578               97.89021823              217.74152070              -10.96931216
              82.85098552               -4.43593869               92.60114110                0.00010000               81.56019321              -18.26496816              -26.09863618               98.76474232              218.18356882              -14.75941878
              84.62476828               -9.37282926               90.61490858                0.00010000               71.23040653              -15.51498899              -25.40071825               92.64890214              210.94259610              -21.37595934
              86.27559365              -14.48768437               88.08941244                0.00010000               53.96654954               -8.99213159              -27.06831751               74.50874488              187.05367032              -32.24834577
              87.70409927              -19.90659523               84.70216090                0.00010000               35.18890207                6.96657499              -37.79223152               41.58368443              128.03020252              -50.17972614
              88.97937169              -25.75379924               80.02376331                0.43294686               27.52724259               39.04309876              -99.07277739               22.73130091               82.74593430              -83.39299437
              77.75426200               26.63169865              100.25806489                0.45692439                0.22313428               -4.51968580                1.68533416               -0.42346503                0.80427311               14.23317826
              78.75649334               20.88813192               98.02674469                0.01746460               43.65789401                3.64665050               -1.42246422               32.52143027               78.09709437              -13.14090571
              80.62741988               15.80446272               97.33829449                0.00010000               97.40431761              -13.33407871              -31.17375387               65.73308524              193.84901521              -12.38812530
              82.70457969               10.85678757               96.32273234                0.00010000              105.12258400              -22.27310419              -30.65497990               71.16790006              208.00901721               -8.98590603
              84.72987156                5.99898291               95.16657350                0.00010000               99.31567702              -25.24763441              -28.79325687               74.72016085              219.70483321               -7.69013353
              86.69089323                1.17840611               93.77899429                0.00010000               92.92066092              -25.25815649              -27.14230984               75.68644247              223.82757783               -8.23480135
              88.58828478               -3.65623771               92.09314308                0.00010000               85.90439458              -23.79747403              -26.15569149               73.36002094              222.84759353              -10.66813347
              90.40898112               -8.56018156               90.00221129                0.00010000               75.59551061              -20.32066722              -25.94935332               66.05990548              214.26567027              -15.35815465
              92.10019499              -13.59838410               87.33394576                0.00010000               57.32417830              -12.32121254              -27.93568346               51.43603214              188.91960896              -23.12695120
              93.55546469              -18.85081731               83.77133120                0.00010000               37.59372147                4.30978079              -38.57237775               28.22437495              128.49412122              -35.62333322
              94.85206942              -24.39446483               78.89950783                0.43313049               29.66047272               33.34649770              -98.93773113               15.44195994               82.60892507              -57.95733007
              83.45042092               27.58845279               99.93974113                0.44853376                0.17104589               -3.60245155                1.24754626               -0.32247279                0.80882212               11.72802250
              84.45213138               21.92396867               97.57118822                0.01134779               39.83274889                2.98487686               -1.04471642               19.61668324               87.65622871              -10.97224265
              86.24707590               16.65945806               96.93708612                0.00010000               89.86390962              -16.23089012              -27.63256751               41.42584251              207.40778369              -10.51851298
              88.24940957               11.61851535               95.98807449                0.00010000               98.96367432              -24.80667085              -27.64778011               50.73632981              218.69856220               -6.63911779
              90.22634938                6.73016210               94.86186395                0.00010000               95.65521579              -27.06262254              -26.85124983               54.25951188              227.51691734               -5.17545440
              92.16251388                1.90860844               93.47115566                0.00010000               91.52121112              -27.14707219              -26.18364978               53.29762705              229.62917760               -5.09148060
              94.05677360               -2.91188817               91.75263223                0.00010000               86.27994448              -25.87084242              -25.95678967               49.33213701              227.13461736               -6.51506885
              95.88811277               -7.77924261               89.60075709                0.00010000               76.90882198              -22.37014326              -26.24291308               42.59981987              217.24918754               -9.59361501
              97.59495004              -12.73410862               86.84465583                0.00010000               58.82773640              -14.22149640              -28.44174748               32.40345096              190.62794867              -14.74278184
              99.06466750              -17.82039962               83.17070629                0.00010000               39.02779493                2.13599867              -38.95810655               17.80132368              129.04392052              -22.73125757
             100.37550594              -23.08686929               78.17372617                0.43277352               31.08384402               29.24510587              -98.57689838                9.86607678               82.66590601              -36.91493946
              89.07678078               28.55964962               99.60736749                0.44053055                0.10409578               -1.87857463                0.25207089               -0.08912479                0.29967321                8.51153971
              90.07782174               22.94782946               97.12493465                0.00497538               34.23046368                1.47364948               -0.04099558                7.03684561               98.73246994               -8.14633169
              91.76139005               17.47984492               96.60886366                0.00010000               78.53902532              -19.59748563              -22.49292822               18.03040910              223.19777859               -6.48806447
              93.64860224               12.36065415               95.76413845                0.00010000               88.17893245              -24.44171075              -23.77540931               28.16932310              230.50734491               -3.76131215
              95.52496870                7.45773046               94.68236661                0.00010000               87.51469029              -26.10209659              -24.49320748               30.56298357              235.10937548               -2.34984498
              97.39889605                2.63546466               93.30842138                0.00010000               86.89049296              -26.55468215              -25.20667112               28.66179751              235.25869559               -2.05538516
              99.26277856               -2.17365456               91.58717237                0.00010000               84.21509584              -25.73943690              -25.84162168               25.24690081              231.45958199               -2.68974108
             101.08319797               -7.00758442               89.41583600                0.00010000               76.33212281              -22.64054029              -26.56169794               20.89925995              220.35361457               -4.37532517
             102.78942102              -11.88281403               86.62156874                0.00010000               59.05269352              -14.81105851              -28.94270392               15.63849370              192.76581055               -7.11030432
             104.26425184              -16.80809733               82.89335126                0.00010000               39.64546412                0.84196370              -39.36927027                8.76379952              130.03283889              -10.98954352
             105.58233030              -21.80956272               77.82477094                0.43300988               31.80784635               27.31821198              -98.60911537                4.96539292               82.86064046              -18.16909950
              94.67227874               29.55088130               99.24165217                0.71924831                0.03942480               -0.87683169               -0.36225935               -0.19416775                3.48538811                6.43691877
              95.67267299               23.95344166               96.70764550                0.43689226               26.12903230                0.56122048                0.79280927               -4.68352267              115.54644674               -6.25367883
              97.19485939               18.26750835               96.41200342                0.43518034               58.11187483              -21.23365710              -17.05372517                2.15890669              246.32001739              -10.23042168
              98.83491048               13.12968113               95.66328089                0.43571716               68.39695771              -23.09730170              -19.80643570               15.66141528              241.85661122               -6.45712591
             100.56279854                8.20812017               94.62695502                0.43612301               76.61121859              -24.96102923              -22.89791731               16.17466695              242.21264994               -5.65618505
             102.36713486                3.37751480               93.28212815                0.43620274               82.09810835              -25.79498658              -25.04310743               15.08402650              241.39344560               -5.94981847
             104.20476071               -1.42667691               91.58679945                0.43572157               82.40612928              -25.30223533              -26.36247733               13.71980407              237.77100535               -7.35091487
             106.01525744               -6.23205341               89.44097956                0.43554326               75.17360612              -22.44689880              -26.96249111               13.02330365              226.58354220               -9.97434482
             107.70823283              -11.03032979               86.66510069                0.43443446               57.57173711              -14.75157620              -28.68298158               13.30583459              197.33105995              -13.98517424
             109.16669218              -15.80356034               82.93535507                0.43330028               38.47558674                0.45369925              -39.32672931               14.73527152              132.31889712              -15.77992666
             110.47774456              -20.54050505               77.84896397                0.71667416               31.10523801               26.90576659              -98.61635659               15.84695553               84.26568826              -19.53464277
              38.41868322               19.89610290              103.35581501                1.00000000                0.36975683                1.77396697               -0.49005644                0.85879205               -2.32649379                2.17492112
              39.42238079               14.46500636              102.35576464                1.00000000                2.96389406               -1.19302834               -0.02665314                2.89050678               -4.15875078               -1.25289865
              40.47796110                9.10646227              101.32454468                1.00000000                4.43958056                1.80851812               -1.20795217               -2.85597672               -4.67057821                2.94582831
              41.51117240                3.94216311              100.35441404                1.00000000                2.62546948                0.72134331               -0.60628864               -0.70554601               -1.73223435                1.19469335
              42.53047049               -1.12577563               99.39062119                1.00000000                1.33514534                0.48359270               -0.24894895               -0.47469504               -1.18574932                0.59966277
              43.53787531               -6.14975566               98.42856470                1.00000000                0.41965738                0.20997796                0.05968823               -0.42764929               -1.09344003                0.10527136
              44.53886364              -11.16766656               97.46145182                1.00000000               -0.02823552                0.03236983                0.24254617               -0.55638619               -1.36645590               -0.20809526
              45.53731060              -16.20250322               96.48530399                1.00000000               -0.15155728               -0.05955993                0.35156889               -0.72737251               -1.77774657               -0.36373269
              46.53583249              -21.26492557               95.49787636                1.00000000               -0.12711103               -0.04639332                0.42489152               -0.85727191               -2.14650189               -0.41464070
              47.53476837              -26.35409350               94.49950653                1.00000000               -0.10476098                0.16206940                0.58607504               -0.52605289               -1.95262616               -0.35332641
              48.53373727              -31.45451760               93.50171991                1.00000000               -0.10311019               -0.24356711                0.76230788                0.17202496               -1.47939949               -1.22283806
              43.85836768               20.91384257              102.97429946                1.00000000               -1.22615057                9.94745720               -0.56116659               15.04514861                3.87513922                5.97702601
              44.84610617               15.45307608              101.98915979                1.00000000               -7.37723589               -9.37630846                1.67517557               21.79919692                9.06322398               -6.92311014
              45.71082296               10.12454745              101.11213791                1.00000000              -11.29351427               31.59143829                2.67512307              131.81460768               10.37248820              -24.93728703
              46.62023589                4.94937654              100.19073803                1.00000000               -6.95700193               34.19097056                1.44103576              184.19459729                6.84264643              -28.94436856
              47.57168292               -0.12093970               99.26943637                1.00000000               -3.28458042               37.23007530                0.54291959              214.12999856                6.07048201              -34.44262810
              48.55454428               -5.14765588               98.34428147                1.00000000               -0.60046817               41.02267361               -0.22253264              234.07385822                5.67191596              -40.43139316
              49.55967356              -10.16734287               97.41479069                1.00000000                1.20610485               46.74531476               -0.80315922              248.47886924                5.55127631              -48.59607841
              50.57866638              -15.20309882               96.47925317                1.00000000                2.16906759               54.49510289               -1.19247172              259.38918970                5.45152966              -60.05069002
              51.60305491              -20.26538951               95.53469607                1.00000000                2.28187403               62.42641783               -1.41061336              267.88471717                5.12548128              -77.08914470
              52.62430386              -25.35247280               94.57833001                1.00000000                1.64133557               67.53319274               -1.52659539              273.91363479                3.98877423             -106.43177920
              53.63588162              -30.45695327               93.60122345                1.00000000                1.15777653              -23.13175039               -1.40211893              281.30447430                2.77262686             -177.72190464
              49.64111917               22.09505204              102.65884074                1.00000000                0.65406742               13.20397728               -3.60893448               10.45464359                4.56595894               15.56323112
              50.64765985               16.27748019              101.50815929                1.00000000               98.84168086              -13.69008689                3.92910020               75.32558330                3.33484524              -16.31142253
              53.61795279               11.73829103              100.32838525                1.00000000              139.64458234               28.16681942              -48.85576873              222.65965957              154.97099924              -11.82375808
              55.44055150                6.62598252               99.42096297                1.00000000               64.60750436               45.49626497              -35.28537604              270.38872347              195.52998593              -19.64664518
              56.91010288                1.61882587               98.44594565                1.00000000               41.26020677               53.51403756              -34.11100815              324.44605093              201.59089456              -24.41915785
              58.26575563               -3.32930219               97.44979322                1.00000000               32.68905438               61.52230031              -33.33354468              364.29202848              206.10789236              -29.86453871
              59.56388397               -8.23276027               96.40228744                1.00000000               27.86927005               71.36527116              -33.91167165              396.63131473              209.06377963              -36.93321400
              60.82314103              -13.11260116               95.28205960                1.00000000               23.95084251               82.77684387              -34.23623426              423.17862820              211.88630487              -46.79863461
              62.04290082              -18.01639722               94.04023401                1.00000000               19.07318990               92.35017324              -31.97129993              445.46636881              211.77310357              -63.34690498
              63.20460483              -23.00342964               92.53395507                1.00000000               16.29434355               82.31134638              -22.10911464              379.74274122              181.66258224              -89.27203228
              64.36878769              -29.91715260               90.16970070                1.00000000               16.41828580               -8.58727932              -21.13926143              305.31422276              130.26383559             -247.11481623
              55.70260425               23.17792211              102.39712092                1.00000000                0.67745979                4.81484035               -0.69672951               11.04259482                1.51340443               19.22134677
              56.70937885               17.17927434              100.98331942                1.00000000              105.64547864               -6.51196546                1.05068984               86.42454003               12.86505524              -19.00778157
              59.81551383               12.68788383               99.78824559                1.00000000              171.90483312               -8.26212200              -52.69681060              150.51222396              160.02094995               -7.65136829
              62.14747551                7.85930184               98.87717355                1.00000000              110.01874090                9.86180809              -38.26603379              161.65013418              209.14013738               -4.58399105
              64.01588864                2.94934105               97.85642751                1.00000000               77.22477389               19.52190956              -34.39876590              192.06586268              217.78047612               -7.00884340
              65.69197099               -1.91720987               96.76647245                1.00000000               62.98550945               26.61667676              -31.62523792              225.25300313              223.18799674              -10.51088416
              67.27559883               -6.74003744               95.56563999                1.00000000               56.69524493               32.64407942              -30.24775430              255.70059448              225.76440369              -15.54294025
              68.82587589              -11.54756194               94.19888629                1.00000000               56.38059657               36.58335166              -28.75156820              282.40288277              225.52428691              -23.20535337
              70.40321076              -16.41838604               92.54060593                1.00000000               64.70190886               34.18471428              -27.15501138              293.12344600              218.29531383              -36.22192606
              72.11991407              -21.70624588               90.33539900                1.00000000               58.32006185               12.58907881              -21.46949443              231.60590315              170.12515218              -63.04893131
              73.56961200              -28.62869885               86.60553785                1.00000000               44.96979342               29.42070008              -64.49937796              170.40379859              123.04015638             -169.88648532
              61.85926662               24.19134885              102.13401493                1.00000000                0.69223086               -0.64942162                0.55319995               10.43273797                0.25069398               18.52784096
              62.86618893               18.14724088              100.46732303                1.00000000              104.44515755               -1.13756586               -0.26357915               83.89817787               22.65918250              -17.98430442
              65.94816977               13.57304859               99.24146983                1.00000000              177.29540191              -12.18860342              -56.14755569              141.66564505              172.50440225               -8.90684815
              68.41209697                8.82321868               98.32851061                1.00000000              128.98810359               -9.27773811              -40.91710566              137.75453453              218.72982569               -5.61372627
              70.52793184                4.00926407               97.26361448                1.00000000              102.40486076               -3.16056354              -36.50077511              153.47179774              227.27498916               -5.77735796
              72.46019418               -0.79696865               96.07848886                1.00000000               89.01580429                1.28744089              -32.90476820              176.75969979              232.40822213               -8.12896089
              74.30824793               -5.57987868               94.71741880                1.00000000               84.46765529                3.73806358              -31.01596786              200.55453676              234.18676006              -12.02079067
              76.14954729              -10.38093413               93.10083461                1.00000000               87.79028693                2.92182074              -29.76431239              217.87597977              232.60332691              -18.12119768
              78.06405367              -15.33270293               91.07139298                1.00000000               94.87442076               -3.47520264              -29.06021609              214.24915593              222.97282997              -28.49601395
              80.04703570              -20.75164807               88.30996825                1.00000000               77.88579746               -8.98848299              -28.58171008              153.17181955              172.63542653              -49.41894021
              81.62176962              -27.32873860               83.90564153                1.00000000               57.47339133               26.98706253              -72.60761733              104.31252732              127.06786370             -107.00582804
              67.99947495               25.16493368              101.86299253                1.00000000                0.61677198               -3.69621457                1.38648473                9.20246515               -0.63030226               16.79067033
              69.00564267               19.15652302               99.96497337                1.00000000               98.66869909                2.15803482               -1.15901038               73.91822829               32.98238507              -16.10486882
              71.97284893               14.44411177               98.73297877                1.00000000              173.03540309              -13.60003317              -55.29317810              122.84528754              182.25184418               -7.70520349
              74.46635073                9.67374708               97.80885737                1.00000000              136.63314995              -18.57508200              -41.27306039              119.22686108              225.43830978               -5.23042804
              76.70551193                4.88612978               96.70877854                1.00000000              117.49785017              -18.41060044              -36.79923413              127.80605197              232.69994718               -4.84230848
              78.81630773                0.10853895               95.44162141                1.00000000              108.25715606              -17.16501432              -33.22728808              142.71051144              237.10868905               -6.24964707
              80.87065505               -4.66527617               93.94240763                1.00000000              105.99560026              -17.08848113              -31.38929223              157.47477722              238.30710748               -9.09374108
              82.93621974               -9.48912553               92.11923166                1.00000000              109.41263838              -19.02158145              -30.38637663              164.55903876              236.00527536              -13.76644204
              85.05890782              -14.48789010               89.79858847                1.00000000              112.15831949              -21.28390021              -30.59269623              152.34215118              225.44667819              -21.85341665
              87.17938613              -19.88601553               86.66285783                1.00000000               87.55679017              -15.50213857              -31.05945031              102.64503987              174.10437969              -36.00543627
              88.81004362              -26.08895760               81.83725606                1.00000000               63.06574928               20.36347597              -74.53736088               66.92987058              128.14064742              -72.40160599
              74.06013724               26.11742456              101.57796578                1.00000000                0.52381680               -5.12198051                1.75126353                7.75873819               -1.05233442               14.48809166
              75.06537541               20.19040158               99.47906196                1.00000000               91.38571126                3.96400546               -1.60239128               59.54426520               43.56132635              -13.81319919
              77.88785147               15.30104793               98.26737518                1.00000000              164.46203844              -15.44514087              -52.53007587               98.07133843              191.74788279               -6.36995376
              80.35461618               10.45171704               97.34045635                1.00000000              138.07047727              -24.98010962              -40.10740405               97.83384696              230.91394465               -4.37156597
              82.64926101                5.64105206               96.21756524                1.00000000              125.55970892              -28.57224848              -36.22786510              104.34253694              237.01849898               -3.89341378
              84.86581036                0.85973106               94.88943372                1.00000000              120.30734682              -29.75780619              -33.14094640              113.40145479              240.55731440               -4.80184314
              87.05540795               -3.92164830               93.28421963                1.00000000              119.87658158              -30.74671480              -31.69214696              120.71924691              241.17022054               -6.87679147
              89.26334199               -8.76136576               91.30399327                1.00000000              122.61893736              -31.71209840              -31.09153107              120.92329016              238.29748508              -10.44849513
              91.50778670              -13.75838094               88.77302191                1.00000000              121.88310095              -29.97678481              -31.63905320              107.15161693              227.09929010              -16.38872718
              93.70100401              -19.06169084               85.38159298                1.00000000               92.92322341              -19.05080398              -32.05679203               69.70156330              175.28292891              -26.20219898
              95.36625117              -24.92146908               80.28487100                1.00000000               66.52471568               13.41391119              -73.88923025               44.74528900              129.01574949              -50.03018703
              80.00869567               27.06249407              101.27559827                1.00000000                0.42089315               -5.27212632                1.75333720                6.23351502               -1.11870371               11.85701977
              81.01290460               21.23580313               99.00997755                1.00000000               83.21322830                4.50633020               -1.67671380               42.44107278               54.64936806              -11.30246248
              83.67296024               16.13520895               97.85576310                1.00000000              153.50594683              -18.38661501              -48.25313838               68.57420752              201.35249983               -4.70657935
              86.08302354               11.17414488               96.94594683                1.00000000              135.56942031              -30.10590321              -37.67855121               73.63252009              236.00801638               -2.91417773
              88.38434864                6.31468481               95.81903574                1.00000000              128.20068242              -35.02786392              -34.75377611               80.32977972              240.83364504               -2.51993445
              90.64703719                1.51338282               94.45366556                1.00000000              126.08940842              -37.02234020              -32.53287298               85.58506824              243.47715964               -3.18423990
              92.90613681               -3.28021047               92.77629102                1.00000000              127.21904939              -38.26311711              -31.68520617               87.75112518              243.46866327               -4.71140438
              95.19141818               -8.12336750               90.68733476                1.00000000              129.80642105              -38.34831448              -31.48765301               84.58178323              240.03950767               -7.31956361
              97.50226523              -13.08742579               88.01220707                1.00000000              127.25436821              -34.47254343              -32.17386903               72.69117890              228.29053974              -11.53840464
              99.73650554              -18.26703161               84.44900506                1.00000000               96.11203295              -21.74945766              -32.23261426               46.47290643              176.09333125              -18.26364222
             101.42450589              -23.82067938               79.17199200                1.00000000               68.80003520                7.47295351              -72.75158336               29.72348031              129.54234101              -34.09952527
              85.83818942               28.01198203              100.95351533                1.00000000                0.32925656               -4.29291483                1.37742019                4.63715140               -0.80765348                9.17335305
              86.84148199               22.28052818               98.55767029                1.00000000               74.14022211                3.83698042               -1.35179360               23.76102192               66.84685136               -8.81198571
              89.32099387               16.93331563               97.51175113                1.00000000              140.31543674              -22.94301018              -42.53349878               36.08182014              211.88119072               -2.27887396
              91.64779072               11.84959898               96.64745816                1.00000000              129.78124022              -34.22909424              -34.06163245               48.80643060              241.03869720               -0.86844513
              93.91661867                6.94049478               95.53576277                1.00000000              126.23081358              -37.78980118              -32.61011874               55.94843905              244.44379502               -0.79823215
              96.17240700                2.11928426               94.15579549                1.00000000              126.52810518              -39.59929666              -31.53601779               58.13919619              246.09802588               -1.44415567
              98.44718077               -2.68691064               92.43793706                1.00000000              129.48929921              -40.95397117              -31.46951733               56.77884677              245.44963638               -2.60364396
             100.76219298               -7.52833205               90.28397388                1.00000000              132.90468092              -41.12512810              -31.67832102               52.42652977              241.52802775               -4.40903374
             103.10527439              -12.44783181               87.52033721                1.00000000              130.07613723              -37.05615937              -32.43186209               44.26499128              229.27117844               -7.18945611
             105.36371572              -17.49667999               83.84874875                1.00000000               98.13709548              -24.01012227              -32.19575455               28.49468434              176.65344141              -11.50552064
             107.06801630              -22.77201001               78.45530959                1.00000000               70.43005772                3.16143960              -71.84165798               18.45728109              129.90711996              -21.53274387
              91.56434640               28.97663578              100.61200684                1.00000000                0.24450481               -2.38844296                0.46393514                2.75751692               -0.38224075                6.03660919
              92.56679145               23.31254274               98.12061882                1.00000000               63.05897247                2.09034201               -0.43158342                4.09065406               81.42015288               -5.87495729
              94.82552585               17.67634875               97.26247049                1.00000000              124.25907771              -29.80731685              -34.63931752                6.89274583              223.70317204                1.54574747
              97.05197300               12.48956300               96.46641067                1.00000000              120.40531464              -34.37206943              -29.77277772               24.36588695              246.33383846                1.52399411
              99.23363214                7.55888878               95.38240574                1.00000000              119.26267674              -36.77682542              -29.99608642               30.16763756              247.71735055                0.84003796
             101.43722653                2.72139689               94.00343081                1.00000000              122.78489585              -38.63165536              -30.49905691               29.68157465              248.42591561               -0.03512459
             103.68933006               -2.09928989               92.27426309                1.00000000              128.18216985              -40.47792887              -31.29092850               26.96105516              247.35025758               -0.86154707
             106.00086993               -6.94587006               90.09733297                1.00000000              133.32914709              -41.44543571              -31.85030274               23.39717040              242.84725855               -1.90431441
             108.35591300              -11.82854898               87.29586433                1.00000000              131.48537509              -39.15042680              -32.57044150               19.72923030              230.35531949               -3.15424841
             110.63057743              -16.74723406               83.57145540                1.00000000               99.41992794              -25.69393111              -32.18958662               13.31072588              177.42027168               -5.40195523
             112.34431156              -21.75745059               78.11161857                1.00000000               71.37341242                0.80495231              -71.31523698                8.94503316              130.21444262              -10.63807173
              97.22152583               29.96421317              100.24027519                1.00000000                0.20562680               -1.24226021               -0.13769766                1.53012840                1.97164748                4.16002235
              98.22358210               24.32233502               97.71074458                1.00000000               53.01513453                0.97922829                0.30990792              -15.67312874              100.56007275               -4.09808818
             100.28182852               18.33716929               97.14965842                1.00000000              101.44931628              -33.91794552              -26.23449939              -12.37860428              244.16570205               -4.31511180
             102.25256843               13.16215759               96.42012034                1.00000000              100.31545045              -32.74054128              -24.31605460               13.44899153              251.79521730               -1.38138743
             104.28813753                8.20495827               95.35024689                1.00000000              108.58243678              -35.39305127              -27.67081345               14.67521741              250.68930907               -3.53207577
             106.42421716                3.34665115               93.98322854                1.00000000              118.27656472              -37.47457370              -29.88996041               13.62768802              251.79472546               -5.10659115
             108.65366883               -1.49646922               92.27197679                1.00000000              126.75891582              -39.71793323              -31.48226616               11.23928105              251.85232785               -7.20786116
             110.95939548               -6.35724076               90.12245886                1.00000000              132.37770863              -41.13707045              -31.85207006                9.13399861              248.25107164              -10.00614621
             113.30122300              -11.23084034               87.34872215                1.00000000              129.97181862              -40.22913620              -31.63785424               11.86510750              234.12522866              -14.76527344
             115.55883185              -16.01055861               83.61898309                1.00000000               98.30635107              -26.33245528              -31.63719725               16.57191038              178.69405417              -15.94705733
             117.26735002              -20.75591097               78.13832390                1.00000000               70.85181699                0.15396209              -71.06400766               17.76861082              130.89462586              -18.87005852
         1          2         13         12        122        123        134        133  
         2          3         14         13        123        124        135        134  
         3          4         15         14        124        125        136        135  
         4          5         16         15        125        126        137        136  
         5          6         17         16        126        127        138        137  
         6          7         18         17        127        128        139        138  
         7          8         19         18        128        129        140        139  
         8          9         20         19        129        130        141        140  
         9         10         21         20        130        131        142        141  
        10         11         22         21        131        132        143        142  
        12         13         24         23        133        134        145        144  
        13         14         25         24        134        135        146        145  
        14         15         26         25        135        136        147        146  
        15         16         27         26        136        137        148        147  
        16         17         28         27        137        138        149        148  
        17         18         29         28        138        139        150        149  
        18         19         30         29        139        140        151        150  
        19         20         31         30        140        141        152        151  
        20         21         32         31        141        142        153        152  
        21         22         33         32        142        143        154        153  
        23         24         35         34        144        145        156        155  
        24         25         36         35        145        146        157        156  
        25         26         37         36        146        147        158        157  
        26         27         38         37        147        148        159        158  
        27         28         39         38        148        149        160        159  
        28         29         40         39        149        150        161        160  
        29         30         41         40        150        151        162        161  
        30         31         42         41        151        152        163        162  
        31         32         43         42        152        153        164        163  
        32         33         44         43        153        154        165        164  
        34         35         46         45        155        156        167        166  
        35         36         47         46        156        157        168        167  
        36         37         48         47        157        158        169        168  
        37         38         49         48        158        159        170        169  
        38         39         50         49        159        160        171        170  
        39         40         51         50        160        161        172        171  
        40         41         52         51        161        162        173        172  
        41         42         53         52        162        163        174        173  
        42         43         54         53        163        164        175        174  
        43         44         55         54        164        165        176        175  
        45         46         57         56        166        167        178        177  
        46         47         58         57        167        168        179        178  
        47         48         59         58        168        169        180        179  
        48         49         60         59        169        170        181        180  
        49         50         61         60        170        171        182        181  
        50         51         62         61        171        172        183        182  
        51         52         63         62        172        173        184        183  
        52         53         64         63        173        174        185        184  
        53         54         65         64        174        175        186        185  
        54         55         66         65        175        176        187        186  
        56         57         68         67        177        178        189        188  
        57         58         69         68        178        179        190        189  
        58         59         70         69        179        180        191        190  
        59         60         71         70        180        181        192        191  
        60         61         72         71        181        182        193        192  
        61         62         73         72        182        183        194        193  
        62         63         74         73        183        184        195        194  
        63         64         75         74        184        185        196        195  
        64         65         76         75        185        186        197        196  
        65         66         77         76        186        187        198        197  
        67         68         79         78        188        189        200        199  
        68         69         80         79        189        190        201        200  
        69         70         81         80        190        191        202        201  
        70         71         82         81        191        192        203        202  
        71         72         83         82        192        193        204        203  
        72         73         84         83        193        194        205        204  
        73         74         85         84        194        195        206        205  
        74         75         86         85        195        196        207        206  
        75         76         87         86        196        197        208        207  
        76         77         88         87        197        198        209        208  
        78         79         90         89        199        200        211        210  
        79         80         91         90        200        201        212        211  
        80         81         92         91        201        202        213        212  
        81         82         93         92        202        203        214        213  
        82         83         94         93        203        204        215        214  
        83         84         95         94        204        205        216        215  
        84         85         96         95        205        206        217        216  
        85         86         97         96        206        207        218        217  
        86         87         98         97        207        208        219        218  
        87         88         99         98        208        209        220        219  
        89         90        101        100        210        211        222        221  
        90         91        102        101        211        212        223        222  
        91         92        103        102        212        213        224        223  
        92         93        104        103        213        214        225        224  
        93         94        105        104        214        215        226        225  
        94         95        106        105        215        216        227        226  
        95         96        107        106        216        217        228        227  
        96         97        108        107        217        218        229        228  
        97         98        109        108        218        219        230        229  
        98         99        110        109        219        220        231        230  
       100        101        112        111        221        222        233        232  
       101        102        113        112        222        223        234        233  
       102        103        114        113        223        224        235        234  
       103        104        115        114        224        225        236        235  
       104        105        116        115        225        226        237        236  
       105        106        117        116        226        227        238        237  
       106        107        118        117        227        228        239        238  
       107        108        119        118        228        229        240        239  
       108        109        120        119        229        230        241        240  
       109        110        121        120        230        231        242        241  
       122        123        134        133        243        244        255        254  
       123        124        135        134        244        245        256        255  
       124        125        136        135        245        246        257        256  
       125        126        137        136        246        247        258        257  
       126        127        138        137        247        248        259        258  
       127        128        139        138        248        249        260        259  
       128        129        140        139        249        250        261        260  
       129        130        141        140        250        251        262        261  
       130        131        142        141        251        252        263        262  
       131        132        143        142        252        253        264        263  
       133        134        145        144        254        255        266        265  
       134        135        146        145        255        256        267        266  
       135        136        147        146        256        257        268        267  
       136        137        148        147        257        258        269        268  
       137        138        149        148        258        259        270        269  
       138        139        150        149        259        260        271        270  
       139        140        151        150        260        261        272        271  
       140        141        152        151        261        262        273        272  
       141        142        153        152        262        263        274        273  
       142        143        154        153        263        264        275        274  
       144        145        156        155        265        266        277        276  
       145        146        157        156        266        267        278        277  
       146        147        158        157        267        268        279        278  
       147        148        159        158        268        269        280        279  
       148        149        160        159        269        270        281        280  
       149        150        161        160        270        271        282        281  
       150        151        162        161        271        272        283        282  
       151        152        163        162        272        273        284        283  
       152        153        164        163        273        274        285        284  
       153        154        165        164        274        275        286        285  
       155        156        167        166        276        277        288        287  
       156        157        168        167        277        278        289        288  
       157        158        169        168        278        279        290        289  
       158        159        170        169        279        280        291        290  
       159        160        171        170        280        281        292        291  
       160        161        172        171        281        282        293        292  
       161        162        173        172        282        283        294        293  
       162        163        174        173        283        284        295        294  
       163        164        175        174        284        285        296        295  
       164        165        176        175        285        286        297        296  
       166        167        178        177        287        288        299        298  
       167        168        179        178        288        289        300        299  
       168        169        180        179        289        290        301        300  
       169        170        181        180        290        291        302        301  
       170        171        182        181        291        292        303        302  
       171        172        183        182        292        293        304        303  
       172        173        184        183        293        294        305        304  
       173        174        185        184        294        295        306        305  
       174        175        186        185        295        296        307        306  
       175        176        187        186        296        297        308        307  
       177        178        189        188        298        299        310        309  
       178        179        190        189        299        300        311        310  
       179        180        191        190        300        301        312        311  
       180        181        192        191        301        302        313        312  
       181        182        193        192        302        303        314        313  
       182        183        194        193        303        304        315        314  
       183        184        195        194        304        305        316        315  
       184        185        196        195        305        306        317        316  
       185        186        197        196        306        307        318        317  
       186        187        198        197        307        308        319        318  
       188        189        200        199        309        310        321        320  
       189        190        201        200        310        311        322        321  
       190        191        202        201        311        312        323        322  
       191        192        203        202        312        313        324        323  
       192        193        204        203        313        314        325        324  
       193        194        205        204        314        315        326        325  
       194        195        206        205        315        316        327        326  
       195        196        207        206        316        317        328        327  
       196        197        208        207        317        318        329        328  
       197        198        209        208        318        319        330        329  
       199        200        211        210        320        321        332        331  
       200        201        212        211        321        322        333        332  
       201        202        213        212        322        323        334        333  
       202        203        214        213        323        324        335        334  
       203        204        215        214        324        325        336        335  
       204        205        216        215        325        326        337        336  
       205        206        217        216        326        327        338        337  
       206        207        218        217        327        328        339        338  
       207        208        219        218        328        329        340        339  
       208        209        220        219        329        330        341        340  
       210        211        222        221        331        332        343        342  
       211        212        223        222        332        333        344        343  
       212        213        224        223        333        334        345        344  
       213        214        225        224        334        335        346        345  
       214        215        226        225        335        336        347        346  
       215        216        227        226        336        337        348        347  
       216        217        228        227        337        338        349        348  
       217        218        229        228        338        339        350        349  
       218        219        230        229        339        340        351        350  
       219        220        231        230        340        341        352        351  
       221        222        233        232        342        343        354        353  
       222        223        234        233        343        344        355        354  
       223        224        235        234        344        345        356        355  
       224        225        236        235        345        346        357        356  
       225        226        237        236        346        347        358        357  
       226        227        238        237        347        348        359        358  
       227        228        239        238        348        349        360        359  
       228        229        240        239        349        350        361        360  
       229        230        241        240        350        351        362        361  
       230        231        242        241        351        352        363        362  
       243        244        255        254        364        365        376        375  
       244        245        256        255        365        366        377        376  
       245        246        257        256        366        367        378        377  
       246        247        258        257        367        368        379        378  
       247        248        259        258        368        369        380        379  
       248        249        260        259        369        370        381        380  
       249        250        261        260        370        371        382        381  
       250        251        262        261        371        372        383        382  
       251        252        263        262        372        373        384        383  
       252        253        264        263        373        374        385        384  
       254        255        266        265        375        376        387        386  
       255        256        267        266        376        377        388        387  
       256        257        268        267        377        378        389        388  
       257        258        269        268        378        379        390        389  
       258        259        270        269        379        380        391        390  
       259        260        271        270        380        381        392        391  
       260        261        272        271        381        382        393        392  
       261        262        273        272        382        383        394        393  
       262        263        274        273        383        384        395        394  
       263        264        275        274        384        385        396        395  
       265        266        277        276        386        387        398        397  
       266        267        278        277        387        388        399        398  
       267        268        279        278        388        389        400        399  
       268        269        280        279        389        390        401        400  
       269        270        281        280        390        391        402        401  
       270        271        282        281        391        392        403        402  
       271        272        283        282        392        393        404        403  
       272        273        284        283        393        394        405        404  
       273        274        285        284        394        395        406        405  
       274        275        286        285        395        396        407        406  
       276        277        288        287        397        398        409        408  
       277        278        289        288        398        399        410        409  
       278        279        290        289        399        400        411        410  
       279        280        291        290        400        401        412        411  
       280        281        292        291        401        402        413        412  
       281        282        293        292        402        403        414        413  
       282        283        294        293        403        404        415        414  
       283        284        295        294        404        405        416        415  
       284        285        296        295        405        406        417        416  
       285        286        297        296        406        407        418        417  
       287        288        299        298        408        409        420        419  
       288        289        300        299        409        410        421        420  
       289        290        301        300        410        411        422        421  
       290        291        302        301        411        412        423        422  
       291        292        303        302        412        413        424        423  
       292        293        304        303        413        414        425        424  
       293        294        305        304        414        415        426        425  
       294        295        306        305        415        416        427        426  
       295        296        307        306        416        417        428        427  
       296        297        308        307        417        418        429        428  
       298        299        310        309        419        420        431        430  
       299        300        311        310        420        421        432        431  
       300        301        312        311        421        422        433        432  
       301        302        313        312        422        423        434        433  
       302        303        314        313        423        424        435        434  
       303        304        315        314        424        425        436        435  
       304        305        316        315        425        426        437        436  
       305        306        317        316        426        427        438        437  
       306        307        318        317        427        428        439        438  
       307        308        319        318        428        429        440        439  
       309        310        321        320        430        431        442        441  
       310        311        322        321        431        432        443        442  
       311        312        323        322        432        433        444        443  
       312        313        324        323        433        434        445        444  
       313        314        325        324        434        435        446        445  
       314        315        326        325        435        436        447        446  
       315        316        327        326        436        437        448        447  
       316        317        328        327        437        438        449        448  
       317        318        329        328        438        439        450        449  
       318        319        330        329        439        440        451        450  
       320        321        332        331        441        442        453        452  
       321        322        333        332        442        443        454        453  
       322        323        334        333        443        444        455        454  
       323        324        335        334        444        445        456        455  
       324        325        336        335        445        446        457        456  
       325        326        337        336        446        447        458        457  
       326        327        338        337        447        448        459        458  
       327        328        339        338        448        449        460        459  
       328        329        340        339        449        450        461        460  
       329        330        341        340        450        451        462        461  
       331        332        343        342        452        453        464        463  
       332        333        344        343        453        454        465        464  
       333        334        345        344        454        455        466        465  
       334        335        346        345        455        456        467        466  
       335        336        347        346        456        457        468        467  
       336        337        348        347        457        458        469        468  
       337        338        349        348        458        459        470        469  
       338        339        350        349        459        460        471        470  
       339        340        351        350        460        461        472        471  
       340        341        352        351        461        462        473        472  
       342        343        354        353        463        464        475        474  
       343        344        355        354        464        465        476        475  
       344        345        356        355        465        466        477        476  
       345        346        357        356        466        467        478        477  
       346        347        358        357        467        468        479        478  
       347        348        359        358        468        469        480        479  
       348        349        360        359        469        470        481        480  
       349        350        361        360        470        471        482        481  
       350        351        362        361        471        472        483        482  
       351        352        363        362        472        473        484        483  
       364        365        376        375        485        486        497        496  
       365        366        377        376        486        487        498        497  
       366        367        378        377        487        488        499        498  
       367        368        379        378        488        489        500        499  
       368        369        380        379        489        490        501        500  
       369        370        381        380        490        491        502        501  
       370        371        382        381        491        492        503        502  
       371        372        383        382        492        493        504        503  
       372        373        384        383        493        494        505        504  
       373        374        385        384        494        495        506        505  
       375        376        387        386        496        497        508        507  
       376        377        388        387        497        498        509        508  
       377        378        389        388        498        499        510        509  
       378        379        390        389        499        500        511        510  
       379        380        391        390        500        501        512        511  
       380        381        392        391        501        502        513        512  
       381        382        393        392        502        503        514        513  
       382        383        394        393        503        504        515        514  
       383        384        395        394        504        505        516        515  
       384        385        396        395        505        506        517        516  
       386        387        398        397        507        508        519        518  
       387        388        399        398        508        509        520        519  
       388        389        400        399        509        510        521        520  
       389        390        401        400        510        511        522        521  
       390        391        402        401        511        512        523        522  
       391        392        403        402        512        513        524        523  
       392        393        404        403        513        514        525        524  
       393        394        405        404        514        515        526        525  
       394        395        406        405        515        516        527        526  
       395        396        407        406        516        517        528        527  
       397        398        409        408        518        519        530        529  
       398        399        410        409        519        520        531        530  
       399        400        411        410        520        521        532        531  
       400        401        412        411        521        522        533        532  
       401        402        413        412        522        523        534        533  
       402        403        414        413        523        524        535        534  
       403        404        415        414        524        525        536        535  
       404        405        416        415        525        526        537        536  
       405        406        417        416        526        527        538        537  
       406        407        418        417        527        528        539        538  
       408        409        420        419        529        530        541        540  
       409        410        421        420        530        531        542        541  
       410        411        422        421        531        532        543        542  
       411        412        423        422        532        533        544        543  
       412        413        424        423        533        534        545        544  
       413        414        425        424        534        535        546        545  
       414        415        426        425        535        536        547        546  
       415        416        427        426        536        537        548        547  
       416        417        428        427        537        538        549        548  
       417        418        429        428        538        539        550        549  
       419        420        431        430        540        541        552        551  
       420        421        432        431        541        542        553        552  
       421        422        433        432        542        543        554        553  
       422        423        434        433        543        544        555        554  
       423        424        435        434        544        545        556        555  
       424        425        436        435        545        546        557        556  
       425        426        437        436        546        547        558        557  
       426        427        438        437        547        548        559        558  
       427        428        439        438        548        549        560        559  
       428        429        440        439        549        550        561        560  
       430        431        442        441        551        552        563        562  
       431        432        443        442        552        553        564        563  
       432        433        444        443        553        554        565        564  
       433        434        445        444        554        555        566        565  
       434        435        446        445        555        556        567        566  
       435        436        447        446        556        557        568        567  
       436        437        448        447        557        558        569        568  
       437        438        449        448        558        559        570        569  
       438        439        450        449        559        560        571        570  
       439        440        451        450        560        561        572        571  
       441        442        453        452        562        563        574        573  
       442        443        454        453        563        564        575        574  
       443        444        455        454        564        565        576        575  
       444        445        456        455        565        566        577        576  
       445        446        457        456        566        567        578        577  
       446        447        458        457        567        568        579        578  
       447        448        459        458        568        569        580        579  
       448        449        460        459        569        570        581        580  
       449        450        461        460        570        571        582        581  
       450        451        462        461        571        572        583        582  
       452        453        464        463        573        574        585        584  
       453        454        465        464        574        575        586        585  
       454        455        466        465        575        576        587        586  
       455        456        467        466        576        577        588        587  
       456        457        468        467        577        578        589        588  
       457        458        469        468        578        579        590        589  
       458        459        470        469        579        580        591        590  
       459        460        471        470        580        581        592        591  
       460        461        472        471        581        582        593        592  
       461        462        473        472        582        583        594        593  
       463        464        475        474        584        585        596        595  
       464        465        476        475        585        586        597        596  
       465        466        477        476        586        587        598        597  
       466        467        478        477        587        588        599        598  
       467        468        479        478        588        589        600        599  
       468        469        480        479        589        590        601        600  
       469        470        481        480        590        591        602        601  
       470        471        482        481        591        592        603        602  
       471        472        483        482        592        593        604        603  
       472        473        484        483        593        594        605        604  
       485        486        497        496        606        607        618        617  
       486        487        498        497        607        608        619        618  
       487        488        499        498        608        609        620        619  
       488        489        500        499        609        610        621        620  
       489        490        501        500        610        611        622        621  
       490        491        502        501        611        612        623        622  
       491        492        503        502        612        613        624        623  
       492        493        504        503        613        614        625        624  
       493        494        505        504        614        615        626        625  
       494        495        506        505        615        616        627        626  
       496        497        508        507        617        618        629        628  
       497        498        509        508        618        619        630        629  
       498        499        510        509        619        620        631        630  
       499        500        511        510        620        621        632        631  
       500        501        512        511        621        622        633        632  
       501        502        513        512        622        623        634        633  
       502        503        514        513        623        624        635        634  
       503        504        515        514        624        625        636        635  
       504        505        516        515        625        626        637        636  
       505        506        517        516        626        627        638        637  
       507        508        519        518        628        629        640        639  
       508        509        520        519        629        630        641        640  
       509        510        521        520        630        631        642        641  
       510        511        522        521        631        632        643        642  
       511        512        523        522        632        633        644        643  
       512        513        524        523        633        634        645        644  
       513        514        525        524        634        635        646        645  
       514        515        526        525        635        636        647        646  
       515        516        527        526        636        637        648        647  
       516        517        528        527        637        638        649        648  
       518        519        530        529        639        640        651        650  
       519        520        531        530        640        641        652        651  
       520        521        532        531        641        642        653        652  
       521        522        533        532        642        643        654        653  
       522        523        534        533        643        644        655        654  
       523        524        535        534        644        645        656        655  
       524        525        536        535        645        646        657        656  
       525        526        537        536        646        647        658        657  
       526        527        538        537        647        648        659        658  
       527        528        539        538        648        649        660        659  
       529        530        541        540        650        651        662        661  
       530        531        542        541        651        652        663        662  
       531        532        543        542        652        653        664        663  
       532        533        544        543        653        654        665        664  
       533        534        545        544        654        655        666        665  
       534        535        546        545        655        656        667        666  
       535        536        547        546        656        657        668        667  
       536        537        548        547        657        658        669        668  
       537        538        549        548        658        659        670        669  
       538        539        550        549        659        660        671        670  
       540        541        552        551        661        662        673        672  
       541        542        553        552        662        663        674        673  
       542        543        554        553        663        664        675        674  
       543        544        555        554        664        665        676        675  
       544        545        556        555        665        666        677        676  
       545        546        557        556        666        667        678        677  
       546        547        558        557        667        668        679        678  
       547        548        559        558        668        669        680        679  
       548        549        560        559        669        670        681        680  
       549        550        561        560        670        671        682        681  
       551        552        563        562        672        673        684        683  
       552        553        564        563        673        674        685        684  
       553        554        565        564        674        675        686        685  
       554        555        566        565        675        676        687        686  
       555        556        567        566        676        677        688        687  
       556        557        568        567        677        678        689        688  
       557        558        569        568        678        679        690        689  
       558        559        570        569        679        680        691        690  
       559        560        571        570        680        681        692        691  
       560        561        572        571        681        682        693        692  
       562        563        574        573        683        684        695        694  
       563        564        575        574        684        685        696        695  
       564        565        576        575        685        686        697        696  
       565        566        577        576        686        687        698        697  
       566        567        578        577        687        688        699        698  
       567        568        579        578        688        689        700        699  
       568        569        580        579        689        690        701        700  
       569        570        581        580        690        691        702        701  
       570        571        582        581        691        692        703        702  
       571        572        583        582        692        693        704        703  
       573        574        585        584        694        695        706        705  
       574        575        586        585        695        696        707        706  
       575        576        587        586        696        697        708        707  
       576        577        588        587        697        698        709        708  
       577        578        589        588        698        699        710        709  
       578        579        590        589        699        700        711        710  
       579        580        591        590        700        701        712        711  
       580        581        592        591        701        702        713        712  
       581        582        593        592        702        703        714        713  
       582        583        594        593        703        704        715        714  
       584        585        596        595        705        706        717        716  
       585        586        597        596        706        707        718        717  
       586        587        598        597        707        708        719        718  
       587        588        599        598        708        709        720        719  
       588        589        600        599        709        710        721        720  
       589        590        601        600        710        711        722        721  
       590        591        602        601        711        712        723        722  
       591        592        603        602        712        713        724        723  
       592        593        604        603        713        714        725        724  
       593        594        605        604        714        715        726        725  
       606        607        618        617        727        728        739        738  
       607        608        619        618        728        729        740        739  
       608        609        620        619        729        730        741        740  
       609        610        621        620        730        731        742        741  
       610        611        622        621        731        732        743        742  
       611        612        623        622        732        733        744        743  
       612        613        624        623        733        734        745        744  
       613        614        625        624        734        735        746        745  
       614        615        626        625        735        736        747        746  
       615        616        627        626        736        737        748        747  
       617        618        629        628        738        739        750        749  
       618        619        630        629        739        740        751        750  
       619        620        631        630        740        741        752        751  
       620        621        632        631        741        742        753        752  
       621        622        633        632        742        743        754        753  
       622        623        634        633        743        744        755        754  
       623        624        635        634        744        745        756        755  
       624        625        636        635        745        746        757        756  
       625        626        637        636        746        747        758        757  
       626        627        638        637        747        748        759        758  
       628        629        640        639        749        750        761        760  
       629        630        641        640        750        751        762        761  
       630        631        642        641        751        752        763        762  
       631        632        643        642        752        753        764        763  
       632        633        644        643        753        754        765        764  
       633        634        645        644        754        755        766        765  
       634        635        646        645        755        756        767        766  
       635        636        647        646        756        757        768        767  
       636        637        648        647        757        758        769        768  
       637        638        649        648        758        759        770        769  
       639        640        651        650        760        761        772        771  
       640        641        652        651        761        762        773        772  
       641        642        653        652        762        763        774        773  
       642        643        654        653        763        764        775        774  
       643        644        655        654        764        765        776        775  
       644        645        656        655        765        766        777        776  
       645        646        657        656        766        767        778        777  
       646        647        658        657        767        768        779        778  
       647        648        659        658        768        769        780        779  
       648        649        660        659        769        770        781        780  
       650        651        662        661        771        772        783        782  
       651        652        663        662        772        773        784        783  
       652        653        664        663        773        774        785        784  
       653        654        665        664        774        775        786        785  
       654        655        666        665        775        776        787        786  
       655        656        667        666        776        777        788        787  
       656        657        668        667        777        778        789        788  
       657        658        669        668        778        779        790        789  
       658        659        670        669        779        780        791        790  
       659        660        671        670        780        781        792        791  
       661        662        673        672        782        783        794        793  
       662        663        674        673        783        784        795        794  
       663        664        675        674        784        785        796        795  
       664        665        676        675        785        786        797        796  
       665        666        677        676        786        787        798        797  
       666        667        678        677        787        788        799        798  
       667        668        679        678        788        789        800        799  
       668        669        680        679        789        790        801        800  
       669        670        681        680        790        791        802        801  
       670        671        682        681        791        792        803        802  
       672        673        684        683        793        794        805        804  
       673        674        685        684        794        795        806        805  
       674        675        686        685        795        796        807        806  
       675        676        687        686        796        797        808        807  
       676        677        688        687        797        798        809        808  
       677        678        689        688        798        799        810        809  
       678        679        690        689        799        800        811        810  
       679        680        691        690        800        801        812        811  
       680        681        692        691        801        802        813        812  
       681        682        693        692        802        803        814        813  
       683        684        695        694        804        805        816        815  
       684        685        696        695        805        806        817        816  
       685        686        697        696        806        807        818        817  
       686        687        698        697        807        808        819        818  
       687        688        699        698        808        809        820        819  
       688        689        700        699        809        810        821        820  
       689        690        701        700        810        811        822        821  
       690        691        702        701        811        812        823        822  
       691        692        703        702        812        813        824        823  
       692        693        704        703        813        814        825        824  
       694        695        706        705        815        816        827        826  
       695        696        707        706        816        817        828        827  
       696        697        708        707        817        818        829        828  
       697        698        709        708        818        819        830        829  
       698        699        710        709        819        820        831        830  
       699        700        711        710        820        821        832        831  
       700        701        712        711        821        822        833        832  
       701        702        713        712        822        823        834        833  
       702        703        714        713        823        824        835        834  
       703        704        715        714        824        825        836        835  
       705        706        717        716        826        827        838        837  
       706        707        718        717        827        828        839        838  
       707        708        719        718        828        829        840        839  
       708        709        720        719        829        830        841        840  
       709        710        721        720        830        831        842        841  
       710        711        722        721        831        832        843        842  
       711        712        723        722        832        833        844        843  
       712        713        724        723        833        834        845        844  
       713        714        725        724        834        835        846        845  
       714        715        726        725        835        836        847        846  
       727        728        739        738        848        849        860        859  
       728        729        740        739        849        850        861        860  
       729        730        741        740        850        851        862        861  
       730        731        742        741        851        852        863        862  
       731        732        743        742        852        853        864        863  
       732        733        744        743        853        854        865        864  
       733        734        745        744        854        855        866        865  
       734        735        746        745        855        856        867        866  
       735        736        747        746        856        857        868        867  
       736        737        748        747        857        858        869        868  
       738        739        750        749        859        860        871        870  
       739        740        751        750        860        861        872        871  
       740        741        752        751        861        862        873        872  
       741        742        753        752        862        863        874        873  
       742        743        754        753        863        864        875        874  
       743        744        755        754        864        865        876        875  
       744        745        756        755        865        866        877        876  
       745        746        757        756        866        867        878        877  
       746        747        758        757        867        868        879        878  
       747        748        759        758        868        869        880        879  
       749        750        761        760        870        871        882        881  
       750        751        762        761        871        872        883        882  
       751        752        763        762        872        873        884        883  
       752        753        764        763        873        874        885        884  
       753        754        765        764        874        875        886        885  
       754        755        766        765        875        876        887        886  
       755        756        767        766        876        877        888        887  
       756        757        768        767        877        878        889        888  
       757        758        769        768        878        879        890        889  
       758        759        770        769        879        880        891        890  
       760        761        772        771        881        882        893        892  
       761        762        773        772        882        883        894        893  
       762        763        774        773        883        884        895        894  
       763        764        775        774        884        885        896        895  
       764        765        776        775        885        886        897        896  
       765        766        777        776        886        887        898        897  
       766        767        778        777        887        888        899        898  
       767        768        779        778        888        889        900        899  
       768        769        780        779        889        890        901        900  
       769        770        781        780        890        891        902        901  
       771        772        783        782        892        893        904        903  
       772        773        784        783        893        894        905        904  
       773        774        785        784        894        895        906        905  
       774        775        786        785        895        896        907        906  
       775        776        787        786        896        897        908        907  
       776        777        788        787        897        898        909        908  
       777        778        789        788        898        899        910        909  
       778        779        790        789        899        900        911        910  
       779        780        791        790        900        901        912        911  
       780        781        792        791        901        902        913        912  
       782        783        794        793        903        904        915        914  
       783        784        795        794        904        905        916        915  
       784        785        796        795        905        906        917        916  
       785        786        797        796        906        907        918        917  
       786        787        798        797        907        908        919        918  
       787        788        799        798        908        909        920        919  
       788        789        800        799        909        910        921        920  
       789        790        801        800        910        911        922        921  
       790        791        802        801        911        912        923        922  
       791        792        803        802        912        913        924        923  
       793        794        805        804        914        915        926        925  
       794        795        806        805        915        916        927        926  
       795        796        807        806        916        917        928        927  
       796        797        808        807        917        918        929        928  
       797        798        809        808        918        919        930        929  
       798        799        810        809        919        920        931        930  
       799        800        811        810        920        921        932        931  
       800        801        812        811        921        922        933        932  
       801        802        813        812        922        923        934        933  
       802        803        814        813        923        924        935        934  
       804        805        816        815        925        926        937        936  
       805        806        817        816        926        927        938        937  
       806        807        818        817        927        928        939        938  
       807        808        819        818        928        929        940        939  
       808        809        820        819        929        930        941        940  
       809        810        821        820        930        931        942        941  
       810        811        822        821        931        932        943        942  
       811        812        823        822        932        933        944        943  
       812        813        824        823        933        934        945        944  
       813        814        825        824        934        935        946        945  
       815        816        827        826        936        937        948        947  
       816        817        828        827        937        938        949        948  
       817        818        829        828        938        939        950        949  
       818        819        830        829        939        940        951        950  
       819        820        831        830        940        941        952        951  
       820        821        832        831        941        942        953        952  
       821        822        833        832        942        943        954        953  
       822        823        834        833        943        944        955        954  
       823        824        835        834        944        945        956        955  
       824        825        836        835        945        946        957        956  
       826        827        838        837        947        948        959        958  
       827        828        839        838        948        949        960        959  
       828        829        840        839        949        950        961        960  
       829        830        841        840        950        951        962        961  
       830        831        842        841        951        952        963        962  
       831        832        843        842        952        953        964        963  
       832        833        844        843        953        954        965        964  
       833        834        845        844        954        955        966        965  
       834        835        846        845        955        956        967        966  
       835        836        847        846        956        957        968        967  
       848        849        860        859        969        970        981        980  
       849        850        861        860        970        971        982        981  
       850        851        862        861        971        972        983        982  
       851        852        863        862        972        973        984        983  
       852        853        864        863        973        974        985        984  
       853        854        865        864        974        975        986        985  
       854        855        866        865        975        976        987        986  
       855        856        867        866        976        977        988        987  
       856        857        868        867        977        978        989        988  
       857        858        869        868        978        979        990        989  
       859        860        871        870        980        981        992        991  
       860        861        872        871        981        982        993        992  
       861        862        873        872        982        983        994        993  
       862        863        874        873        983        984        995        994  
       863        864        875        874        984        985        996        995  
       864        865        876        875        985        986        997        996  
       865        866        877        876        986        987        998        997  
       866        867        878        877        987        988        999        998  
       867        868        879        878        988        989       1000        999  
       868        869        880        879        989        990       1001       1000  
       870        871        882        881        991        992       1003       1002  
       871        872        883        882        992        993       1004       1003  
       872        873        884        883        993        994       1005       1004  
       873        874        885        884        994        995       1006       1005  
       874        875        886        885        995        996       1007       1006  
       875        876        887        886        996        997       1008       1007  
       876        877        888        887        997        998       1009       1008  
       877        878        889        888        998        999       1010       1009  
       878        879        890        889        999       1000       1011       1010  
       879        880        891        890       1000       1001       1012       1011  
       881        882        893        892       1002       1003       1014       1013  
       882        883        894        893       1003       1004       1015       1014  
       883        884        895        894       1004       1005       1016       1015  
       884        885        896        895       1005       1006       1017       1016  
       885        886        897        896       1006       1007       1018       1017  
       886        887        898        897       1007       1008       1019       1018  
       887        888        899        898       1008       1009       1020       1019  
       888        889        900        899       1009       1010       1021       1020  
       889        890        901        900       1010       1011       1022       1021  
       890        891        902        901       1011       1012       1023       1022  
       892        893        904        903       1013       1014       1025       1024  
       893        894        905        904       1014       1015       1026       1025  
       894        895        906        905       1015       1016       1027       1026  
       895        896        907        906       1016       1017       1028       1027  
       896        897        908        907       1017       1018       1029       1028  
       897        898        909        908       1018       1019       1030       1029  
       898        899        910        909       1019       1020       1031       1030  
       899        900        911        910       1020       1021       1032       1031  
       900        901        912        911       1021       1022       1033       1032  
       901        902        913        912       1022       1023       1034       1033  
       903        904        915        914       1024       1025       1036       1035  
       904        905        916        915       1025       1026       1037       1036  
       905        906        917        916       1026       1027       1038       1037  
       906        907        918        917       1027       1028       1039       1038  
       907        908        919        918       1028       1029       1040       1039  
       908        909        920        919       1029       1030       1041       1040  
       909        910        921        920       1030       1031       1042       1041  
       910        911        922        921       1031       1032       1043       1042  
       911        912        923        922       1032       1033       1044       1043  
       912        913        924        923       1033       1034       1045       1044  
       914        915        926        925       1035       1036       1047       1046  
       915        916        927        926       1036       1037       1048       1047  
       916        917        928        927       1037       1038       1049       1048  
       917        918        929        928       1038       1039       1050       1049  
       918        919        930        929       1039       1040       1051       1050  
       919        920        931        930       1040       1041       1052       1051  
       920        921        932        931       1041       1042       1053       1052  
       921        922        933        932       1042       1043       1054       1053  
       922        923        934        933       1043       1044       1055       1054  
       923        924        935        934       1044       1045       1056       1055  
       925        926        937        936       1046       1047       1058       1057  
       926        927        938        937       1047       1048       1059       1058  
       927        928        939        938       1048       1049       1060       1059  
       928        929        940        939       1049       1050       1061       1060  
       929        930        941        940       1050       1051       1062       1061  
       930        931        942        941       1051       1052       1063       1062  
       931        932        943        942       1052       1053       1064       1063  
       932        933        944        943       1053       1054       1065       1064  
       933        934        945        944       1054       1055       1066       1065  
       934        935        946        945       1055       1056       1067       1066  
       936        937        948        947       1057       1058       1069       1068  
       937        938        949        948       1058       1059       1070       1069  
       938        939        950        949       1059       1060       1071       1070  
       939        940        951        950       1060       1061       1072       1071  
       940        941        952        951       1061       1062       1073       1072  
       941        942        953        952       1062       1063       1074       1073  
       942        943        954        953       1063       1064       1075       1074  
       943        944        955        954       1064       1065       1076       1075  
       944        945        956        955       1065       1066       1077       1076  
       945        946        957        956       1066       1067       1078       1077  
       947        948        959        958       1068       1069       1080       1079  
       948        949        960        959       1069       1070       1081       1080  
       949        950        961        960       1070       1071       1082       1081  
       950        951        962        961       1071       1072       1083       1082  
       951        952        963        962       1072       1073       1084       1083  
       952        953        964        963       1073       1074       1085       1084  
       953        954        965        964       1074       1075       1086       1085  
       954        955        966        965       1075       1076       1087       1086  
       955        956        967        966       1076       1077       1088       1087  
       956        957        968        967       1077       1078       1089       1088  
       969        970        981        980       1090       1091       1102       1101  
       970        971        982        981       1091       1092       1103       1102  
       971        972        983        982       1092       1093       1104       1103  
       972        973        984        983       1093       1094       1105       1104  
       973        974        985        984       1094       1095       1106       1105  
       974        975        986        985       1095       1096       1107       1106  
       975        976        987        986       1096       1097       1108       1107  
       976        977        988        987       1097       1098       1109       1108  
       977        978        989        988       1098       1099       1110       1109  
       978        979        990        989       1099       1100       1111       1110  
       980        981        992        991       1101       1102       1113       1112  
       981        982        993        992       1102       1103       1114       1113  
       982        983        994        993       1103       1104       1115       1114  
       983        984        995        994       1104       1105       1116       1115  
       984        985        996        995       1105       1106       1117       1116  
       985        986        997        996       1106       1107       1118       1117  
       986        987        998        997       1107       1108       1119       1118  
       987        988        999        998       1108       1109       1120       1119  
       988        989       1000        999       1109       1110       1121       1120  
       989        990       1001       1000       1110       1111       1122       1121  
       991        992       1003       1002       1112       1113       1124       1123  
       992        993       1004       1003       1113       1114       1125       1124  
       993        994       1005       1004       1114       1115       1126       1125  
       994        995       1006       1005       1115       1116       1127       1126  
       995        996       1007       1006       1116       1117       1128       1127  
       996        997       1008       1007       1117       1118       1129       1128  
       997        998       1009       1008       1118       1119       1130       1129  
       998        999       1010       1009       1119       1120       1131       1130  
       999       1000       1011       1010       1120       1121       1132       1131  
      1000       1001       1012       1011       1121       1122       1133       1132  
      1002       1003       1014       1013       1123       1124       1135       1134  
      1003       1004       1015       1014       1124       1125       1136       1135  
      1004       1005       1016       1015       1125       1126       1137       1136  
      1005       1006       1017       1016       1126       1127       1138       1137  
      1006       1007       1018       1017       1127       1128       1139       1138  
      1007       1008       1019       1018       1128       1129       1140       1139  
      1008       1009       1020       1019       1129       1130       1141       1140  
      1009       1010       1021       1020       1130       1131       1142       1141  
      1010       1011       1022       1021       1131       1132       1143       1142  
      1011       1012       1023       1022       1132       1133       1144       1143  
      1013       1014       1025       1024       1134       1135       1146       1145  
      1014       1015       1026       1025       1135       1136       1147       1146  
      1015       1016       1027       1026       1136       1137       1148       1147  
      1016       1017       1028       1027       1137       1138       1149       1148  
      1017       1018       1029       1028       1138       1139       1150       1149  
      1018       1019       1030       1029       1139       1140       1151       1150  
      1019       1020       1031       1030       1140       1141       1152       1151  
      1020       1021       1032       1031       1141       1142       1153       1152  
      1021       1022       1033       1032       1142       1143       1154       1153  
      1022       1023       1034       1033       1143       1144       1155       1154  
      1024       1025       1036       1035       1145       1146       1157       1156  
      1025       1026       1037       1036       1146       1147       1158       1157  
      1026       1027       1038       1037       1147       1148       1159       1158  
      1027       1028       1039       1038       1148       1149       1160       1159  
      1028       1029       1040       1039       1149       1150       1161       1160  
      1029       1030       1041       1040       1150       1151       1162       1161  
      1030       1031       1042       1041       1151       1152       1163       1162  
      1031       1032       1043       1042       1152       1153       1164       1163  
      1032       1033       1044       1043       1153       1154       1165       1164  
      1033       1034       1045       1044       1154       1155       1166       1165  
      1035       1036       1047       1046       1156       1157       1168       1167  
      1036       1037       1048       1047       1157       1158       1169       1168  
      1037       1038       1049       1048       1158       1159       1170       1169  
      1038       1039       1050       1049       1159       1160       1171       1170  
      1039       1040       1051       1050       1160       1161       1172       1171  
      1040       1041       1052       1051       1161       1162       1173       1172  
      1041       1042       1053       1052       1162       1163       1174       1173  
      1042       1043       1054       1053       1163       1164       1175       1174  
      1043       1044       1055       1054       1164       1165       1176       1175  
      1044       1045       1056       1055       1165       1166       1177       1176  
      1046       1047       1058       1057       1167       1168       1179       1178  
      1047       1048       1059       1058       1168       1169       1180       1179  
      1048       1049       1060       1059       1169       1170       1181       1180  
      1049       1050       1061       1060       1170       1171       1182       1181  
      1050       1051       1062       1061       1171       1172       1183       1182  
      1051       1052       1063       1062       1172       1173       1184       1183  
      1052       1053       1064       1063       1173       1174       1185       1184  
      1053       1054       1065       1064       1174       1175       1186       1185  
      1054       1055       1066       1065       1175       1176       1187       1186  
      1055       1056       1067       1066       1176       1177       1188       1187  
      1057       1058       1069       1068       1178       1179       1190       1189  
      1058       1059       1070       1069       1179       1180       1191       1190  
      1059       1060       1071       1070       1180       1181       1192       1191  
      1060       1061       1072       1071       1181       1182       1193       1192  
      1061       1062       1073       1072       1182       1183       1194       1193  
      1062       1063       1074       1073       1183       1184       1195       1194  
      1063       1064       1075       1074       1184       1185       1196       1195  
      1064       1065       1076       1075       1185       1186       1197       1196  
      1065       1066       1077       1076       1186       1187       1198       1197  
      1066       1067       1078       1077       1187       1188       1199       1198  
      1068       1069       1080       1079       1189       1190       1201       1200  
      1069       1070       1081       1080       1190       1191       1202       1201  
      1070       1071       1082       1081       1191       1192       1203       1202  
      1071       1072       1083       1082       1192       1193       1204       1203  
      1072       1073       1084       1083       1193       1194       1205       1204  
      1073       1074       1085       1084       1194       1195       1206       1205  
      1074       1075       1086       1085       1195       1196       1207       1206  
      1075       1076       1087       1086       1196       1197       1208       1207  
      1076       1077       1088       1087       1197       1198       1209       1208  
      1077       1078       1089       1088       1198       1199       1210       1209  
      1090       1091       1102       1101       1211       1212       1223       1222  
      1091       1092       1103       1102       1212       1213       1224       1223  
      1092       1093       1104       1103       1213       1214       1225       1224  
      1093       1094       1105       1104       1214       1215       1226       1225  
      1094       1095       1106       1105       1215       1216       1227       1226  
      1095       1096       1107       1106       1216       1217       1228       1227  
      1096       1097       1108       1107       1217       1218       1229       1228  
      1097       1098       1109       1108       1218       1219       1230       1229  
      1098       1099       1110       1109       1219       1220       1231       1230  
      1099       1100       1111       1110       1220       1221       1232       1231  
      1101       1102       1113       1112       1222       1223       1234       1233  
      1102       1103       1114       1113       1223       1224       1235       1234  
      1103       1104       1115       1114       1224       1225       1236       1235  
      1104       1105       1116       1115       1225       1226       1237       1236  
      1105       1106       1117       1116       1226       1227       1238       1237  
      1106       1107       1118       1117       1227       1228       1239       1238  
      1107       1108       1119       1118       1228       1229       1240       1239  
      1108       1109       1120       1119       1229       1230       1241       1240  
      1109       1110       1121       1120       1230       1231       1242       1241  
      1110       1111       1122       1121       1231       1232       1243       1242  
      1112       1113       1124       1123       1233       1234       1245       1244  
      1113       1114       1125       1124       1234       1235       1246       1245  
      1114       1115       1126       1125       1235       1236       1247       1246  
      1115       1116       1127       1126       1236       1237       1248       1247  
      1116       1117       1128       1127       1237       1238       1249       1248  
      1117       1118       1129       1128       1238       1239       1250       1249  
      1118       1119       1130       1129       1239       1240       1251       1250  
      1119       1120       1131       1130       1240       1241       1252       1251  
      1120       1121       1132       1131       1241       1242       1253       1252  
      1121       1122       1133       1132       1242       1243       1254       1253  
      1123       1124       1135       1134       1244       1245       1256       1255  
      1124       1125       1136       1135       1245       1246       1257       1256  
      1125       1126       1137       1136       1246       1247       1258       1257  
      1126       1127       1138       1137       1247       1248       1259       1258  
      1127       1128       1139       1138       1248       1249       1260       1259  
      1128       1129       1140       1139       1249       1250       1261       1260  
      1129       1130       1141       1140       1250       1251       1262       1261  
      1130       1131       1142       1141       1251       1252       1263       1262  
      1131       1132       1143       1142       1252       1253       1264       1263  
      1132       1133       1144       1143       1253       1254       1265       1264  
      1134       1135       1146       1145       1255       1256       1267       1266  
      1135       1136       1147       1146       1256       1257       1268       1267  
      1136       1137       1148       1147       1257       1258       1269       1268  
      1137       1138       1149       1148       1258       1259       1270       1269  
      1138       1139       1150       1149       1259       1260       1271       1270  
      1139       1140       1151       1150       1260       1261       1272       1271  
      1140       1141       1152       1151       1261       1262       1273       1272  
      1141       1142       1153       1152       1262       1263       1274       1273  
      1142       1143       1154       1153       1263       1264       1275       1274  
      1143       1144       1155       1154       1264       1265       1276       1275  
      1145       1146       1157       1156       1266       1267       1278       1277  
      1146       1147       1158       1157       1267       1268       1279       1278  
      1147       1148       1159       1158       1268       1269       1280       1279  
      1148       1149       1160       1159       1269       1270       1281       1280  
      1149       1150       1161       1160       1270       1271       1282       1281  
      1150       1151       1162       1161       1271       1272       1283       1282  
      1151       1152       1163       1162       1272       1273       1284       1283  
      1152       1153       1164       1163       1273       1274       1285       1284  
      1153       1154       1165       1164       1274       1275       1286       1285  
      1154       1155       1166       1165       1275       1276       1287       1286  
      1156       1157       1168       1167       1277       1278       1289       1288  
      1157       1158       1169       1168       1278       1279       1290       1289  
      1158       1159       1170       1169       1279       1280       1291       1290  
      1159       1160       1171       1170       1280       1281       1292       1291  
      1160       1161       1172       1171       1281       1282       1293       1292  
      1161       1162       1173       1172       1282       1283       1294       1293  
      1162       1163       1174       1173       1283       1284       1295       1294  
      1163       1164       1175       1174       1284       1285       1296       1295  
      1164       1165       1176       1175       1285       1286       1297       1296  
      1165       1166       1177       1176       1286       1287       1298       1297  
      1167       1168       1179       1178       1288       1289       1300       1299  
      1168       1169       1180       1179       1289       1290       1301       1300  
      1169       1170       1181       1180       1290       1291       1302       1301  
      1170       1171       1182       1181       1291       1292       1303       1302  
      1171       1172       1183       1182       1292       1293       1304       1303  
      1172       1173       1184       1183       1293       1294       1305       1304  
      1173       1174       1185       1184       1294       1295       1306       1305  
      1174       1175       1186       1185       1295       1296       1307       1306  
      1175       1176       1187       1186       1296       1297       1308       1307  
      1176       1177       1188       1187       1297       1298       1309       1308  
      1178       1179       1190       1189       1299       1300       1311       1310  
      1179       1180       1191       1190       1300       1301       1312       1311  
      1180       1181       1192       1191       1301       1302       1313       1312  
      1181       1182       1193       1192       1302       1303       1314       1313  
      1182       1183       1194       1193       1303       1304       1315       1314  
      1183       1184       1195       1194       1304       1305       1316       1315  
      1184       1185       1196       1195       1305       1306       1317       1316  
      1185       1186       1197       1196       1306       1307       1318       1317  
      1186       1187       1198       1197       1307       1308       1319       1318  
      1187       1188       1199       1198       1308       1309       1320       1319  
      1189       1190       1201       1200       1310       1311       1322       1321  
      1190       1191       1202       1201       1311       1312       1323       1322  
      1191       1192       1203       1202       1312       1313       1324       1323  
      1192       1193       1204       1203       1313       1314       1325       1324  
      1193       1194       1205       1204       1314       1315       1326       1325  
      1194       1195       1206       1205       1315       1316       1327       1326  
      1195       1196       1207       1206       1316       1317       1328       1327  
      1196       1197       1208       1207       1317       1318       1329       1328  
      1197       1198       1209       1208       1318       1319       1330       1329  
      1198       1199       1210       1209       1319       1320       1331       1330  
      1211       1212       1223       1222       1332       1333       1344       1343  
      1212       1213       1224       1223       1333       1334       1345       1344  
      1213       1214       1225       1224       1334       1335       1346       1345  
      1214       1215       1226       1225       1335       1336       1347       1346  
      1215       1216       1227       1226       1336       1337       1348       1347  
      1216       1217       1228       1227       1337       1338       1349       1348  
      1217       1218       1229       1228       1338       1339       1350       1349  
      1218       1219       1230       1229       1339       1340       1351       1350  
      1219       1220       1231       1230       1340       1341       1352       1351  
      1220       1221       1232       1231       1341       1342       1353       1352  
      1222       1223       1234       1233       1343       1344       1355       1354  
      1223       1224       1235       1234       1344       1345       1356       1355  
      1224       1225       1236       1235       1345       1346       1357       1356  
      1225       1226       1237       1236       1346       1347       1358       1357  
      1226       1227       1238       1237       1347       1348       1359       1358  
      1227       1228       1239       1238       1348       1349       1360       1359  
      1228       1229       1240       1239       1349       1350       1361       1360  
      1229       1230       1241       1240       1350       1351       1362       1361  
      1230       1231       1242       1241       1351       1352       1363       1362  
      1231       1232       1243       1242       1352       1353       1364       1363  
      1233       1234       1245       1244       1354       1355       1366       1365  
      1234       1235       1246       1245       1355       1356       1367       1366  
      1235       1236       1247       1246       1356       1357       1368       1367  
      1236       1237       1248       1247       1357       1358       1369       1368  
      1237       1238       1249       1248       1358       1359       1370       1369  
      1238       1239       1250       1249       1359       1360       1371       1370  
      1239       1240       1251       1250       1360       1361       1372       1371  
      1240       1241       1252       1251       1361       1362       1373       1372  
      1241       1242       1253       1252       1362       1363       1374       1373  
      1242       1243       1254       1253       1363       1364       1375       1374  
      1244       1245       1256       1255       1365       1366       1377       1376  
      1245       1246       1257       1256       1366       1367       1378       1377  
      1246       1247       1258       1257       1367       1368       1379       1378  
      1247       1248       1259       1258       1368       1369       1380       1379  
      1248       1249       1260       1259       1369       1370       1381       1380  
      1249       1250       1261       1260       1370       1371       1382       1381  
      1250       1251       1262       1261       1371       1372       1383       1382  
      1251       1252       1263       1262       1372       1373       1384       1383  
      1252       1253       1264       1263       1373       1374       1385       1384  
      1253       1254       1265       1264       1374       1375       1386       1385  
      1255       1256       1267       1266       1376       1377       1388       1387  
      1256       1257       1268       1267       1377       1378       1389       1388  
      1257       1258       1269       1268       1378       1379       1390       1389  
      1258       1259       1270       1269       1379       1380       1391       1390  
      1259       1260       1271       1270       1380       1381       1392       1391  
      1260       1261       1272       1271       1381       1382       1393       1392  
      1261       1262       1273       1272       1382       1383       1394       1393  
      1262       1263       1274       1273       1383       1384       1395       1394  
      1263       1264       1275       1274       1384       1385       1396       1395  
      1264       1265       1276       1275       1385       1386       1397       1396  
      1266       1267       1278       1277       1387       1388       1399       1398  
      1267       1268       1279       1278       1388       1389       1400       1399  
      1268       1269       1280       1279       1389       1390       1401       1400  
      1269       1270       1281       1280       1390       1391       1402       1401  
      1270       1271       1282       1281       1391       1392       1403       1402  
      1271       1272       1283       1282       1392       1393       1404       1403  
      1272       1273       1284       1283       1393       1394       1405       1404  
      1273       1274       1285       1284       1394       1395       1406       1405  
      1274       1275       1286       1285       1395       1396       1407       1406  
      1275       1276       1287       1286       1396       1397       1408       1407  
      1277       1278       1289       1288       1398       1399       1410       1409  
      1278       1279       1290       1289       1399       1400       1411       1410  
      1279       1280       1291       1290       1400       1401       1412       1411  
      1280       1281       1292       1291       1401       1402       1413       1412  
      1281       1282       1293       1292       1402       1403       1414       1413  
      1282       1283       1294       1293       1403       1404       1415       1414  
      1283       1284       1295       1294       1404       1405       1416       1415  
      1284       1285       1296       1295       1405       1406       1417       1416  
      1285       1286       1297       1296       1406       1407       1418       1417  
      1286       1287       1298       1297       1407       1408       1419       1418  
      1288       1289       1300       1299       1409       1410       1421       1420  
      1289       1290       1301       1300       1410       1411       1422       1421  
      1290       1291       1302       1301       1411       1412       1423       1422  
      1291       1292       1303       1302       1412       1413       1424       1423  
      1292       1293       1304       1303       1413       1414       1425       1424  
      1293       1294       1305       1304       1414       1415       1426       1425  
      1294       1295       1306       1305       1415       1416       1427       1426  
      1295       1296       1307       1306       1416       1417       1428       1427  
      1296       1297       1308       1307       1417       1418       1429       1428  
      1297       1298       1309       1308       1418       1419       1430       1429  
      1299       1300       1311       1310       1420       1421       1432       1431  
      1300       1301       1312       1311       1421       1422       1433       1432  
      1301       1302       1313       1312       1422       1423       1434       1433  
      1302       1303       1314       1313       1423       1424       1435       1434  
      1303       1304       1315       1314       1424       1425       1436       1435  
      1304       1305       1316       1315       1425       1426       1437       1436  
      1305       1306       1317       1316       1426       1427       1438       1437  
      1306       1307       1318       1317       1427       1428       1439       1438  
      1307       1308       1319       1318       1428       1429       1440       1439  
      1308       1309       1320       1319       1429       1430       1441       1440  
      1310       1311       1322       1321       1431       1432       1443       1442  
      1311       1312       1323       1322       1432       1433       1444       1443  
      1312       1313       1324       1323       1433       1434       1445       1444  
      1313       1314       1325       1324       1434       1435       1446       1445  
      1314       1315       1326       1325       1435       1436       1447       1446  
      1315       1316       1327       1326       1436       1437       1448       1447  
      1316       1317       1328       1327       1437       1438       1449       1448  
      1317       1318       1329       1328       1438       1439       1450       1449  
      1318       1319       1330       1329       1439       1440       1451       1450  
      1319       1320       1331       1330       1440       1441       1452       1451  
      1332       1333       1344       1343       1453       1454       1465       1464  
      1333       1334       1345       1344       1454       1455       1466       1465  
      1334       1335       1346       1345       1455       1456       1467       1466  
      1335       1336       1347       1346       1456       1457       1468       1467  
      1336       1337       1348       1347       1457       1458       1469       1468  
      1337       1338       1349       1348       1458       1459       1470       1469  
      1338       1339       1350       1349       1459       1460       1471       1470  
      1339       1340       1351       1350       1460       1461       1472       1471  
      1340       1341       1352       1351       1461       1462       1473       1472  
      1341       1342       1353       1352       1462       1463       1474       1473  
      1343       1344       1355       1354       1464       1465       1476       1475  
      1344       1345       1356       1355       1465       1466       1477       1476  
      1345       1346       1357       1356       1466       1467       1478       1477  
      1346       1347       1358       1357       1467       1468       1479       1478  
      1347       1348       1359       1358       1468       1469       1480       1479  
      1348       1349       1360       1359       1469       1470       1481       1480  
      1349       1350       1361       1360       1470       1471       1482       1481  
      1350       1351       1362       1361       1471       1472       1483       1482  
      1351       1352       1363       1362       1472       1473       1484       1483  
      1352       1353       1364       1363       1473       1474       1485       1484  
      1354       1355       1366       1365       1475       1476       1487       1486  
      1355       1356       1367       1366       1476       1477       1488       1487  
      1356       1357       1368       1367       1477       1478       1489       1488  
      1357       1358       1369       1368       1478       1479       1490       1489  
      1358       1359       1370       1369       1479       1480       1491       1490  
      1359       1360       1371       1370       1480       1481       1492       1491  
      1360       1361       1372       1371       1481       1482       1493       1492  
      1361       1362       1373       1372       1482       1483       1494       1493  
      1362       1363       1374       1373       1483       1484       1495       1494  
      1363       1364       1375       1374       1484       1485       1496       1495  
      1365       1366       1377       1376       1486       1487       1498       1497  
      1366       1367       1378       1377       1487       1488       1499       1498  
      1367       1368       1379       1378       1488       1489       1500       1499  
      1368       1369       1380       1379       1489       1490       1501       1500  
      1369       1370       1381       1380       1490       1491       1502       1501  
      1370       1371       1382       1381       1491       1492       1503       1502  
      1371       1372       1383       1382       1492       1493       1504       1503  
      1372       1373       1384       1383       1493       1494       1505       1504  
      1373       1374       1385       1384       1494       1495       1506       1505  
      1374       1375       1386       1385       1495       1496       1507       1506  
      1376       1377       1388       1387       1497       1498       1509       1508  
      1377       1378       1389       1388       1498       1499       1510       1509  
      1378       1379       1390       1389       1499       1500       1511       1510  
      1379       1380       1391       1390       1500       1501       1512       1511  
      1380       1381       1392       1391       1501       1502       1513       1512  
      1381       1382       1393       1392       1502       1503       1514       1513  
      1382       1383       1394       1393       1503       1504       1515       1514  
      1383       1384       1395       1394       1504       1505       1516       1515  
      1384       1385       1396       1395       1505       1506       1517       1516  
      1385       1386       1397       1396       1506       1507       1518       1517  
      1387       1388       1399       1398       1508       1509       1520       1519  
      1388       1389       1400       1399       1509       1510       1521       1520  
      1389       1390       1401       1400       1510       1511       1522       1521  
      1390       1391       1402       1401       1511       1512       1523       1522  
      1391       1392       1403       1402       1512       1513       1524       1523  
      1392       1393       1404       1403       1513       1514       1525       1524  
      1393       1394       1405       1404       1514       1515       1526       1525  
      1394       1395       1406       1405       1515       1516       1527       1526  
      1395       1396       1407       1406       1516       1517       1528       1527  
      1396       1397       1408       1407       1517       1518       1529       1528  
      1398       1399       1410       1409       1519       1520       1531       1530  
      1399       1400       1411       1410       1520       1521       1532       1531  
      1400       1401       1412       1411       1521       1522       1533       1532  
      1401       1402       1413       1412       1522       1523       1534       1533  
      1402       1403       1414       1413       1523       1524       1535       1534  
      1403       1404       1415       1414       1524       1525       1536       1535  
      1404       1405       1416       1415       1525       1526       1537       1536  
      1405       1406       1417       1416       1526       1527       1538       1537  
      1406       1407       1418       1417       1527       1528       1539       1538  
      1407       1408       1419       1418       1528       1529       1540       1539  
      1409       1410       1421       1420       1530       1531       1542       1541  
      1410       1411       1422       1421       1531       1532       1543       1542  
      1411       1412       1423       1422       1532       1533       1544       1543  
      1412       1413       1424       1423       1533       1534       1545       1544  
      1413       1414       1425       1424       1534       1535       1546       1545  
      1414       1415       1426       1425       1535       1536       1547       1546  
      1415       1416       1427       1426       1536       1537       1548       1547  
      1416       1417       1428       1427       1537       1538       1549       1548  
      1417       1418       1429       1428       1538       1539       1550       1549  
      1418       1419       1430       1429       1539       1540       1551       1550  
      1420       1421       1432       1431       1541       1542       1553       1552  
      1421       1422       1433       1432       1542       1543       1554       1553  
      1422       1423       1434       1433       1543       1544       1555       1554  
      1423       1424       1435       1434       1544       1545       1556       1555  
      1424       1425       1436       1435       1545       1546       1557       1556  
      1425       1426       1437       1436       1546       1547       1558       1557  
      1426       1427       1438       1437       1547       1548       1559       1558  
      1427       1428       1439       1438       1548       1549       1560       1559  
      1428       1429       1440       1439       1549       1550       1561       1560  
      1429       1430       1441       1440       1550       1551       1562       1561  
      1431       1432       1443       1442       1552       1553       1564       1563  
      1432       1433       1444       1443       1553       1554       1565       1564  
      1433       1434       1445       1444       1554       1555       1566       1565  
      1434       1435       1446       1445       1555       1556       1567       1566  
      1435       1436       1447       1446       1556       1557       1568       1567  
      1436       1437       1448       1447       1557       1558       1569       1568  
      1437       1438       1449       1448       1558       1559       1570       1569  
      1438       1439       1450       1449       1559       1560       1571       1570  
      1439       1440       1451       1450       1560       1561       1572       1571  
      1440       1441       1452       1451       1561       1562       1573       1572  
      1453       1454       1465       1464       1574       1575       1586       1585  
      1454       1455       1466       1465       1575       1576       1587       1586  
      1455       1456       1467       1466       1576       1577       1588       1587  
      1456       1457       1468       1467       1577       1578       1589       1588  
      1457       1458       1469       1468       1578       1579       1590       1589  
      1458       1459       1470       1469       1579       1580       1591       1590  
      1459       1460       1471       1470       1580       1581       1592       1591  
      1460       1461       1472       1471       1581       1582       1593       1592  
      1461       1462       1473       1472       1582       1583       1594       1593  
      1462       1463       1474       1473       1583       1584       1595       1594  
      1464       1465       1476       1475       1585       1586       1597       1596  
      1465       1466       1477       1476       1586       1587       1598       1597  
      1466       1467       1478       1477       1587       1588       1599       1598  
      1467       1468       1479       1478       1588       1589       1600       1599  
      1468       1469       1480       1479       1589       1590       1601       1600  
      1469       1470       1481       1480       1590       1591       1602       1601  
      1470       1471       1482       1481       1591       1592       1603       1602  
      1471       1472       1483       1482       1592       1593       1604       1603  
      1472       1473       1484       1483       1593       1594       1605       1604  
      1473       1474       1485       1484       1594       1595       1606       1605  
      1475       1476       1487       1486       1596       1597       1608       1607  
      1476       1477       1488       1487       1597       1598       1609       1608  
      1477       1478       1489       1488       1598       1599       1610       1609  
      1478       1479       1490       1489       1599       1600       1611       1610  
      1479       1480       1491       1490       1600       1601       1612       1611  
      1480       1481       1492       1491       1601       1602       1613       1612  
      1481       1482       1493       1492       1602       1603       1614       1613  
      1482       1483       1494       1493       1603       1604       1615       1614  
      1483       1484       1495       1494       1604       1605       1616       1615  
      1484       1485       1496       1495       1605       1606       1617       1616  
      1486       1487       1498       1497       1607       1608       1619       1618  
      1487       1488       1499       1498       1608       1609       1620       1619  
      1488       1489       1500       1499       1609       1610       1621       1620  
      1489       1490       1501       1500       1610       1611       1622       1621  
      1490       1491       1502       1501       1611       1612       1623       1622  
      1491       1492       1503       1502       1612       1613       1624       1623  
      1492       1493       1504       1503       1613       1614       1625       1624  
      1493       1494       1505       1504       1614       1615       1626       1625  
      1494       1495       1506       1505       1615       1616       1627       1626  
      1495       1496       1507       1506       1616       1617       1628       1627  
      1497       1498       1509       1508       1618       1619       1630       1629  
      1498       1499       1510       1509       1619       1620       1631       1630  
      1499       1500       1511       1510       1620       1621       1632       1631  
      1500       1501       1512       1511       1621       1622       1633       1632  
      1501       1502       1513       1512       1622       1623       1634       1633  
      1502       1503       1514       1513       1623       1624       1635       1634  
      1503       1504       1515       1514       1624       1625       1636       1635  
      1504       1505       1516       1515       1625       1626       1637       1636  
      1505       1506       1517       1516       1626       1627       1638       1637  
      1506       1507       1518       1517       1627       1628       1639       1638  
      1508       1509       1520       1519       1629       1630       1641       1640  
      1509       1510       1521       1520       1630       1631       1642       1641  
      1510       1511       1522       1521       1631       1632       1643       1642  
      1511       1512       1523       1522       1632       1633       1644       1643  
      1512       1513       1524       1523       1633       1634       1645       1644  
      1513       1514       1525       1524       1634       1635       1646       1645  
      1514       1515       1526       1525       1635       1636       1647       1646  
      1515       1516       1527       1526       1636       1637       1648       1647  
      1516       1517       1528       1527       1637       1638       1649       1648  
      1517       1518       1529       1528       1638       1639       1650       1649  
      1519       1520       1531       1530       1640       1641       1652       1651  
      1520       1521       1532       1531       1641       1642       1653       1652  
      1521       1522       1533       1532       1642       1643       1654       1653  
      1522       1523       1534       1533       1643       1644       1655       1654  
      1523       1524       1535       1534       1644       1645       1656       1655  
      1524       1525       1536       1535       1645       1646       1657       1656  
      1525       1526       1537       1536       1646       1647       1658       1657  
      1526       1527       1538       1537       1647       1648       1659       1658  
      1527       1528       1539       1538       1648       1649       1660       1659  
      1528       1529       1540       1539       1649       1650       1661       1660  
      1530       1531       1542       1541       1651       1652       1663       1662  
      1531       1532       1543       1542       1652       1653       1664       1663  
      1532       1533       1544       1543       1653       1654       1665       1664  
      1533       1534       1545       1544       1654       1655       1666       1665  
      1534       1535       1546       1545       1655       1656       1667       1666  
      1535       1536       1547       1546       1656       1657       1668       1667  
      1536       1537       1548       1547       1657       1658       1669       1668  
      1537       1538       1549       1548       1658       1659       1670       1669  
      1538       1539       1550       1549       1659       1660       1671       1670  
      1539       1540       1551       1550       1660       1661       1672       1671  
      1541       1542       1553       1552       1662       1663       1674       1673  
      1542       1543       1554       1553       1663       1664       1675       1674  
      1543       1544       1555       1554       1664       1665       1676       1675  
      1544       1545       1556       1555       1665       1666       1677       1676  
      1545       1546       1557       1556       1666       1667       1678       1677  
      1546       1547       1558       1557       1667       1668       1679       1678  
      1547       1548       1559       1558       1668       1669       1680       1679  
      1548       1549       1560       1559       1669       1670       1681       1680  
      1549       1550       1561       1560       1670       1671       1682       1681  
      1550       1551       1562       1561       1671       1672       1683       1682  
      1552       1553       1564       1563       1673       1674       1685       1684  
      1553       1554       1565       1564       1674       1675       1686       1685  
      1554       1555       1566       1565       1675       1676       1687       1686  
      1555       1556       1567       1566       1676       1677       1688       1687  
      1556       1557       1568       1567       1677       1678       1689       1688  
      1557       1558       1569       1568       1678       1679       1690       1689  
      1558       1559       1570       1569       1679       1680       1691       1690  
      1559       1560       1571       1570       1680       1681       1692       1691  
      1560       1561       1572       1571       1681       1682       1693       1692  
      1561       1562       1573       1572       1682       1683       1694       1693  
      1574       1575       1586       1585       1695       1696       1707       1706  
      1575       1576       1587       1586       1696       1697       1708       1707  
      1576       1577       1588       1587       1697       1698       1709       1708  
      1577       1578       1589       1588       1698       1699       1710       1709  
      1578       1579       1590       1589       1699       1700       1711       1710  
      1579       1580       1591       1590       1700       1701       1712       1711  
      1580       1581       1592       1591       1701       1702       1713       1712  
      1581       1582       1593       1592       1702       1703       1714       1713  
      1582       1583       1594       1593       1703       1704       1715       1714  
      1583       1584       1595       1594       1704       1705       1716       1715  
      1585       1586       1597       1596       1706       1707       1718       1717  
      1586       1587       1598       1597       1707       1708       1719       1718  
      1587       1588       1599       1598       1708       1709       1720       1719  
      1588       1589       1600       1599       1709       1710       1721       1720  
      1589       1590       1601       1600       1710       1711       1722       1721  
      1590       1591       1602       1601       1711       1712       1723       1722  
      1591       1592       1603       1602       1712       1713       1724       1723  
      1592       1593       1604       1603       1713       1714       1725       1724  
      1593       1594       1605       1604       1714       1715       1726       1725  
      1594       1595       1606       1605       1715       1716       1727       1726  
      1596       1597       1608       1607       1717       1718       1729       1728  
      1597       1598       1609       1608       1718       1719       1730       1729  
      1598       1599       1610       1609       1719       1720       1731       1730  
      1599       1600       1611       1610       1720       1721       1732       1731  
      1600       1601       1612       1611       1721       1722       1733       1732  
      1601       1602       1613       1612       1722       1723       1734       1733  
      1602       1603       1614       1613       1723       1724       1735       1734  
      1603       1604       1615       1614       1724       1725       1736       1735  
      1604       1605       1616       1615       1725       1726       1737       1736  
      1605       1606       1617       1616       1726       1727       1738       1737  
      1607       1608       1619       1618       1728       1729       1740       1739  
      1608       1609       1620       1619       1729       1730       1741       1740  
      1609       1610       1621       1620       1730       1731       1742       1741  
      1610       1611       1622       1621       1731       1732       1743       1742  
      1611       1612       1623       1622       1732       1733       1744       1743  
      1612       1613       1624       1623       1733       1734       1745       1744  
      1613       1614       1625       1624       1734       1735       1746       1745  
      1614       1615       1626       1625       1735       1736       1747       1746  
      1615       1616       1627       1626       1736       1737       1748       1747  
      1616       1617       1628       1627       1737       1738       1749       1748  
      1618       1619       1630       1629       1739       1740       1751       1750  
      1619       1620       1631       1630       1740       1741       1752       1751  
      1620       1621       1632       1631       1741       1742       1753       1752  
      1621       1622       1633       1632       1742       1743       1754       1753  
      1622       1623       1634       1633       1743       1744       1755       1754  
      1623       1624       1635       1634       1744       1745       1756       1755  
      1624       1625       1636       1635       1745       1746       1757       1756  
      1625       1626       1637       1636       1746       1747       1758       1757  
      1626       1627       1638       1637       1747       1748       1759       1758  
      1627       1628       1639       1638       1748       1749       1760       1759  
      1629       1630       1641       1640       1750       1751       1762       1761  
      1630       1631       1642       1641       1751       1752       1763       1762  
      1631       1632       1643       1642       1752       1753       1764       1763  
      1632       1633       1644       1643       1753       1754       1765       1764  
      1633       1634       1645       1644       1754       1755       1766       1765  
      1634       1635       1646       1645       1755       1756       1767       1766  
      1635       1636       1647       1646       1756       1757       1768       1767  
      1636       1637       1648       1647       1757       1758       1769       1768  
      1637       1638       1649       1648       1758       1759       1770       1769  
      1638       1639       1650       1649       1759       1760       1771       1770  
      1640       1641       1652       1651       1761       1762       1773       1772  
      1641       1642       1653       1652       1762       1763       1774       1773  
      1642       1643       1654       1653       1763       1764       1775       1774  
      1643       1644       1655       1654       1764       1765       1776       1775  
      1644       1645       1656       1655       1765       1766       1777       1776  
      1645       1646       1657       1656       1766       1767       1778       1777  
      1646       1647       1658       1657       1767       1768       1779       1778  
      1647       1648       1659       1658       1768       1769       1780       1779  
      1648       1649       1660       1659       1769       1770       1781       1780  
      1649       1650       1661       1660       1770       1771       1782       1781  
      1651       1652       1663       1662       1772       1773       1784       1783  
      1652       1653       1664       1663       1773       1774       1785       1784  
      1653       1654       1665       1664       1774       1775       1786       1785  
      1654       1655       1666       1665       1775       1776       1787       1786  
      1655       1656       1667       1666       1776       1777       1788       1787  
      1656       1657       1668       1667       1777       1778       1789       1788  
      1657       1658       1669       1668       1778       1779       1790       1789  
      1658       1659       1670       1669       1779       1780       1791       1790  
      1659       1660       1671       1670       1780       1781       1792       1791  
      1660       1661       1672       1671       1781       1782       1793       1792  
      1662       1663       1674       1673       1783       1784       1795       1794  
      1663       1664       1675       1674       1784       1785       1796       1795  
      1664       1665       1676       1675       1785       1786       1797       1796  
      1665       1666       1677       1676       1786       1787       1798       1797  
      1666       1667       1678       1677       1787       1788       1799       1798  
      1667       1668       1679       1678       1788       1789       1800       1799  
      1668       1669       1680       1679       1789       1790       1801       1800  
      1669       1670       1681       1680       1790       1791       1802       1801  
      1670       1671       1682       1681       1791       1792       1803       1802  
      1671       1672       1683       1682       1792       1793       1804       1803  
      1673       1674       1685       1684       1794       1795       1806       1805  
      1674       1675       1686       1685       1795       1796       1807       1806  
      1675       1676       1687       1686       1796       1797       1808       1807  
      1676       1677       1688       1687       1797       1798       1809       1808  
      1677       1678       1689       1688       1798       1799       1810       1809  
      1678       1679       1690       1689       1799       1800       1811       1810  
      1679       1680       1691       1690       1800       1801       1812       1811  
      1680       1681       1692       1691       1801       1802       1813       1812  
      1681       1682       1693       1692       1802       1803       1814       1813  
      1682       1683       1694       1693       1803       1804       1815       1814  
      1695       1696       1707       1706       1816       1817       1828       1827  
      1696       1697       1708       1707       1817       1818       1829       1828  
      1697       1698       1709       1708       1818       1819       1830       1829  
      1698       1699       1710       1709       1819       1820       1831       1830  
      1699       1700       1711       1710       1820       1821       1832       1831  
      1700       1701       1712       1711       1821       1822       1833       1832  
      1701       1702       1713       1712       1822       1823       1834       1833  
      1702       1703       1714       1713       1823       1824       1835       1834  
      1703       1704       1715       1714       1824       1825       1836       1835  
      1704       1705       1716       1715       1825       1826       1837       1836  
      1706       1707       1718       1717       1827       1828       1839       1838  
      1707       1708       1719       1718       1828       1829       1840       1839  
      1708       1709       1720       1719       1829       1830       1841       1840  
      1709       1710       1721       1720       1830       1831       1842       1841  
      1710       1711       1722       1721       1831       1832       1843       1842  
      1711       1712       1723       1722       1832       1833       1844       1843  
      1712       1713       1724       1723       1833       1834       1845       1844  
      1713       1714       1725       1724       1834       1835       1846       1845  
      1714       1715       1726       1725       1835       1836       1847       1846  
      1715       1716       1727       1726       1836       1837       1848       1847  
      1717       1718       1729       1728       1838       1839       1850       1849  
      1718       1719       1730       1729       1839       1840       1851       1850  
      1719       1720       1731       1730       1840       1841       1852       1851  
      1720       1721       1732       1731       1841       1842       1853       1852  
      1721       1722       1733       1732       1842       1843       1854       1853  
      1722       1723       1734       1733       1843       1844       1855       1854  
      1723       1724       1735       1734       1844       1845       1856       1855  
      1724       1725       1736       1735       1845       1846       1857       1856  
      1725       1726       1737       1736       1846       1847       1858       1857  
      1726       1727       1738       1737       1847       1848       1859       1858  
      1728       1729       1740       1739       1849       1850       1861       1860  
      1729       1730       1741       1740       1850       1851       1862       1861  
      1730       1731       1742       1741       1851       1852       1863       1862  
      1731       1732       1743       1742       1852       1853       1864       1863  
      1732       1733       1744       1743       1853       1854       1865       1864  
      1733       1734       1745       1744       1854       1855       1866       1865  
      1734       1735       1746       1745       1855       1856       1867       1866  
      1735       1736       1747       1746       1856       1857       1868       1867  
      1736       1737       1748       1747       1857       1858       1869       1868  
      1737       1738       1749       1748       1858       1859       1870       1869  
      1739       1740       1751       1750       1860       1861       1872       1871  
      1740       1741       1752       1751       1861       1862       1873       1872  
      1741       1742       1753       1752       1862       1863       1874       1873  
      1742       1743       1754       1753       1863       1864       1875       1874  
      1743       1744       1755       1754       1864       1865       1876       1875  
      1744       1745       1756       1755       1865       1866       1877       1876  
      1745       1746       1757       1756       1866       1867       1878       1877  
      1746       1747       1758       1757       1867       1868       1879       1878  
      1747       1748       1759       1758       1868       1869       1880       1879  
      1748       1749       1760       1759       1869       1870       1881       1880  
      1750       1751       1762       1761       1871       1872       1883       1882  
      1751       1752       1763       1762       1872       1873       1884       1883  
      1752       1753       1764       1763       1873       1874       1885       1884  
      1753       1754       1765       1764       1874       1875       1886       1885  
      1754       1755       1766       1765       1875       1876       1887       1886  
      1755       1756       1767       1766       1876       1877       1888       1887  
      1756       1757       1768       1767       1877       1878       1889       1888  
      1757       1758       1769       1768       1878       1879       1890       1889  
      1758       1759       1770       1769       1879       1880       1891       1890  
      1759       1760       1771       1770       1880       1881       1892       1891  
      1761       1762       1773       1772       1882       1883       1894       1893  
      1762       1763       1774       1773       1883       1884       1895       1894  
      1763       1764       1775       1774       1884       1885       1896       1895  
      1764       1765       1776       1775       1885       1886       1897       1896  
      1765       1766       1777       1776       1886       1887       1898       1897  
      1766       1767       1778       1777       1887       1888       1899       1898  
      1767       1768       1779       1778       1888       1889       1900       1899  
      1768       1769       1780       1779       1889       1890       1901       1900  
      1769       1770       1781       1780       1890       1891       1902       1901  
      1770       1771       1782       1781       1891       1892       1903       1902  
      1772       1773       1784       1783       1893       1894       1905       1904  
      1773       1774       1785       1784       1894       1895       1906       1905  
      1774       1775       1786       1785       1895       1896       1907       1906  
      1775       1776       1787       1786       1896       1897       1908       1907  
      1776       1777       1788       1787       1897       1898       1909       1908  
      1777       1778       1789       1788       1898       1899       1910       1909  
      1778       1779       1790       1789       1899       1900       1911       1910  
      1779       1780       1791       1790       1900       1901       1912       1911  
      1780       1781       1792       1791       1901       1902       1913       1912  
      1781       1782       1793       1792       1902       1903       1914       1913  
      1783       1784       1795       1794       1904       1905       1916       1915  
      1784       1785       1796       1795       1905       1906       1917       1916  
      1785       1786       1797       1796       1906       1907       1918       1917  
      1786       1787       1798       1797       1907       1908       1919       1918  
      1787       1788       1799       1798       1908       1909       1920       1919  
      1788       1789       1800       1799       1909       1910       1921       1920  
      1789       1790       1801       1800       1910       1911       1922       1921  
      1790       1791       1802       1801       1911       1912       1923       1922  
      1791       1792       1803       1802       1912       1913       1924       1923  
      1792       1793       1804       1803       1913       1914       1925       1924  
      1794       1795       1806       1805       1915       1916       1927       1926  
      1795       1796       1807       1806       1916       1917       1928       1927  
      1796       1797       1808       1807       1917       1918       1929       1928  
      1797       1798       1809       1808       1918       1919       1930       1929  
      1798       1799       1810       1809       1919       1920       1931       1930  
      1799       1800       1811       1810       1920       1921       1932       1931  
      1800       1801       1812       1811       1921       1922       1933       1932  
      1801       1802       1813       1812       1922       1923       1934       1933  
      1802       1803       1814       1813       1923       1924       1935       1934  
      1803       1804       1815       1814       1924       1925       1936       1935  
      1816       1817       1828       1827       1937       1938       1949       1948  
      1817       1818       1829       1828       1938       1939       1950       1949  
      1818       1819       1830       1829       1939       1940       1951       1950  
      1819       1820       1831       1830       1940       1941       1952       1951  
      1820       1821       1832       1831       1941       1942       1953       1952  
      1821       1822       1833       1832       1942       1943       1954       1953  
      1822       1823       1834       1833       1943       1944       1955       1954  
      1823       1824       1835       1834       1944       1945       1956       1955  
      1824       1825       1836       1835       1945       1946       1957       1956  
      1825       1826       1837       1836       1946       1947       1958       1957  
      1827       1828       1839       1838       1948       1949       1960       1959  
      1828       1829       1840       1839       1949       1950       1961       1960  
      1829       1830       1841       1840       1950       1951       1962       1961  
      1830       1831       1842       1841       1951       1952       1963       1962  
      1831       1832       1843       1842       1952       1953       1964       1963  
      1832       1833       1844       1843       1953       1954       1965       1964  
      1833       1834       1845       1844       1954       1955       1966       1965  
      1834       1835       1846       1845       1955       1956       1967       1966  
      1835       1836       1847       1846       1956       1957       1968       1967  
      1836       1837       1848       1847       1957       1958       1969       1968  
      1838       1839       1850       1849       1959       1960       1971       1970  
      1839       1840       1851       1850       1960       1961       1972       1971  
      1840       1841       1852       1851       1961       1962       1973       1972  
      1841       1842       1853       1852       1962       1963       1974       1973  
      1842       1843       1854       1853       1963       1964       1975       1974  
      1843       1844       1855       1854       1964       1965       1976       1975  
      1844       1845       1856       1855       1965       1966       1977       1976  
      1845       1846       1857       1856       1966       1967       1978       1977  
      1846       1847       1858       1857       1967       1968       1979       1978  
      1847       1848       1859       1858       1968       1969       1980       1979  
      1849       1850       1861       1860       1970       1971       1982       1981  
      1850       1851       1862       1861       1971       1972       1983       1982  
      1851       1852       1863       1862       1972       1973       1984       1983  
      1852       1853       1864       1863       1973       1974       1985       1984  
      1853       1854       1865       1864       1974       1975       1986       1985  
      1854       1855       1866       1865       1975       1976       1987       1986  
      1855       1856       1867       1866       1976       1977       1988       1987  
      1856       1857       1868       1867       1977       1978       1989       1988  
      1857       1858       1869       1868       1978       1979       1990       1989  
      1858       1859       1870       1869       1979       1980       1991       1990  
      1860       1861       1872       1871       1981       1982       1993       1992  
      1861       1862       1873       1872       1982       1983       1994       1993  
      1862       1863       1874       1873       1983       1984       1995       1994  
      1863       1864       1875       1874       1984       1985       1996       1995  
      1864       1865       1876       1875       1985       1986       1997       1996  
      1865       1866       1877       1876       1986       1987       1998       1997  
      1866       1867       1878       1877       1987       1988       1999       1998  
      1867       1868       1879       1878       1988       1989       2000       1999  
      1868       1869       1880       1879       1989       1990       2001       2000  
      1869       1870       1881       1880       1990       1991       2002       2001  
      1871       1872       1883       1882       1992       1993       2004       2003  
      1872       1873       1884       1883       1993       1994       2005       2004  
      1873       1874       1885       1884       1994       1995       2006       2005  
      1874       1875       1886       1885       1995       1996       2007       2006  
      1875       1876       1887       1886       1996       1997       2008       2007  
      1876       1877       1888       1887       1997       1998       2009       2008  
      1877       1878       1889       1888       1998       1999       2010       2009  
      1878       1879       1890       1889       1999       2000       2011       2010  
      1879       1880       1891       1890       2000       2001       2012       2011  
      1880       1881       1892       1891       2001       2002       2013       2012  
      1882       1883       1894       1893       2003       2004       2015       2014  
      1883       1884       1895       1894       2004       2005       2016       2015  
      1884       1885       1896       1895       2005       2006       2017       2016  
      1885       1886       1897       1896       2006       2007       2018       2017  
      1886       1887       1898       1897       2007       2008       2019       2018  
      1887       1888       1899       1898       2008       2009       2020       2019  
      1888       1889       1900       1899       2009       2010       2021       2020  
      1889       1890       1901       1900       2010       2011       2022       2021  
      1890       1891       1902       1901       2011       2012       2023       2022  
      1891       1892       1903       1902       2012       2013       2024       2023  
      1893       1894       1905       1904       2014       2015       2026       2025  
      1894       1895       1906       1905       2015       2016       2027       2026  
      1895       1896       1907       1906       2016       2017       2028       2027  
      1896       1897       1908       1907       2017       2018       2029       2028  
      1897       1898       1909       1908       2018       2019       2030       2029  
      1898       1899       1910       1909       2019       2020       2031       2030  
      1899       1900       1911       1910       2020       2021       2032       2031  
      1900       1901       1912       1911       2021       2022       2033       2032  
      1901       1902       1913       1912       2022       2023       2034       2033  
      1902       1903       1914       1913       2023       2024       2035       2034  
      1904       1905       1916       1915       2025       2026       2037       2036  
      1905       1906       1917       1916       2026       2027       2038       2037  
      1906       1907       1918       1917       2027       2028       2039       2038  
      1907       1908       1919       1918       2028       2029       2040       2039  
      1908       1909       1920       1919       2029       2030       2041       2040  
      1909       1910       1921       1920       2030       2031       2042       2041  
      1910       1911       1922       1921       2031       2032       2043       2042  
      1911       1912       1923       1922       2032       2033       2044       2043  
      1912       1913       1924       1923       2033       2034       2045       2044  
      1913       1914       1925       1924       2034       2035       2046       2045  
      1915       1916       1927       1926       2036       2037       2048       2047  
      1916       1917       1928       1927       2037       2038       2049       2048  
      1917       1918       1929       1928       2038       2039       2050       2049  
      1918       1919       1930       1929       2039       2040       2051       2050  
      1919       1920       1931       1930       2040       2041       2052       2051  
      1920       1921       1932       1931       2041       2042       2053       2052  
      1921       1922       1933       1932       2042       2043       2054       2053  
      1922       1923       1934       1933       2043       2044       2055       2054  
      1923       1924       1935       1934       2044       2045       2056       2055  
      1924       1925       1936       1935       2045       2046       2057       2056  
      1937       1938       1949       1948       2058       2059       2070       2069  
      1938       1939       1950       1949       2059       2060       2071       2070  
      1939       1940       1951       1950       2060       2061       2072       2071  
      1940       1941       1952       1951       2061       2062       2073       2072  
      1941       1942       1953       1952       2062       2063       2074       2073  
      1942       1943       1954       1953       2063       2064       2075       2074  
      1943       1944       1955       1954       2064       2065       2076       2075  
      1944       1945       1956       1955       2065       2066       2077       2076  
      1945       1946       1957       1956       2066       2067       2078       2077  
      1946       1947       1958       1957       2067       2068       2079       2078  
      1948       1949       1960       1959       2069       2070       2081       2080  
      1949       1950       1961       1960       2070       2071       2082       2081  
      1950       1951       1962       1961       2071       2072       2083       2082  
      1951       1952       1963       1962       2072       2073       2084       2083  
      1952       1953       1964       1963       2073       2074       2085       2084  
      1953       1954       1965       1964       2074       2075       2086       2085  
      1954       1955       1966       1965       2075       2076       2087       2086  
      1955       1956       1967       1966       2076       2077       2088       2087  
      1956       1957       1968       1967       2077       2078       2089       2088  
      1957       1958       1969       1968       2078       2079       2090       2089  
      1959       1960       1971       1970       2080       2081       2092       2091  
      1960       1961       1972       1971       2081       2082       2093       2092  
      1961       1962       1973       1972       2082       2083       2094       2093  
      1962       1963       1974       1973       2083       2084       2095       2094  
      1963       1964       1975       1974       2084       2085       2096       2095  
      1964       1965       1976       1975       2085       2086       2097       2096  
      1965       1966       1977       1976       2086       2087       2098       2097  
      1966       1967       1978       1977       2087       2088       2099       2098  
      1967       1968       1979       1978       2088       2089       2100       2099  
      1968       1969       1980       1979       2089       2090       2101       2100  
      1970       1971       1982       1981       2091       2092       2103       2102  
      1971       1972       1983       1982       2092       2093       2104       2103  
      1972       1973       1984       1983       2093       2094       2105       2104  
      1973       1974       1985       1984       2094       2095       2106       2105  
      1974       1975       1986       1985       2095       2096       2107       2106  
      1975       1976       1987       1986       2096       2097       2108       2107  
      1976       1977       1988       1987       2097       2098       2109       2108  
      1977       1978       1989       1988       2098       2099       2110       2109  
      1978       1979       1990       1989       2099       2100       2111       2110  
      1979       1980       1991       1990       2100       2101       2112       2111  
      1981       1982       1993       1992       2102       2103       2114       2113  
      1982       1983       1994       1993       2103       2104       2115       2114  
      1983       1984       1995       1994       2104       2105       2116       2115  
      1984       1985       1996       1995       2105       2106       2117       2116  
      1985       1986       1997       1996       2106       2107       2118       2117  
      1986       1987       1998       1997       2107       2108       2119       2118  
      1987       1988       1999       1998       2108       2109       2120       2119  
      1988       1989       2000       1999       2109       2110       2121       2120  
      1989       1990       2001       2000       2110       2111       2122       2121  
      1990       1991       2002       2001       2111       2112       2123       2122  
      1992       1993       2004       2003       2113       2114       2125       2124  
      1993       1994       2005       2004       2114       2115       2126       2125  
      1994       1995       2006       2005       2115       2116       2127       2126  
      1995       1996       2007       2006       2116       2117       2128       2127  
      1996       1997       2008       2007       2117       2118       2129       2128  
      1997       1998       2009       2008       2118       2119       2130       2129  
      1998       1999       2010       2009       2119       2120       2131       2130  
      1999       2000       2011       2010       2120       2121       2132       2131  
      2000       2001       2012       2011       2121       2122       2133       2132  
      2001       2002       2013       2012       2122       2123       2134       2133  
      2003       2004       2015       2014       2124       2125       2136       2135  
      2004       2005       2016       2015       2125       2126       2137       2136  
      2005       2006       2017       2016       2126       2127       2138       2137  
      2006       2007       2018       2017       2127       2128       2139       2138  
      2007       2008       2019       2018       2128       2129       2140       2139  
      2008       2009       2020       2019       2129       2130       2141       2140  
      2009       2010       2021       2020       2130       2131       2142       2141  
      2010       2011       2022       2021       2131       2132       2143       2142  
      2011       2012       2023       2022       2132       2133       2144       2143  
      2012       2013       2024       2023       2133       2134       2145       2144  
      2014       2015       2026       2025       2135       2136       2147       2146  
      2015       2016       2027       2026       2136       2137       2148       2147  
      2016       2017       2028       2027       2137       2138       2149       2148  
      2017       2018       2029       2028       2138       2139       2150       2149  
      2018       2019       2030       2029       2139       2140       2151       2150  
      2019       2020       2031       2030       2140       2141       2152       2151  
      2020       2021       2032       2031       2141       2142       2153       2152  
      2021       2022       2033       2032       2142       2143       2154       2153  
      2022       2023       2034       2033       2143       2144       2155       2154  
      2023       2024       2035       2034       2144       2145       2156       2155  
      2025       2026       2037       2036       2146       2147       2158       2157  
      2026       2027       2038       2037       2147       2148       2159       2158  
      2027       2028       2039       2038       2148       2149       2160       2159  
      2028       2029       2040       2039       2149       2150       2161       2160  
      2029       2030       2041       2040       2150       2151       2162       2161  
      2030       2031       2042       2041       2151       2152       2163       2162  
      2031       2032       2043       2042       2152       2153       2164       2163  
      2032       2033       2044       2043       2153       2154       2165       2164  
      2033       2034       2045       2044       2154       2155       2166       2165  
      2034       2035       2046       2045       2155       2156       2167       2166  
      2036       2037       2048       2047       2157       2158       2169       2168  
      2037       2038       2049       2048       2158       2159       2170       2169  
      2038       2039       2050       2049       2159       2160       2171       2170  
      2039       2040       2051       2050       2160       2161       2172       2171  
      2040       2041       2052       2051       2161       2162       2173       2172  
      2041       2042       2053       2052       2162       2163       2174       2173  
      2042       2043       2054       2053       2163       2164       2175       2174  
      2043       2044       2055       2054       2164       2165       2176       2175  
      2044       2045       2056       2055       2165       2166       2177       2176  
      2045       2046       2057       2056       2166       2167       2178       2177  
      2058       2059       2070       2069       2179       2180       2191       2190  
      2059       2060       2071       2070       2180       2181       2192       2191  
      2060       2061       2072       2071       2181       2182       2193       2192  
      2061       2062       2073       2072       2182       2183       2194       2193  
      2062       2063       2074       2073       2183       2184       2195       2194  
      2063       2064       2075       2074       2184       2185       2196       2195  
      2064       2065       2076       2075       2185       2186       2197       2196  
      2065       2066       2077       2076       2186       2187       2198       2197  
      2066       2067       2078       2077       2187       2188       2199       2198  
      2067       2068       2079       2078       2188       2189       2200       2199  
      2069       2070       2081       2080       2190       2191       2202       2201  
      2070       2071       2082       2081       2191       2192       2203       2202  
      2071       2072       2083       2082       2192       2193       2204       2203  
      2072       2073       2084       2083       2193       2194       2205       2204  
      2073       2074       2085       2084       2194       2195       2206       2205  
      2074       2075       2086       2085       2195       2196       2207       2206  
      2075       2076       2087       2086       2196       2197       2208       2207  
      2076       2077       2088       2087       2197       2198       2209       2208  
      2077       2078       2089       2088       2198       2199       2210       2209  
      2078       2079       2090       2089       2199       2200       2211       2210  
      2080       2081       2092       2091       2201       2202       2213       2212  
      2081       2082       2093       2092       2202       2203       2214       2213  
      2082       2083       2094       2093       2203       2204       2215       2214  
      2083       2084       2095       2094       2204       2205       2216       2215  
      2084       2085       2096       2095       2205       2206       2217       2216  
      2085       2086       2097       2096       2206       2207       2218       2217  
      2086       2087       2098       2097       2207       2208       2219       2218  
      2087       2088       2099       2098       2208       2209       2220       2219  
      2088       2089       2100       2099       2209       2210       2221       2220  
      2089       2090       2101       2100       2210       2211       2222       2221  
      2091       2092       2103       2102       2212       2213       2224       2223  
      2092       2093       2104       2103       2213       2214       2225       2224  
      2093       2094       2105       2104       2214       2215       2226       2225  
      2094       2095       2106       2105       2215       2216       2227       2226  
      2095       2096       2107       2106       2216       2217       2228       2227  
      2096       2097       2108       2107       2217       2218       2229       2228  
      2097       2098       2109       2108       2218       2219       2230       2229  
      2098       2099       2110       2109       2219       2220       2231       2230  
      2099       2100       2111       2110       2220       2221       2232       2231  
      2100       2101       2112       2111       2221       2222       2233       2232  
      2102       2103       2114       2113       2223       2224       2235       2234  
      2103       2104       2115       2114       2224       2225       2236       2235  
      2104       2105       2116       2115       2225       2226       2237       2236  
      2105       2106       2117       2116       2226       2227       2238       2237  
      2106       2107       2118       2117       2227       2228       2239       2238  
      2107       2108       2119       2118       2228       2229       2240       2239  
      2108       2109       2120       2119       2229       2230       2241       2240  
      2109       2110       2121       2120       2230       2231       2242       2241  
      2110       2111       2122       2121       2231       2232       2243       2242  
      2111       2112       2123       2122       2232       2233       2244       2243  
      2113       2114       2125       2124       2234       2235       2246       2245  
      2114       2115       2126       2125       2235       2236       2247       2246  
      2115       2116       2127       2126       2236       2237       2248       2247  
      2116       2117       2128       2127       2237       2238       2249       2248  
      2117       2118       2129       2128       2238       2239       2250       2249  
      2118       2119       2130       2129       2239       2240       2251       2250  
      2119       2120       2131       2130       2240       2241       2252       2251  
      2120       2121       2132       2131       2241       2242       2253       2252  
      2121       2122       2133       2132       2242       2243       2254       2253  
      2122       2123       2134       2133       2243       2244       2255       2254  
      2124       2125       2136       2135       2245       2246       2257       2256  
      2125       2126       2137       2136       2246       2247       2258       2257  
      2126       2127       2138       2137       2247       2248       2259       2258  
      2127       2128       2139       2138       2248       2249       2260       2259  
      2128       2129       2140       2139       2249       2250       2261       2260  
      2129       2130       2141       2140       2250       2251       2262       2261  
      2130       2131       2142       2141       2251       2252       2263       2262  
      2131       2132       2143       2142       2252       2253       2264       2263  
      2132       2133       2144       2143       2253       2254       2265       2264  
      2133       2134       2145       2144       2254       2255       2266       2265  
      2135       2136       2147       2146       2256       2257       2268       2267  
      2136       2137       2148       2147       2257       2258       2269       2268  
      2137       2138       2149       2148       2258       2259       2270       2269  
      2138       2139       2150       2149       2259       2260       2271       2270  
      2139       2140       2151       2150       2260       2261       2272       2271  
      2140       2141       2152       2151       2261       2262       2273       2272  
      2141       2142       2153       2152       2262       2263       2274       2273  
      2142       2143       2154       2153       2263       2264       2275       2274  
      2143       2144       2155       2154       2264       2265       2276       2275  
      2144       2145       2156       2155       2265       2266       2277       2276  
      2146       2147       2158       2157       2267       2268       2279       2278  
      2147       2148       2159       2158       2268       2269       2280       2279  
      2148       2149       2160       2159       2269       2270       2281       2280  
      2149       2150       2161       2160       2270       2271       2282       2281  
      2150       2151       2162       2161       2271       2272       2283       2282  
      2151       2152       2163       2162       2272       2273       2284       2283  
      2152       2153       2164       2163       2273       2274       2285       2284  
      2153       2154       2165       2164       2274       2275       2286       2285  
      2154       2155       2166       2165       2275       2276       2287       2286  
      2155       2156       2167       2166       2276       2277       2288       2287  
      2157       2158       2169       2168       2278       2279       2290       2289  
      2158       2159       2170       2169       2279       2280       2291       2290  
      2159       2160       2171       2170       2280       2281       2292       2291  
      2160       2161       2172       2171       2281       2282       2293       2292  
      2161       2162       2173       2172       2282       2283       2294       2293  
      2162       2163       2174       2173       2283       2284       2295       2294  
      2163       2164       2175       2174       2284       2285       2296       2295  
      2164       2165       2176       2175       2285       2286       2297       2296  
      2165       2166       2177       2176       2286       2287       2298       2297  
      2166       2167       2178       2177       2287       2288       2299       2298  
      2179       2180       2191       2190       2300       2301       2312       2311  
      2180       2181       2192       2191       2301       2302       2313       2312  
      2181       2182       2193       2192       2302       2303       2314       2313  
      2182       2183       2194       2193       2303       2304       2315       2314  
      2183       2184       2195       2194       2304       2305       2316       2315  
      2184       2185       2196       2195       2305       2306       2317       2316  
      2185       2186       2197       2196       2306       2307       2318       2317  
      2186       2187       2198       2197       2307       2308       2319       2318  
      2187       2188       2199       2198       2308       2309       2320       2319  
      2188       2189       2200       2199       2309       2310       2321       2320  
      2190       2191       2202       2201       2311       2312       2323       2322  
      2191       2192       2203       2202       2312       2313       2324       2323  
      2192       2193       2204       2203       2313       2314       2325       2324  
      2193       2194       2205       2204       2314       2315       2326       2325  
      2194       2195       2206       2205       2315       2316       2327       2326  
      2195       2196       2207       2206       2316       2317       2328       2327  
      2196       2197       2208       2207       2317       2318       2329       2328  
      2197       2198       2209       2208       2318       2319       2330       2329  
      2198       2199       2210       2209       2319       2320       2331       2330  
      2199       2200       2211       2210       2320       2321       2332       2331  
      2201       2202       2213       2212       2322       2323       2334       2333  
      2202       2203       2214       2213       2323       2324       2335       2334  
      2203       2204       2215       2214       2324       2325       2336       2335  
      2204       2205       2216       2215       2325       2326       2337       2336  
      2205       2206       2217       2216       2326       2327       2338       2337  
      2206       2207       2218       2217       2327       2328       2339       2338  
      2207       2208       2219       2218       2328       2329       2340       2339  
      2208       2209       2220       2219       2329       2330       2341       2340  
      2209       2210       2221       2220       2330       2331       2342       2341  
      2210       2211       2222       2221       2331       2332       2343       2342  
      2212       2213       2224       2223       2333       2334       2345       2344  
      2213       2214       2225       2224       2334       2335       2346       2345  
      2214       2215       2226       2225       2335       2336       2347       2346  
      2215       2216       2227       2226       2336       2337       2348       2347  
      2216       2217       2228       2227       2337       2338       2349       2348  
      2217       2218       2229       2228       2338       2339       2350       2349  
      2218       2219       2230       2229       2339       2340       2351       2350  
      2219       2220       2231       2230       2340       2341       2352       2351  
      2220       2221       2232       2231       2341       2342       2353       2352  
      2221       2222       2233       2232       2342       2343       2354       2353  
      2223       2224       2235       2234       2344       2345       2356       2355  
      2224       2225       2236       2235       2345       2346       2357       2356  
      2225       2226       2237       2236       2346       2347       2358       2357  
      2226       2227       2238       2237       2347       2348       2359       2358  
      2227       2228       2239       2238       2348       2349       2360       2359  
      2228       2229       2240       2239       2349       2350       2361       2360  
      2229       2230       2241       2240       2350       2351       2362       2361  
      2230       2231       2242       2241       2351       2352       2363       2362  
      2231       2232       2243       2242       2352       2353       2364       2363  
      2232       2233       2244       2243       2353       2354       2365       2364  
      2234       2235       2246       2245       2355       2356       2367       2366  
      2235       2236       2247       2246       2356       2357       2368       2367  
      2236       2237       2248       2247       2357       2358       2369       2368  
      2237       2238       2249       2248       2358       2359       2370       2369  
      2238       2239       2250       2249       2359       2360       2371       2370  
      2239       2240       2251       2250       2360       2361       2372       2371  
      2240       2241       2252       2251       2361       2362       2373       2372  
      2241       2242       2253       2252       2362       2363       2374       2373  
      2242       2243       2254       2253       2363       2364       2375       2374  
      2243       2244       2255       2254       2364       2365       2376       2375  
      2245       2246       2257       2256       2366       2367       2378       2377  
      2246       2247       2258       2257       2367       2368       2379       2378  
      2247       2248       2259       2258       2368       2369       2380       2379  
      2248       2249       2260       2259       2369       2370       2381       2380  
      2249       2250       2261       2260       2370       2371       2382       2381  
      2250       2251       2262       2261       2371       2372       2383       2382  
      2251       2252       2263       2262       2372       2373       2384       2383  
      2252       2253       2264       2263       2373       2374       2385       2384  
      2253       2254       2265       2264       2374       2375       2386       2385  
      2254       2255       2266       2265       2375       2376       2387       2386  
      2256       2257       2268       2267       2377       2378       2389       2388  
      2257       2258       2269       2268       2378       2379       2390       2389  
      2258       2259       2270       2269       2379       2380       2391       2390  
      2259       2260       2271       2270       2380       2381       2392       2391  
      2260       2261       2272       2271       2381       2382       2393       2392  
      2261       2262       2273       2272       2382       2383       2394       2393  
      2262       2263       2274       2273       2383       2384       2395       2394  
      2263       2264       2275       2274       2384       2385       2396       2395  
      2264       2265       2276       2275       2385       2386       2397       2396  
      2265       2266       2277       2276       2386       2387       2398       2397  
      2267       2268       2279       2278       2388       2389       2400       2399  
      2268       2269       2280       2279       2389       2390       2401       2400  
      2269       2270       2281       2280       2390       2391       2402       2401  
      2270       2271       2282       2281       2391       2392       2403       2402  
      2271       2272       2283       2282       2392       2393       2404       2403  
      2272       2273       2284       2283       2393       2394       2405       2404  
      2273       2274       2285       2284       2394       2395       2406       2405  
      2274       2275       2286       2285       2395       2396       2407       2406  
      2275       2276       2287       2286       2396       2397       2408       2407  
      2276       2277       2288       2287       2397       2398       2409       2408  
      2278       2279       2290       2289       2399       2400       2411       2410  
      2279       2280       2291       2290       2400       2401       2412       2411  
      2280       2281       2292       2291       2401       2402       2413       2412  
      2281       2282       2293       2292       2402       2403       2414       2413  
      2282       2283       2294       2293       2403       2404       2415       2414  
      2283       2284       2295       2294       2404       2405       2416       2415  
      2284       2285       2296       2295       2405       2406       2417       2416  
      2285       2286       2297       2296       2406       2407       2418       2417  
      2286       2287       2298       2297       2407       2408       2419       2418  
      2287       2288       2299       2298       2408       2409       2420       2419  
      2300       2301       2312       2311       2421       2422       2433       2432  
      2301       2302       2313       2312       2422       2423       2434       2433  
      2302       2303       2314       2313       2423       2424       2435       2434  
      2303       2304       2315       2314       2424       2425       2436       2435  
      2304       2305       2316       2315       2425       2426       2437       2436  
      2305       2306       2317       2316       2426       2427       2438       2437  
      2306       2307       2318       2317       2427       2428       2439       2438  
      2307       2308       2319       2318       2428       2429       2440       2439  
      2308       2309       2320       2319       2429       2430       2441       2440  
      2309       2310       2321       2320       2430       2431       2442       2441  
      2311       2312       2323       2322       2432       2433       2444       2443  
      2312       2313       2324       2323       2433       2434       2445       2444  
      2313       2314       2325       2324       2434       2435       2446       2445  
      2314       2315       2326       2325       2435       2436       2447       2446  
      2315       2316       2327       2326       2436       2437       2448       2447  
      2316       2317       2328       2327       2437       2438       2449       2448  
      2317       2318       2329       2328       2438       2439       2450       2449  
      2318       2319       2330       2329       2439       2440       2451       2450  
      2319       2320       2331       2330       2440       2441       2452       2451  
      2320       2321       2332       2331       2441       2442       2453       2452  
      2322       2323       2334       2333       2443       2444       2455       2454  
      2323       2324       2335       2334       2444       2445       2456       2455  
      2324       2325       2336       2335       2445       2446       2457       2456  
      2325       2326       2337       2336       2446       2447       2458       2457  
      2326       2327       2338       2337       2447       2448       2459       2458  
      2327       2328       2339       2338       2448       2449       2460       2459  
      2328       2329       2340       2339       2449       2450       2461       2460  
      2329       2330       2341       2340       2450       2451       2462       2461  
      2330       2331       2342       2341       2451       2452       2463       2462  
      2331       2332       2343       2342       2452       2453       2464       2463  
      2333       2334       2345       2344       2454       2455       2466       2465  
      2334       2335       2346       2345       2455       2456       2467       2466  
      2335       2336       2347       2346       2456       2457       2468       2467  
      2336       2337       2348       2347       2457       2458       2469       2468  
      2337       2338       2349       2348       2458       2459       2470       2469  
      2338       2339       2350       2349       2459       2460       2471       2470  
      2339       2340       2351       2350       2460       2461       2472       2471  
      2340       2341       2352       2351       2461       2462       2473       2472  
      2341       2342       2353       2352       2462       2463       2474       2473  
      2342       2343       2354       2353       2463       2464       2475       2474  
      2344       2345       2356       2355       2465       2466       2477       2476  
      2345       2346       2357       2356       2466       2467       2478       2477  
      2346       2347       2358       2357       2467       2468       2479       2478  
      2347       2348       2359       2358       2468       2469       2480       2479  
      2348       2349       2360       2359       2469       2470       2481       2480  
      2349       2350       2361       2360       2470       2471       2482       2481  
      2350       2351       2362       2361       2471       2472       2483       2482  
      2351       2352       2363       2362       2472       2473       2484       2483  
      2352       2353       2364       2363       2473       2474       2485       2484  
      2353       2354       2365       2364       2474       2475       2486       2485  
      2355       2356       2367       2366       2476       2477       2488       2487  
      2356       2357       2368       2367       2477       2478       2489       2488  
      2357       2358       2369       2368       2478       2479       2490       2489  
      2358       2359       2370       2369       2479       2480       2491       2490  
      2359       2360       2371       2370       2480       2481       2492       2491  
      2360       2361       2372       2371       2481       2482       2493       2492  
      2361       2362       2373       2372       2482       2483       2494       2493  
      2362       2363       2374       2373       2483       2484       2495       2494  
      2363       2364       2375       2374       2484       2485       2496       2495  
      2364       2365       2376       2375       2485       2486       2497       2496  
      2366       2367       2378       2377       2487       2488       2499       2498  
      2367       2368       2379       2378       2488       2489       2500       2499  
      2368       2369       2380       2379       2489       2490       2501       2500  
      2369       2370       2381       2380       2490       2491       2502       2501  
      2370       2371       2382       2381       2491       2492       2503       2502  
      2371       2372       2383       2382       2492       2493       2504       2503  
      2372       2373       2384       2383       2493       2494       2505       2504  
      2373       2374       2385       2384       2494       2495       2506       2505  
      2374       2375       2386       2385       2495       2496       2507       2506  
      2375       2376       2387       2386       2496       2497       2508       2507  
      2377       2378       2389       2388       2498       2499       2510       2509  
      2378       2379       2390       2389       2499       2500       2511       2510  
      2379       2380       2391       2390       2500       2501       2512       2511  
      2380       2381       2392       2391       2501       2502       2513       2512  
      2381       2382       2393       2392       2502       2503       2514       2513  
      2382       2383       2394       2393       2503       2504       2515       2514  
      2383       2384       2395       2394       2504       2505       2516       2515  
      2384       2385       2396       2395       2505       2506       2517       2516  
      2385       2386       2397       2396       2506       2507       2518       2517  
      2386       2387       2398       2397       2507       2508       2519       2518  
      2388       2389       2400       2399       2509       2510       2521       2520  
      2389       2390       2401       2400       2510       2511       2522       2521  
      2390       2391       2402       2401       2511       2512       2523       2522  
      2391       2392       2403       2402       2512       2513       2524       2523  
      2392       2393       2404       2403       2513       2514       2525       2524  
      2393       2394       2405       2404       2514       2515       2526       2525  
      2394       2395       2406       2405       2515       2516       2527       2526  
      2395       2396       2407       2406       2516       2517       2528       2527  
      2396       2397       2408       2407       2517       2518       2529       2528  
      2397       2398       2409       2408       2518       2519       2530       2529  
      2399       2400       2411       2410       2520       2521       2532       2531  
      2400       2401       2412       2411       2521       2522       2533       2532  
      2401       2402       2413       2412       2522       2523       2534       2533  
      2402       2403       2414       2413       2523       2524       2535       2534  
      2403       2404       2415       2414       2524       2525       2536       2535  
      2404       2405       2416       2415       2525       2526       2537       2536  
      2405       2406       2417       2416       2526       2527       2538       2537  
      2406       2407       2418       2417       2527       2528       2539       2538  
      2407       2408       2419       2418       2528       2529       2540       2539  
      2408       2409       2420       2419       2529       2530       2541       2540  
      2421       2422       2433       2432       2542       2543       2554       2553  
      2422       2423       2434       2433       2543       2544       2555       2554  
      2423       2424       2435       2434       2544       2545       2556       2555  
      2424       2425       2436       2435       2545       2546       2557       2556  
      2425       2426       2437       2436       2546       2547       2558       2557  
      2426       2427       2438       2437       2547       2548       2559       2558  
      2427       2428       2439       2438       2548       2549       2560       2559  
      2428       2429       2440       2439       2549       2550       2561       2560  
      2429       2430       2441       2440       2550       2551       2562       2561  
      2430       2431       2442       2441       2551       2552       2563       2562  
      2432       2433       2444       2443       2553       2554       2565       2564  
      2433       2434       2445       2444       2554       2555       2566       2565  
      2434       2435       2446       2445       2555       2556       2567       2566  
      2435       2436       2447       2446       2556       2557       2568       2567  
      2436       2437       2448       2447       2557       2558       2569       2568  
      2437       2438       2449       2448       2558       2559       2570       2569  
      2438       2439       2450       2449       2559       2560       2571       2570  
      2439       2440       2451       2450       2560       2561       2572       2571  
      2440       2441       2452       2451       2561       2562       2573       2572  
      2441       2442       2453       2452       2562       2563       2574       2573  
      2443       2444       2455       2454       2564       2565       2576       2575  
      2444       2445       2456       2455       2565       2566       2577       2576  
      2445       2446       2457       2456       2566       2567       2578       2577  
      2446       2447       2458       2457       2567       2568       2579       2578  
      2447       2448       2459       2458       2568       2569       2580       2579  
      2448       2449       2460       2459       2569       2570       2581       2580  
      2449       2450       2461       2460       2570       2571       2582       2581  
      2450       2451       2462       2461       2571       2572       2583       2582  
      2451       2452       2463       2462       2572       2573       2584       2583  
      2452       2453       2464       2463       2573       2574       2585       2584  
      2454       2455       2466       2465       2575       2576       2587       2586  
      2455       2456       2467       2466       2576       2577       2588       2587  
      2456       2457       2468       2467       2577       2578       2589       2588  
      2457       2458       2469       2468       2578       2579       2590       2589  
      2458       2459       2470       2469       2579       2580       2591       2590  
      2459       2460       2471       2470       2580       2581       2592       2591  
      2460       2461       2472       2471       2581       2582       2593       2592  
      2461       2462       2473       2472       2582       2583       2594       2593  
      2462       2463       2474       2473       2583       2584       2595       2594  
      2463       2464       2475       2474       2584       2585       2596       2595  
      2465       2466       2477       2476       2586       2587       2598       2597  
      2466       2467       2478       2477       2587       2588       2599       2598  
      2467       2468       2479       2478       2588       2589       2600       2599  
      2468       2469       2480       2479       2589       2590       2601       2600  
      2469       2470       2481       2480       2590       2591       2602       2601  
      2470       2471       2482       2481       2591       2592       2603       2602  
      2471       2472       2483       2482       2592       2593       2604       2603  
      2472       2473       2484       2483       2593       2594       2605       2604  
      2473       2474       2485       2484       2594       2595       2606       2605  
      2474       2475       2486       2485       2595       2596       2607       2606  
      2476       2477       2488       2487       2597       2598       2609       2608  
      2477       2478       2489       2488       2598       2599       2610       2609  
      2478       2479       2490       2489       2599       2600       2611       2610  
      2479       2480       2491       2490       2600       2601       2612       2611  
      2480       2481       2492       2491       2601       2602       2613       2612  
      2481       2482       2493       2492       2602       2603       2614       2613  
      2482       2483       2494       2493       2603       2604       2615       2614  
      2483       2484       2495       2494       2604       2605       2616       2615  
      2484       2485       2496       2495       2605       2606       2617       2616  
      2485       2486       2497       2496       2606       2607       2618       2617  
      2487       2488       2499       2498       2608       2609       2620       2619  
      2488       2489       2500       2499       2609       2610       2621       2620  
      2489       2490       2501       2500       2610       2611       2622       2621  
      2490       2491       2502       2501       2611       2612       2623       2622  
      2491       2492       2503       2502       2612       2613       2624       2623  
      2492       2493       2504       2503       2613       2614       2625       2624  
      2493       2494       2505       2504       2614       2615       2626       2625  
      2494       2495       2506       2505       2615       2616       2627       2626  
      2495       2496       2507       2506       2616       2617       2628       2627  
      2496       2497       2508       2507       2617       2618       2629       2628  
      2498       2499       2510       2509       2619       2620       2631       2630  
      2499       2500       2511       2510       2620       2621       2632       2631  
      2500       2501       2512       2511       2621       2622       2633       2632  
      2501       2502       2513       2512       2622       2623       2634       2633  
      2502       2503       2514       2513       2623       2624       2635       2634  
      2503       2504       2515       2514       2624       2625       2636       2635  
      2504       2505       2516       2515       2625       2626       2637       2636  
      2505       2506       2517       2516       2626       2627       2638       2637  
      2506       2507       2518       2517       2627       2628       2639       2638  
      2507       2508       2519       2518       2628       2629       2640       2639  
      2509       2510       2521       2520       2630       2631       2642       2641  
      2510       2511       2522       2521       2631       2632       2643       2642  
      2511       2512       2523       2522       2632       2633       2644       2643  
      2512       2513       2524       2523       2633       2634       2645       2644  
      2513       2514       2525       2524       2634       2635       2646       2645  
      2514       2515       2526       2525       2635       2636       2647       2646  
      2515       2516       2527       2526       2636       2637       2648       2647  
      2516       2517       2528       2527       2637       2638       2649       2648  
      2517       2518       2529       2528       2638       2639       2650       2649  
      2518       2519       2530       2529       2639       2640       2651       2650  
      2520       2521       2532       2531       2641       2642       2653       2652  
      2521       2522       2533       2532       2642       2643       2654       2653  
      2522       2523       2534       2533       2643       2644       2655       2654  
      2523       2524       2535       2534       2644       2645       2656       2655  
      2524       2525       2536       2535       2645       2646       2657       2656  
      2525       2526       2537       2536       2646       2647       2658       2657  
      2526       2527       2538       2537       2647       2648       2659       2658  
      2527       2528       2539       2538       2648       2649       2660       2659  
      2528       2529       2540       2539       2649       2650       2661       2660  
      2529       2530       2541       2540       2650       2651       2662       2661  
      2542       2543       2554       2553       2663       2664       2675       2674  
      2543       2544       2555       2554       2664       2665       2676       2675  
      2544       2545       2556       2555       2665       2666       2677       2676  
      2545       2546       2557       2556       2666       2667       2678       2677  
      2546       2547       2558       2557       2667       2668       2679       2678  
      2547       2548       2559       2558       2668       2669       2680       2679  
      2548       2549       2560       2559       2669       2670       2681       2680  
      2549       2550       2561       2560       2670       2671       2682       2681  
      2550       2551       2562       2561       2671       2672       2683       2682  
      2551       2552       2563       2562       2672       2673       2684       2683  
      2553       2554       2565       2564       2674       2675       2686       2685  
      2554       2555       2566       2565       2675       2676       2687       2686  
      2555       2556       2567       2566       2676       2677       2688       2687  
      2556       2557       2568       2567       2677       2678       2689       2688  
      2557       2558       2569       2568       2678       2679       2690       2689  
      2558       2559       2570       2569       2679       2680       2691       2690  
      2559       2560       2571       2570       2680       2681       2692       2691  
      2560       2561       2572       2571       2681       2682       2693       2692  
      2561       2562       2573       2572       2682       2683       2694       2693  
      2562       2563       2574       2573       2683       2684       2695       2694  
      2564       2565       2576       2575       2685       2686       2697       2696  
      2565       2566       2577       2576       2686       2687       2698       2697  
      2566       2567       2578       2577       2687       2688       2699       2698  
      2567       2568       2579       2578       2688       2689       2700       2699  
      2568       2569       2580       2579       2689       2690       2701       2700  
      2569       2570       2581       2580       2690       2691       2702       2701  
      2570       2571       2582       2581       2691       2692       2703       2702  
      2571       2572       2583       2582       2692       2693       2704       2703  
      2572       2573       2584       2583       2693       2694       2705       2704  
      2573       2574       2585       2584       2694       2695       2706       2705  
      2575       2576       2587       2586       2696       2697       2708       2707  
      2576       2577       2588       2587       2697       2698       2709       2708  
      2577       2578       2589       2588       2698       2699       2710       2709  
      2578       2579       2590       2589       2699       2700       2711       2710  
      2579       2580       2591       2590       2700       2701       2712       2711  
      2580       2581       2592       2591       2701       2702       2713       2712  
      2581       2582       2593       2592       2702       2703       2714       2713  
      2582       2583       2594       2593       2703       2704       2715       2714  
      2583       2584       2595       2594       2704       2705       2716       2715  
      2584       2585       2596       2595       2705       2706       2717       2716  
      2586       2587       2598       2597       2707       2708       2719       2718  
      2587       2588       2599       2598       2708       2709       2720       2719  
      2588       2589       2600       2599       2709       2710       2721       2720  
      2589       2590       2601       2600       2710       2711       2722       2721  
      2590       2591       2602       2601       2711       2712       2723       2722  
      2591       2592       2603       2602       2712       2713       2724       2723  
      2592       2593       2604       2603       2713       2714       2725       2724  
      2593       2594       2605       2604       2714       2715       2726       2725  
      2594       2595       2606       2605       2715       2716       2727       2726  
      2595       2596       2607       2606       2716       2717       2728       2727  
      2597       2598       2609       2608       2718       2719       2730       2729  
      2598       2599       2610       2609       2719       2720       2731       2730  
      2599       2600       2611       2610       2720       2721       2732       2731  
      2600       2601       2612       2611       2721       2722       2733       2732  
      2601       2602       2613       2612       2722       2723       2734       2733  
      2602       2603       2614       2613       2723       2724       2735       2734  
      2603       2604       2615       2614       2724       2725       2736       2735  
      2604       2605       2616       2615       2725       2726       2737       2736  
      2605       2606       2617       2616       2726       2727       2738       2737  
      2606       2607       2618       2617       2727       2728       2739       2738  
      2608       2609       2620       2619       2729       2730       2741       2740  
      2609       2610       2621       2620       2730       2731       2742       2741  
      2610       2611       2622       2621       2731       2732       2743       2742  
      2611       2612       2623       2622       2732       2733       2744       2743  
      2612       2613       2624       2623       2733       2734       2745       2744  
      2613       2614       2625       2624       2734       2735       2746       2745  
      2614       2615       2626       2625       2735       2736       2747       2746  
      2615       2616       2627       2626       2736       2737       2748       2747  
      2616       2617       2628       2627       2737       2738       2749       2748  
      2617       2618       2629       2628       2738       2739       2750       2749  
      2619       2620       2631       2630       2740       2741       2752       2751  
      2620       2621       2632       2631       2741       2742       2753       2752  
      2621       2622       2633       2632       2742       2743       2754       2753  
      2622       2623       2634       2633       2743       2744       2755       2754  
      2623       2624       2635       2634       2744       2745       2756       2755  
      2624       2625       2636       2635       2745       2746       2757       2756  
      2625       2626       2637       2636       2746       2747       2758       2757  
      2626       2627       2638       2637       2747       2748       2759       2758  
      2627       2628       2639       2638       2748       2749       2760       2759  
      2628       2629       2640       2639       2749       2750       2761       2760  
      2630       2631       2642       2641       2751       2752       2763       2762  
      2631       2632       2643       2642       2752       2753       2764       2763  
      2632       2633       2644       2643       2753       2754       2765       2764  
      2633       2634       2645       2644       2754       2755       2766       2765  
      2634       2635       2646       2645       2755       2756       2767       2766  
      2635       2636       2647       2646       2756       2757       2768       2767  
      2636       2637       2648       2647       2757       2758       2769       2768  
      2637       2638       2649       2648       2758       2759       2770       2769  
      2638       2639       2650       2649       2759       2760       2771       2770  
      2639       2640       2651       2650       2760       2761       2772       2771  
      2641       2642       2653       2652       2762       2763       2774       2773  
      2642       2643       2654       2653       2763       2764       2775       2774  
      2643       2644       2655       2654       2764       2765       2776       2775  
      2644       2645       2656       2655       2765       2766       2777       2776  
      2645       2646       2657       2656       2766       2767       2778       2777  
      2646       2647       2658       2657       2767       2768       2779       2778  
      2647       2648       2659       2658       2768       2769       2780       2779  
      2648       2649       2660       2659       2769       2770       2781       2780  
      2649       2650       2661       2660       2770       2771       2782       2781  
      2650       2651       2662       2661       2771       2772       2783       2782  
      2663       2664       2675       2674       2784       2785       2796       2795  
      2664       2665       2676       2675       2785       2786       2797       2796  
      2665       2666       2677       2676       2786       2787       2798       2797  
      2666       2667       2678       2677       2787       2788       2799       2798  
      2667       2668       2679       2678       2788       2789       2800       2799  
      2668       2669       2680       2679       2789       2790       2801       2800  
      2669       2670       2681       2680       2790       2791       2802       2801  
      2670       2671       2682       2681       2791       2792       2803       2802  
      2671       2672       2683       2682       2792       2793       2804       2803  
      2672       2673       2684       2683       2793       2794       2805       2804  
      2674       2675       2686       2685       2795       2796       2807       2806  
      2675       2676       2687       2686       2796       2797       2808       2807  
      2676       2677       2688       2687       2797       2798       2809       2808  
      2677       2678       2689       2688       2798       2799       2810       2809  
      2678       2679       2690       2689       2799       2800       2811       2810  
      2679       2680       2691       2690       2800       2801       2812       2811  
      2680       2681       2692       2691       2801       2802       2813       2812  
      2681       2682       2693       2692       2802       2803       2814       2813  
      2682       2683       2694       2693       2803       2804       2815       2814  
      2683       2684       2695       2694       2804       2805       2816       2815  
      2685       2686       2697       2696       2806       2807       2818       2817  
      2686       2687       2698       2697       2807       2808       2819       2818  
      2687       2688       2699       2698       2808       2809       2820       2819  
      2688       2689       2700       2699       2809       2810       2821       2820  
      2689       2690       2701       2700       2810       2811       2822       2821  
      2690       2691       2702       2701       2811       2812       2823       2822  
      2691       2692       2703       2702       2812       2813       2824       2823  
      2692       2693       2704       2703       2813       2814       2825       2824  
      2693       2694       2705       2704       2814       2815       2826       2825  
      2694       2695       2706       2705       2815       2816       2827       2826  
      2696       2697       2708       2707       2817       2818       2829       2828  
      2697       2698       2709       2708       2818       2819       2830       2829  
      2698       2699       2710       2709       2819       2820       2831       2830  
      2699       2700       2711       2710       2820       2821       2832       2831  
      2700       2701       2712       2711       2821       2822       2833       2832  
      2701       2702       2713       2712       2822       2823       2834       2833  
      2702       2703       2714       2713       2823       2824       2835       2834  
      2703       2704       2715       2714       2824       2825       2836       2835  
      2704       2705       2716       2715       2825       2826       2837       2836  
      2705       2706       2717       2716       2826       2827       2838       2837  
      2707       2708       2719       2718       2828       2829       2840       2839  
      2708       2709       2720       2719       2829       2830       2841       2840  
      2709       2710       2721       2720       2830       2831       2842       2841  
      2710       2711       2722       2721       2831       2832       2843       2842  
      2711       2712       2723       2722       2832       2833       2844       2843  
      2712       2713       2724       2723       2833       2834       2845       2844  
      2713       2714       2725       2724       2834       2835       2846       2845  
      2714       2715       2726       2725       2835       2836       2847       2846  
      2715       2716       2727       2726       2836       2837       2848       2847  
      2716       2717       2728       2727       2837       2838       2849       2848  
      2718       2719       2730       2729       2839       2840       2851       2850  
      2719       2720       2731       2730       2840       2841       2852       2851  
      2720       2721       2732       2731       2841       2842       2853       2852  
      2721       2722       2733       2732       2842       2843       2854       2853  
      2722       2723       2734       2733       2843       2844       2855       2854  
      2723       2724       2735       2734       2844       2845       2856       2855  
      2724       2725       2736       2735       2845       2846       2857       2856  
      2725       2726       2737       2736       2846       2847       2858       2857  
      2726       2727       2738       2737       2847       2848       2859       2858  
      2727       2728       2739       2738       2848       2849       2860       2859  
      2729       2730       2741       2740       2850       2851       2862       2861  
      2730       2731       2742       2741       2851       2852       2863       2862  
      2731       2732       2743       2742       2852       2853       2864       2863  
      2732       2733       2744       2743       2853       2854       2865       2864  
      2733       2734       2745       2744       2854       2855       2866       2865  
      2734       2735       2746       2745       2855       2856       2867       2866  
      2735       2736       2747       2746       2856       2857       2868       2867  
      2736       2737       2748       2747       2857       2858       2869       2868  
      2737       2738       2749       2748       2858       2859       2870       2869  
      2738       2739       2750       2749       2859       2860       2871       2870  
      2740       2741       2752       2751       2861       2862       2873       2872  
      2741       2742       2753       2752       2862       2863       2874       2873  
      2742       2743       2754       2753       2863       2864       2875       2874  
      2743       2744       2755       2754       2864       2865       2876       2875  
      2744       2745       2756       2755       2865       2866       2877       2876  
      2745       2746       2757       2756       2866       2867       2878       2877  
      2746       2747       2758       2757       2867       2868       2879       2878  
      2747       2748       2759       2758       2868       2869       2880       2879  
      2748       2749       2760       2759       2869       2870       2881       2880  
      2749       2750       2761       2760       2870       2871       2882       2881  
      2751       2752       2763       2762       2872       2873       2884       2883  
      2752       2753       2764       2763       2873       2874       2885       2884  
      2753       2754       2765       2764       2874       2875       2886       2885  
      2754       2755       2766       2765       2875       2876       2887       2886  
      2755       2756       2767       2766       2876       2877       2888       2887  
      2756       2757       2768       2767       2877       2878       2889       2888  
      2757       2758       2769       2768       2878       2879       2890       2889  
      2758       2759       2770       2769       2879       2880       2891       2890  
      2759       2760       2771       2770       2880       2881       2892       2891  
      2760       2761       2772       2771       2881       2882       2893       2892  
      2762       2763       2774       2773       2883       2884       2895       2894  
      2763       2764       2775       2774       2884       2885       2896       2895  
      2764       2765       2776       2775       2885       2886       2897       2896  
      2765       2766       2777       2776       2886       2887       2898       2897  
      2766       2767       2778       2777       2887       2888       2899       2898  
      2767       2768       2779       2778       2888       2889       2900       2899  
      2768       2769       2780       2779       2889       2890       2901       2900  
      2769       2770       2781       2780       2890       2891       2902       2901  
      2770       2771       2782       2781       2891       2892       2903       2902  
      2771       2772       2783       2782       2892       2893       2904       2903  
      2784       2785       2796       2795       2905       2906       2917       2916  
      2785       2786       2797       2796       2906       2907       2918       2917  
      2786       2787       2798       2797       2907       2908       2919       2918  
      2787       2788       2799       2798       2908       2909       2920       2919  
      2788       2789       2800       2799       2909       2910       2921       2920  
      2789       2790       2801       2800       2910       2911       2922       2921  
      2790       2791       2802       2801       2911       2912       2923       2922  
      2791       2792       2803       2802       2912       2913       2924       2923  
      2792       2793       2804       2803       2913       2914       2925       2924  
      2793       2794       2805       2804       2914       2915       2926       2925  
      2795       2796       2807       2806       2916       2917       2928       2927  
      2796       2797       2808       2807       2917       2918       2929       2928  
      2797       2798       2809       2808       2918       2919       2930       2929  
      2798       2799       2810       2809       2919       2920       2931       2930  
      2799       2800       2811       2810       2920       2921       2932       2931  
      2800       2801       2812       2811       2921       2922       2933       2932  
      2801       2802       2813       2812       2922       2923       2934       2933  
      2802       2803       2814       2813       2923       2924       2935       2934  
      2803       2804       2815       2814       2924       2925       2936       2935  
      2804       2805       2816       2815       2925       2926       2937       2936  
      2806       2807       2818       2817       2927       2928       2939       2938  
      2807       2808       2819       2818       2928       2929       2940       2939  
      2808       2809       2820       2819       2929       2930       2941       2940  
      2809       2810       2821       2820       2930       2931       2942       2941  
      2810       2811       2822       2821       2931       2932       2943       2942  
      2811       2812       2823       2822       2932       2933       2944       2943  
      2812       2813       2824       2823       2933       2934       2945       2944  
      2813       2814       2825       2824       2934       2935       2946       2945  
      2814       2815       2826       2825       2935       2936       2947       2946  
      2815       2816       2827       2826       2936       2937       2948       2947  
      2817       2818       2829       2828       2938       2939       2950       2949  
      2818       2819       2830       2829       2939       2940       2951       2950  
      2819       2820       2831       2830       2940       2941       2952       2951  
      2820       2821       2832       2831       2941       2942       2953       2952  
      2821       2822       2833       2832       2942       2943       2954       2953  
      2822       2823       2834       2833       2943       2944       2955       2954  
      2823       2824       2835       2834       2944       2945       2956       2955  
      2824       2825       2836       2835       2945       2946       2957       2956  
      2825       2826       2837       2836       2946       2947       2958       2957  
      2826       2827       2838       2837       2947       2948       2959       2958  
      2828       2829       2840       2839       2949       2950       2961       2960  
      2829       2830       2841       2840       2950       2951       2962       2961  
      2830       2831       2842       2841       2951       2952       2963       2962  
      2831       2832       2843       2842       2952       2953       2964       2963  
      2832       2833       2844       2843       2953       2954       2965       2964  
      2833       2834       2845       2844       2954       2955       2966       2965  
      2834       2835       2846       2845       2955       2956       2967       2966  
      2835       2836       2847       2846       2956       2957       2968       2967  
      2836       2837       2848       2847       2957       2958       2969       2968  
      2837       2838       2849       2848       2958       2959       2970       2969  
      2839       2840       2851       2850       2960       2961       2972       2971  
      2840       2841       2852       2851       2961       2962       2973       2972  
      2841       2842       2853       2852       2962       2963       2974       2973  
      2842       2843       2854       2853       2963       2964       2975       2974  
      2843       2844       2855       2854       2964       2965       2976       2975  
      2844       2845       2856       2855       2965       2966       2977       2976  
      2845       2846       2857       2856       2966       2967       2978       2977  
      2846       2847       2858       2857       2967       2968       2979       2978  
      2847       2848       2859       2858       2968       2969       2980       2979  
      2848       2849       2860       2859       2969       2970       2981       2980  
      2850       2851       2862       2861       2971       2972       2983       2982  
      2851       2852       2863       2862       2972       2973       2984       2983  
      2852       2853       2864       2863       2973       2974       2985       2984  
      2853       2854       2865       2864       2974       2975       2986       2985  
      2854       2855       2866       2865       2975       2976       2987       2986  
      2855       2856       2867       2866       2976       2977       2988       2987  
      2856       2857       2868       2867       2977       2978       2989       2988  
      2857       2858       2869       2868       2978       2979       2990       2989  
      2858       2859       2870       2869       2979       2980       2991       2990  
      2859       2860       2871       2870       2980       2981       2992       2991  
      2861       2862       2873       2872       2982       2983       2994       2993  
      2862       2863       2874       2873       2983       2984       2995       2994  
      2863       2864       2875       2874       2984       2985       2996       2995  
      2864       2865       2876       2875       2985       2986       2997       2996  
      2865       2866       2877       2876       2986       2987       2998       2997  
      2866       2867       2878       2877       2987       2988       2999       2998  
      2867       2868       2879       2878       2988       2989       3000       2999  
      2868       2869       2880       2879       2989       2990       3001       3000  
      2869       2870       2881       2880       2990       2991       3002       3001  
      2870       2871       2882       2881       2991       2992       3003       3002  
      2872       2873       2884       2883       2993       2994       3005       3004  
      2873       2874       2885       2884       2994       2995       3006       3005  
      2874       2875       2886       2885       2995       2996       3007       3006  
      2875       2876       2887       2886       2996       2997       3008       3007  
      2876       2877       2888       2887       2997       2998       3009       3008  
      2877       2878       2889       2888       2998       2999       3010       3009  
      2878       2879       2890       2889       2999       3000       3011       3010  
      2879       2880       2891       2890       3000       3001       3012       3011  
      2880       2881       2892       2891       3001       3002       3013       3012  
      2881       2882       2893       2892       3002       3003       3014       3013  
      2883       2884       2895       2894       3004       3005       3016       3015  
      2884       2885       2896       2895       3005       3006       3017       3016  
      2885       2886       2897       2896       3006       3007       3018       3017  
      2886       2887       2898       2897       3007       3008       3019       3018  
      2887       2888       2899       2898       3008       3009       3020       3019  
      2888       2889       2900       2899       3009       3010       3021       3020  
      2889       2890       2901       2900       3010       3011       3022       3021  
      2890       2891       2902       2901       3011       3012       3023       3022  
      2891       2892       2903       2902       3012       3013       3024       3023  
      2892       2893       2904       2903       3013       3014       3025       3024  
      2905       2906       2917       2916       3026       3027       3038       3037  
      2906       2907       2918       2917       3027       3028       3039       3038  
      2907       2908       2919       2918       3028       3029       3040       3039  
      2908       2909       2920       2919       3029       3030       3041       3040  
      2909       2910       2921       2920       3030       3031       3042       3041  
      2910       2911       2922       2921       3031       3032       3043       3042  
      2911       2912       2923       2922       3032       3033       3044       3043  
      2912       2913       2924       2923       3033       3034       3045       3044  
      2913       2914       2925       2924       3034       3035       3046       3045  
      2914       2915       2926       2925       3035       3036       3047       3046  
      2916       2917       2928       2927       3037       3038       3049       3048  
      2917       2918       2929       2928       3038       3039       3050       3049  
      2918       2919       2930       2929       3039       3040       3051       3050  
      2919       2920       2931       2930       3040       3041       3052       3051  
      2920       2921       2932       2931       3041       3042       3053       3052  
      2921       2922       2933       2932       3042       3043       3054       3053  
      2922       2923       2934       2933       3043       3044       3055       3054  
      2923       2924       2935       2934       3044       3045       3056       3055  
      2924       2925       2936       2935       3045       3046       3057       3056  
      2925       2926       2937       2936       3046       3047       3058       3057  
      2927       2928       2939       2938       3048       3049       3060       3059  
      2928       2929       2940       2939       3049       3050       3061       3060  
      2929       2930       2941       2940       3050       3051       3062       3061  
      2930       2931       2942       2941       3051       3052       3063       3062  
      2931       2932       2943       2942       3052       3053       3064       3063  
      2932       2933       2944       2943       3053       3054       3065       3064  
      2933       2934       2945       2944       3054       3055       3066       3065  
      2934       2935       2946       2945       3055       3056       3067       3066  
      2935       2936       2947       2946       3056       3057       3068       3067  
      2936       2937       2948       2947       3057       3058       3069       3068  
      2938       2939       2950       2949       3059       3060       3071       3070  
      2939       2940       2951       2950       3060       3061       3072       3071  
      2940       2941       2952       2951       3061       3062       3073       3072  
      2941       2942       2953       2952       3062       3063       3074       3073  
      2942       2943       2954       2953       3063       3064       3075       3074  
      2943       2944       2955       2954       3064       3065       3076       3075  
      2944       2945       2956       2955       3065       3066       3077       3076  
      2945       2946       2957       2956       3066       3067       3078       3077  
      2946       2947       2958       2957       3067       3068       3079       3078  
      2947       2948       2959       2958       3068       3069       3080       3079  
      2949       2950       2961       2960       3070       3071       3082       3081  
      2950       2951       2962       2961       3071       3072       3083       3082  
      2951       2952       2963       2962       3072       3073       3084       3083  
      2952       2953       2964       2963       3073       3074       3085       3084  
      2953       2954       2965       2964       3074       3075       3086       3085  
      2954       2955       2966       2965       3075       3076       3087       3086  
      2955       2956       2967       2966       3076       3077       3088       3087  
      2956       2957       2968       2967       3077       3078       3089       3088  
      2957       2958       2969       2968       3078       3079       3090       3089  
      2958       2959       2970       2969       3079       3080       3091       3090  
      2960       2961       2972       2971       3081       3082       3093       3092  
      2961       2962       2973       2972       3082       3083       3094       3093  
      2962       2963       2974       2973       3083       3084       3095       3094  
      2963       2964       2975       2974       3084       3085       3096       3095  
      2964       2965       2976       2975       3085       3086       3097       3096  
      2965       2966       2977       2976       3086       3087       3098       3097  
      2966       2967       2978       2977       3087       3088       3099       3098  
      2967       2968       2979       2978       3088       3089       3100       3099  
      2968       2969       2980       2979       3089       3090       3101       3100  
      2969       2970       2981       2980       3090       3091       3102       3101  
      2971       2972       2983       2982       3092       3093       3104       3103  
      2972       2973       2984       2983       3093       3094       3105       3104  
      2973       2974       2985       2984       3094       3095       3106       3105  
      2974       2975       2986       2985       3095       3096       3107       3106  
      2975       2976       2987       2986       3096       3097       3108       3107  
      2976       2977       2988       2987       3097       3098       3109       3108  
      2977       2978       2989       2988       3098       3099       3110       3109  
      2978       2979       2990       2989       3099       3100       3111       3110  
      2979       2980       2991       2990       3100       3101       3112       3111  
      2980       2981       2992       2991       3101       3102       3113       3112  
      2982       2983       2994       2993       3103       3104       3115       3114  
      2983       2984       2995       2994       3104       3105       3116       3115  
      2984       2985       2996       2995       3105       3106       3117       3116  
      2985       2986       2997       2996       3106       3107       3118       3117  
      2986       2987       2998       2997       3107       3108       3119       3118  
      2987       2988       2999       2998       3108       3109       3120       3119  
      2988       2989       3000       2999       3109       3110       3121       3120  
      2989       2990       3001       3000       3110       3111       3122       3121  
      2990       2991       3002       3001       3111       3112       3123       3122  
      2991       2992       3003       3002       3112       3113       3124       3123  
      2993       2994       3005       3004       3114       3115       3126       3125  
      2994       2995       3006       3005       3115       3116       3127       3126  
      2995       2996       3007       3006       3116       3117       3128       3127  
      2996       2997       3008       3007       3117       3118       3129       3128  
      2997       2998       3009       3008       3118       3119       3130       3129  
      2998       2999       3010       3009       3119       3120       3131       3130  
      2999       3000       3011       3010       3120       3121       3132       3131  
      3000       3001       3012       3011       3121       3122       3133       3132  
      3001       3002       3013       3012       3122       3123       3134       3133  
      3002       3003       3014       3013       3123       3124       3135       3134  
      3004       3005       3016       3015       3125       3126       3137       3136  
      3005       3006       3017       3016       3126       3127       3138       3137  
      3006       3007       3018       3017       3127       3128       3139       3138  
      3007       3008       3019       3018       3128       3129       3140       3139  
      3008       3009       3020       3019       3129       3130       3141       3140  
      3009       3010       3021       3020       3130       3131       3142       3141  
      3010       3011       3022       3021       3131       3132       3143       3142  
      3011       3012       3023       3022       3132       3133       3144       3143  
      3012       3013       3024       3023       3133       3134       3145       3144  
      3013       3014       3025       3024       3134       3135       3146       3145  
      3026       3027       3038       3037       3147       3148       3159       3158  
      3027       3028       3039       3038       3148       3149       3160       3159  
      3028       3029       3040       3039       3149       3150       3161       3160  
      3029       3030       3041       3040       3150       3151       3162       3161  
      3030       3031       3042       3041       3151       3152       3163       3162  
      3031       3032       3043       3042       3152       3153       3164       3163  
      3032       3033       3044       3043       3153       3154       3165       3164  
      3033       3034       3045       3044       3154       3155       3166       3165  
      3034       3035       3046       3045       3155       3156       3167       3166  
      3035       3036       3047       3046       3156       3157       3168       3167  
      3037       3038       3049       3048       3158       3159       3170       3169  
      3038       3039       3050       3049       3159       3160       3171       3170  
      3039       3040       3051       3050       3160       3161       3172       3171  
      3040       3041       3052       3051       3161       3162       3173       3172  
      3041       3042       3053       3052       3162       3163       3174       3173  
      3042       3043       3054       3053       3163       3164       3175       3174  
      3043       3044       3055       3054       3164       3165       3176       3175  
      3044       3045       3056       3055       3165       3166       3177       3176  
      3045       3046       3057       3056       3166       3167       3178       3177  
      3046       3047       3058       3057       3167       3168       3179       3178  
      3048       3049       3060       3059       3169       3170       3181       3180  
      3049       3050       3061       3060       3170       3171       3182       3181  
      3050       3051       3062       3061       3171       3172       3183       3182  
      3051       3052       3063       3062       3172       3173       3184       3183  
      3052       3053       3064       3063       3173       3174       3185       3184  
      3053       3054       3065       3064       3174       3175       3186       3185  
      3054       3055       3066       3065       3175       3176       3187       3186  
      3055       3056       3067       3066       3176       3177       3188       3187  
      3056       3057       3068       3067       3177       3178       3189       3188  
      3057       3058       3069       3068       3178       3179       3190       3189  
      3059       3060       3071       3070       3180       3181       3192       3191  
      3060       3061       3072       3071       3181       3182       3193       3192  
      3061       3062       3073       3072       3182       3183       3194       3193  
      3062       3063       3074       3073       3183       3184       3195       3194  
      3063       3064       3075       3074       3184       3185       3196       3195  
      3064       3065       3076       3075       3185       3186       3197       3196  
      3065       3066       3077       3076       3186       3187       3198       3197  
      3066       3067       3078       3077       3187       3188       3199       3198  
      3067       3068       3079       3078       3188       3189       3200       3199  
      3068       3069       3080       3079       3189       3190       3201       3200  
      3070       3071       3082       3081       3191       3192       3203       3202  
      3071       3072       3083       3082       3192       3193       3204       3203  
      3072       3073       3084       3083       3193       3194       3205       3204  
      3073       3074       3085       3084       3194       3195       3206       3205  
      3074       3075       3086       3085       3195       3196       3207       3206  
      3075       3076       3087       3086       3196       3197       3208       3207  
      3076       3077       3088       3087       3197       3198       3209       3208  
      3077       3078       3089       3088       3198       3199       3210       3209  
      3078       3079       3090       3089       3199       3200       3211       3210  
      3079       3080       3091       3090       3200       3201       3212       3211  
      3081       3082       3093       3092       3202       3203       3214       3213  
      3082       3083       3094       3093       3203       3204       3215       3214  
      3083       3084       3095       3094       3204       3205       3216       3215  
      3084       3085       3096       3095       3205       3206       3217       3216  
      3085       3086       3097       3096       3206       3207       3218       3217  
      3086       3087       3098       3097       3207       3208       3219       3218  
      3087       3088       3099       3098       3208       3209       3220       3219  
      3088       3089       3100       3099       3209       3210       3221       3220  
      3089       3090       3101       3100       3210       3211       3222       3221  
      3090       3091       3102       3101       3211       3212       3223       3222  
      3092       3093       3104       3103       3213       3214       3225       3224  
      3093       3094       3105       3104       3214       3215       3226       3225  
      3094       3095       3106       3105       3215       3216       3227       3226  
      3095       3096       3107       3106       3216       3217       3228       3227  
      3096       3097       3108       3107       3217       3218       3229       3228  
      3097       3098       3109       3108       3218       3219       3230       3229  
      3098       3099       3110       3109       3219       3220       3231       3230  
      3099       3100       3111       3110       3220       3221       3232       3231  
      3100       3101       3112       3111       3221       3222       3233       3232  
      3101       3102       3113       3112       3222       3223       3234       3233  
      3103       3104       3115       3114       3224       3225       3236       3235  
      3104       3105       3116       3115       3225       3226       3237       3236  
      3105       3106       3117       3116       3226       3227       3238       3237  
      3106       3107       3118       3117       3227       3228       3239       3238  
      3107       3108       3119       3118       3228       3229       3240       3239  
      3108       3109       3120       3119       3229       3230       3241       3240  
      3109       3110       3121       3120       3230       3231       3242       3241  
      3110       3111       3122       3121       3231       3232       3243       3242  
      3111       3112       3123       3122       3232       3233       3244       3243  
      3112       3113       3124       3123       3233       3234       3245       3244  
      3114       3115       3126       3125       3235       3236       3247       3246  
      3115       3116       3127       3126       3236       3237       3248       3247  
      3116       3117       3128       3127       3237       3238       3249       3248  
      3117       3118       3129       3128       3238       3239       3250       3249  
      3118       3119       3130       3129       3239       3240       3251       3250  
      3119       3120       3131       3130       3240       3241       3252       3251  
      3120       3121       3132       3131       3241       3242       3253       3252  
      3121       3122       3133       3132       3242       3243       3254       3253  
      3122       3123       3134       3133       3243       3244       3255       3254  
      3123       3124       3135       3134       3244       3245       3256       3255  
      3125       3126       3137       3136       3246       3247       3258       3257  
      3126       3127       3138       3137       3247       3248       3259       3258  
      3127       3128       3139       3138       3248       3249       3260       3259  
      3128       3129       3140       3139       3249       3250       3261       3260  
      3129       3130       3141       3140       3250       3251       3262       3261  
      3130       3131       3142       3141       3251       3252       3263       3262  
      3131       3132       3143       3142       3252       3253       3264       3263  
      3132       3133       3144       3143       3253       3254       3265       3264  
      3133       3134       3145       3144       3254       3255       3266       3265  
      3134       3135       3146       3145       3255       3256       3267       3266  
      3147       3148       3159       3158       3268       3269       3280       3279  
      3148       3149       3160       3159       3269       3270       3281       3280  
      3149       3150       3161       3160       3270       3271       3282       3281  
      3150       3151       3162       3161       3271       3272       3283       3282  
      3151       3152       3163       3162       3272       3273       3284       3283  
      3152       3153       3164       3163       3273       3274       3285       3284  
      3153       3154       3165       3164       3274       3275       3286       3285  
      3154       3155       3166       3165       3275       3276       3287       3286  
      3155       3156       3167       3166       3276       3277       3288       3287  
      3156       3157       3168       3167       3277       3278       3289       3288  
      3158       3159       3170       3169       3279       3280       3291       3290  
      3159       3160       3171       3170       3280       3281       3292       3291  
      3160       3161       3172       3171       3281       3282       3293       3292  
      3161       3162       3173       3172       3282       3283       3294       3293  
      3162       3163       3174       3173       3283       3284       3295       3294  
      3163       3164       3175       3174       3284       3285       3296       3295  
      3164       3165       3176       3175       3285       3286       3297       3296  
      3165       3166       3177       3176       3286       3287       3298       3297  
      3166       3167       3178       3177       3287       3288       3299       3298  
      3167       3168       3179       3178       3288       3289       3300       3299  
      3169       3170       3181       3180       3290       3291       3302       3301  
      3170       3171       3182       3181       3291       3292       3303       3302  
      3171       3172       3183       3182       3292       3293       3304       3303  
      3172       3173       3184       3183       3293       3294       3305       3304  
      3173       3174       3185       3184       3294       3295       3306       3305  
      3174       3175       3186       3185       3295       3296       3307       3306  
      3175       3176       3187       3186       3296       3297       3308       3307  
      3176       3177       3188       3187       3297       3298       3309       3308  
      3177       3178       3189       3188       3298       3299       3310       3309  
      3178       3179       3190       3189       3299       3300       3311       3310  
      3180       3181       3192       3191       3301       3302       3313       3312  
      3181       3182       3193       3192       3302       3303       3314       3313  
      3182       3183       3194       3193       3303       3304       3315       3314  
      3183       3184       3195       3194       3304       3305       3316       3315  
      3184       3185       3196       3195       3305       3306       3317       3316  
      3185       3186       3197       3196       3306       3307       3318       3317  
      3186       3187       3198       3197       3307       3308       3319       3318  
      3187       3188       3199       3198       3308       3309       3320       3319  
      3188       3189       3200       3199       3309       3310       3321       3320  
      3189       3190       3201       3200       3310       3311       3322       3321  
      3191       3192       3203       3202       3312       3313       3324       3323  
      3192       3193       3204       3203       3313       3314       3325       3324  
      3193       3194       3205       3204       3314       3315       3326       3325  
      3194       3195       3206       3205       3315       3316       3327       3326  
      3195       3196       3207       3206       3316       3317       3328       3327  
      3196       3197       3208       3207       3317       3318       3329       3328  
      3197       3198       3209       3208       3318       3319       3330       3329  
      3198       3199       3210       3209       3319       3320       3331       3330  
      3199       3200       3211       3210       3320       3321       3332       3331  
      3200       3201       3212       3211       3321       3322       3333       3332  
      3202       3203       3214       3213       3323       3324       3335       3334  
      3203       3204       3215       3214       3324       3325       3336       3335  
      3204       3205       3216       3215       3325       3326       3337       3336  
      3205       3206       3217       3216       3326       3327       3338       3337  
      3206       3207       3218       3217       3327       3328       3339       3338  
      3207       3208       3219       3218       3328       3329       3340       3339  
      3208       3209       3220       3219       3329       3330       3341       3340  
      3209       3210       3221       3220       3330       3331       3342       3341  
      3210       3211       3222       3221       3331       3332       3343       3342  
      3211       3212       3223       3222       3332       3333       3344       3343  
      3213       3214       3225       3224       3334       3335       3346       3345  
      3214       3215       3226       3225       3335       3336       3347       3346  
      3215       3216       3227       3226       3336       3337       3348       3347  
      3216       3217       3228       3227       3337       3338       3349       3348  
      3217       3218       3229       3228       3338       3339       3350       3349  
      3218       3219       3230       3229       3339       3340       3351       3350  
      3219       3220       3231       3230       3340       3341       3352       3351  
      3220       3221       3232       3231       3341       3342       3353       3352  
      3221       3222       3233       3232       3342       3343       3354       3353  
      3222       3223       3234       3233       3343       3344       3355       3354  
      3224       3225       3236       3235       3345       3346       3357       3356  
      3225       3226       3237       3236       3346       3347       3358       3357  
      3226       3227       3238       3237       3347       3348       3359       3358  
      3227       3228       3239       3238       3348       3349       3360       3359  
      3228       3229       3240       3239       3349       3350       3361       3360  
      3229       3230       3241       3240       3350       3351       3362       3361  
      3230       3231       3242       3241       3351       3352       3363       3362  
      3231       3232       3243       3242       3352       3353       3364       3363  
      3232       3233       3244       3243       3353       3354       3365       3364  
      3233       3234       3245       3244       3354       3355       3366       3365  
      3235       3236       3247       3246       3356       3357       3368       3367  
      3236       3237       3248       3247       3357       3358       3369       3368  
      3237       3238       3249       3248       3358       3359       3370       3369  
      3238       3239       3250       3249       3359       3360       3371       3370  
      3239       3240       3251       3250       3360       3361       3372       3371  
      3240       3241       3252       3251       3361       3362       3373       3372  
      3241       3242       3253       3252       3362       3363       3374       3373  
      3242       3243       3254       3253       3363       3364       3375       3374  
      3243       3244       3255       3254       3364       3365       3376       3375  
      3244       3245       3256       3255       3365       3366       3377       3376  
      3246       3247       3258       3257       3367       3368       3379       3378  
      3247       3248       3259       3258       3368       3369       3380       3379  
      3248       3249       3260       3259       3369       3370       3381       3380  
      3249       3250       3261       3260       3370       3371       3382       3381  
      3250       3251       3262       3261       3371       3372       3383       3382  
      3251       3252       3263       3262       3372       3373       3384       3383  
      3252       3253       3264       3263       3373       3374       3385       3384  
      3253       3254       3265       3264       3374       3375       3386       3385  
      3254       3255       3266       3265       3375       3376       3387       3386  
      3255       3256       3267       3266       3376       3377       3388       3387  
      3268       3269       3280       3279       3389       3390       3401       3400  
      3269       3270       3281       3280       3390       3391       3402       3401  
      3270       3271       3282       3281       3391       3392       3403       3402  
      3271       3272       3283       3282       3392       3393       3404       3403  
      3272       3273       3284       3283       3393       3394       3405       3404  
      3273       3274       3285       3284       3394       3395       3406       3405  
      3274       3275       3286       3285       3395       3396       3407       3406  
      3275       3276       3287       3286       3396       3397       3408       3407  
      3276       3277       3288       3287       3397       3398       3409       3408  
      3277       3278       3289       3288       3398       3399       3410       3409  
      3279       3280       3291       3290       3400       3401       3412       3411  
      3280       3281       3292       3291       3401       3402       3413       3412  
      3281       3282       3293       3292       3402       3403       3414       3413  
      3282       3283       3294       3293       3403       3404       3415       3414  
      3283       3284       3295       3294       3404       3405       3416       3415  
      3284       3285       3296       3295       3405       3406       3417       3416  
      3285       3286       3297       3296       3406       3407       3418       3417  
      3286       3287       3298       3297       3407       3408       3419       3418  
      3287       3288       3299       3298       3408       3409       3420       3419  
      3288       3289       3300       3299       3409       3410       3421       3420  
      3290       3291       3302       3301       3411       3412       3423       3422  
      3291       3292       3303       3302       3412       3413       3424       3423  
      3292       3293       3304       3303       3413       3414       3425       3424  
      3293       3294       3305       3304       3414       3415       3426       3425  
      3294       3295       3306       3305       3415       3416       3427       3426  
      3295       3296       3307       3306       3416       3417       3428       3427  
      3296       3297       3308       3307       3417       3418       3429       3428  
      3297       3298       3309       3308       3418       3419       3430       3429  
      3298       3299       3310       3309       3419       3420       3431       3430  
      3299       3300       3311       3310       3420       3421       3432       3431  
      3301       3302       3313       3312       3422       3423       3434       3433  
      3302       3303       3314       3313       3423       3424       3435       3434  
      3303       3304       3315       3314       3424       3425       3436       3435  
      3304       3305       3316       3315       3425       3426       3437       3436  
      3305       3306       3317       3316       3426       3427       3438       3437  
      3306       3307       3318       3317       3427       3428       3439       3438  
      3307       3308       3319       3318       3428       3429       3440       3439  
      3308       3309       3320       3319       3429       3430       3441       3440  
      3309       3310       3321       3320       3430       3431       3442       3441  
      3310       3311       3322       3321       3431       3432       3443       3442  
      3312       3313       3324       3323       3433       3434       3445       3444  
      3313       3314       3325       3324       3434       3435       3446       3445  
      3314       3315       3326       3325       3435       3436       3447       3446  
      3315       3316       3327       3326       3436       3437       3448       3447  
      3316       3317       3328       3327       3437       3438       3449       3448  
      3317       3318       3329       3328       3438       3439       3450       3449  
      3318       3319       3330       3329       3439       3440       3451       3450  
      3319       3320       3331       3330       3440       3441       3452       3451  
      3320       3321       3332       3331       3441       3442       3453       3452  
      3321       3322       3333       3332       3442       3443       3454       3453  
      3323       3324       3335       3334       3444       3445       3456       3455  
      3324       3325       3336       3335       3445       3446       3457       3456  
      3325       3326       3337       3336       3446       3447       3458       3457  
      3326       3327       3338       3337       3447       3448       3459       3458  
      3327       3328       3339       3338       3448       3449       3460       3459  
      3328       3329       3340       3339       3449       3450       3461       3460  
      3329       3330       3341       3340       3450       3451       3462       3461  
      3330       3331       3342       3341       3451       3452       3463       3462  
      3331       3332       3343       3342       3452       3453       3464       3463  
      3332       3333       3344       3343       3453       3454       3465       3464  
      3334       3335       3346       3345       3455       3456       3467       3466  
      3335       3336       3347       3346       3456       3457       3468       3467  
      3336       3337       3348       3347       3457       3458       3469       3468  
      3337       3338       3349       3348       3458       3459       3470       3469  
      3338       3339       3350       3349       3459       3460       3471       3470  
      3339       3340       3351       3350       3460       3461       3472       3471  
      3340       3341       3352       3351       3461       3462       3473       3472  
      3341       3342       3353       3352       3462       3463       3474       3473  
      3342       3343       3354       3353       3463       3464       3475       3474  
      3343       3344       3355       3354       3464       3465       3476       3475  
      3345       3346       3357       3356       3466       3467       3478       3477  
      3346       3347       3358       3357       3467       3468       3479       3478  
      3347       3348       3359       3358       3468       3469       3480       3479  
      3348       3349       3360       3359       3469       3470       3481       3480  
      3349       3350       3361       3360       3470       3471       3482       3481  
      3350       3351       3362       3361       3471       3472       3483       3482  
      3351       3352       3363       3362       3472       3473       3484       3483  
      3352       3353       3364       3363       3473       3474       3485       3484  
      3353       3354       3365       3364       3474       3475       3486       3485  
      3354       3355       3366       3365       3475       3476       3487       3486  
      3356       3357       3368       3367       3477       3478       3489       3488  
      3357       3358       3369       3368       3478       3479       3490       3489  
      3358       3359       3370       3369       3479       3480       3491       3490  
      3359       3360       3371       3370       3480       3481       3492       3491  
      3360       3361       3372       3371       3481       3482       3493       3492  
      3361       3362       3373       3372       3482       3483       3494       3493  
      3362       3363       3374       3373       3483       3484       3495       3494  
      3363       3364       3375       3374       3484       3485       3496       3495  
      3364       3365       3376       3375       3485       3486       3497       3496  
      3365       3366       3377       3376       3486       3487       3498       3497  
      3367       3368       3379       3378       3488       3489       3500       3499  
      3368       3369       3380       3379       3489       3490       3501       3500  
      3369       3370       3381       3380       3490       3491       3502       3501  
      3370       3371       3382       3381       3491       3492       3503       3502  
      3371       3372       3383       3382       3492       3493       3504       3503  
      3372       3373       3384       3383       3493       3494       3505       3504  
      3373       3374       3385       3384       3494       3495       3506       3505  
      3374       3375       3386       3385       3495       3496       3507       3506  
      3375       3376       3387       3386       3496       3497       3508       3507  
      3376       3377       3388       3387       3497       3498       3509       3508  
      3389       3390       3401       3400       3510       3511       3522       3521  
      3390       3391       3402       3401       3511       3512       3523       3522  
      3391       3392       3403       3402       3512       3513       3524       3523  
      3392       3393       3404       3403       3513       3514       3525       3524  
      3393       3394       3405       3404       3514       3515       3526       3525  
      3394       3395       3406       3405       3515       3516       3527       3526  
      3395       3396       3407       3406       3516       3517       3528       3527  
      3396       3397       3408       3407       3517       3518       3529       3528  
      3397       3398       3409       3408       3518       3519       3530       3529  
      3398       3399       3410       3409       3519       3520       3531       3530  
      3400       3401       3412       3411       3521       3522       3533       3532  
      3401       3402       3413       3412       3522       3523       3534       3533  
      3402       3403       3414       3413       3523       3524       3535       3534  
      3403       3404       3415       3414       3524       3525       3536       3535  
      3404       3405       3416       3415       3525       3526       3537       3536  
      3405       3406       3417       3416       3526       3527       3538       3537  
      3406       3407       3418       3417       3527       3528       3539       3538  
      3407       3408       3419       3418       3528       3529       3540       3539  
      3408       3409       3420       3419       3529       3530       3541       3540  
      3409       3410       3421       3420       3530       3531       3542       3541  
      3411       3412       3423       3422       3532       3533       3544       3543  
      3412       3413       3424       3423       3533       3534       3545       3544  
      3413       3414       3425       3424       3534       3535       3546       3545  
      3414       3415       3426       3425       3535       3536       3547       3546  
      3415       3416       3427       3426       3536       3537       3548       3547  
      3416       3417       3428       3427       3537       3538       3549       3548  
      3417       3418       3429       3428       3538       3539       3550       3549  
      3418       3419       3430       3429       3539       3540       3551       3550  
      3419       3420       3431       3430       3540       3541       3552       3551  
      3420       3421       3432       3431       3541       3542       3553       3552  
      3422       3423       3434       3433       3543       3544       3555       3554  
      3423       3424       3435       3434       3544       3545       3556       3555  
      3424       3425       3436       3435       3545       3546       3557       3556  
      3425       3426       3437       3436       3546       3547       3558       3557  
      3426       3427       3438       3437       3547       3548       3559       3558  
      3427       3428       3439       3438       3548       3549       3560       3559  
      3428       3429       3440       3439       3549       3550       3561       3560  
      3429       3430       3441       3440       3550       3551       3562       3561  
      3430       3431       3442       3441       3551       3552       3563       3562  
      3431       3432       3443       3442       3552       3553       3564       3563  
      3433       3434       3445       3444       3554       3555       3566       3565  
      3434       3435       3446       3445       3555       3556       3567       3566  
      3435       3436       3447       3446       3556       3557       3568       3567  
      3436       3437       3448       3447       3557       3558       3569       3568  
      3437       3438       3449       3448       3558       3559       3570       3569  
      3438       3439       3450       3449       3559       3560       3571       3570  
      3439       3440       3451       3450       3560       3561       3572       3571  
      3440       3441       3452       3451       3561       3562       3573       3572  
      3441       3442       3453       3452       3562       3563       3574       3573  
      3442       3443       3454       3453       3563       3564       3575       3574  
      3444       3445       3456       3455       3565       3566       3577       3576  
      3445       3446       3457       3456       3566       3567       3578       3577  
      3446       3447       3458       3457       3567       3568       3579       3578  
      3447       3448       3459       3458       3568       3569       3580       3579  
      3448       3449       3460       3459       3569       3570       3581       3580  
      3449       3450       3461       3460       3570       3571       3582       3581  
      3450       3451       3462       3461       3571       3572       3583       3582  
      3451       3452       3463       3462       3572       3573       3584       3583  
      3452       3453       3464       3463       3573       3574       3585       3584  
      3453       3454       3465       3464       3574       3575       3586       3585  
      3455       3456       3467       3466       3576       3577       3588       3587  
      3456       3457       3468       3467       3577       3578       3589       3588  
      3457       3458       3469       3468       3578       3579       3590       3589  
      3458       3459       3470       3469       3579       3580       3591       3590  
      3459       3460       3471       3470       3580       3581       3592       3591  
      3460       3461       3472       3471       3581       3582       3593       3592  
      3461       3462       3473       3472       3582       3583       3594       3593  
      3462       3463       3474       3473       3583       3584       3595       3594  
      3463       3464       3475       3474       3584       3585       3596       3595  
      3464       3465       3476       3475       3585       3586       3597       3596  
      3466       3467       3478       3477       3587       3588       3599       3598  
      3467       3468       3479       3478       3588       3589       3600       3599  
      3468       3469       3480       3479       3589       3590       3601       3600  
      3469       3470       3481       3480       3590       3591       3602       3601  
      3470       3471       3482       3481       3591       3592       3603       3602  
      3471       3472       3483       3482       3592       3593       3604       3603  
      3472       3473       3484       3483       3593       3594       3605       3604  
      3473       3474       3485       3484       3594       3595       3606       3605  
      3474       3475       3486       3485       3595       3596       3607       3606  
      3475       3476       3487       3486       3596       3597       3608       3607  
      3477       3478       3489       3488       3598       3599       3610       3609  
      3478       3479       3490       3489       3599       3600       3611       3610  
      3479       3480       3491       3490       3600       3601       3612       3611  
      3480       3481       3492       3491       3601       3602       3613       3612  
      3481       3482       3493       3492       3602       3603       3614       3613  
      3482       3483       3494       3493       3603       3604       3615       3614  
      3483       3484       3495       3494       3604       3605       3616       3615  
      3484       3485       3496       3495       3605       3606       3617       3616  
      3485       3486       3497       3496       3606       3607       3618       3617  
      3486       3487       3498       3497       3607       3608       3619       3618  
      3488       3489       3500       3499       3609       3610       3621       3620  
      3489       3490       3501       3500       3610       3611       3622       3621  
      3490       3491       3502       3501       3611       3612       3623       3622  
      3491       3492       3503       3502       3612       3613       3624       3623  
      3492       3493       3504       3503       3613       3614       3625       3624  
      3493       3494       3505       3504       3614       3615       3626       3625  
      3494       3495       3506       3505       3615       3616       3627       3626  
      3495       3496       3507       3506       3616       3617       3628       3627  
      3496       3497       3508       3507       3617       3618       3629       3628  
      3497       3498       3509       3508       3618       3619       3630       3629  
      3510       3511       3522       3521       3631       3632       3643       3642  
      3511       3512       3523       3522       3632       3633       3644       3643  
      3512       3513       3524       3523       3633       3634       3645       3644  
      3513       3514       3525       3524       3634       3635       3646       3645  
      3514       3515       3526       3525       3635       3636       3647       3646  
      3515       3516       3527       3526       3636       3637       3648       3647  
      3516       3517       3528       3527       3637       3638       3649       3648  
      3517       3518       3529       3528       3638       3639       3650       3649  
      3518       3519       3530       3529       3639       3640       3651       3650  
      3519       3520       3531       3530       3640       3641       3652       3651  
      3521       3522       3533       3532       3642       3643       3654       3653  
      3522       3523       3534       3533       3643       3644       3655       3654  
      3523       3524       3535       3534       3644       3645       3656       3655  
      3524       3525       3536       3535       3645       3646       3657       3656  
      3525       3526       3537       3536       3646       3647       3658       3657  
      3526       3527       3538       3537       3647       3648       3659       3658  
      3527       3528       3539       3538       3648       3649       3660       3659  
      3528       3529       3540       3539       3649       3650       3661       3660  
      3529       3530       3541       3540       3650       3651       3662       3661  
      3530       3531       3542       3541       3651       3652       3663       3662  
      3532       3533       3544       3543       3653       3654       3665       3664  
      3533       3534       3545       3544       3654       3655       3666       3665  
      3534       3535       3546       3545       3655       3656       3667       3666  
      3535       3536       3547       3546       3656       3657       3668       3667  
      3536       3537       3548       3547       3657       3658       3669       3668  
      3537       3538       3549       3548       3658       3659       3670       3669  
      3538       3539       3550       3549       3659       3660       3671       3670  
      3539       3540       3551       3550       3660       3661       3672       3671  
      3540       3541       3552       3551       3661       3662       3673       3672  
      3541       3542       3553       3552       3662       3663       3674       3673  
      3543       3544       3555       3554       3664       3665       3676       3675  
      3544       3545       3556       3555       3665       3666       3677       3676  
      3545       3546       3557       3556       3666       3667       3678       3677  
      3546       3547       3558       3557       3667       3668       3679       3678  
      3547       3548       3559       3558       3668       3669       3680       3679  
      3548       3549       3560       3559       3669       3670       3681       3680  
      3549       3550       3561       3560       3670       3671       3682       3681  
      3550       3551       3562       3561       3671       3672       3683       3682  
      3551       3552       3563       3562       3672       3673       3684       3683  
      3552       3553       3564       3563       3673       3674       3685       3684  
      3554       3555       3566       3565       3675       3676       3687       3686  
      3555       3556       3567       3566       3676       3677       3688       3687  
      3556       3557       3568       3567       3677       3678       3689       3688  
      3557       3558       3569       3568       3678       3679       3690       3689  
      3558       3559       3570       3569       3679       3680       3691       3690  
      3559       3560       3571       3570       3680       3681       3692       3691  
      3560       3561       3572       3571       3681       3682       3693       3692  
      3561       3562       3573       3572       3682       3683       3694       3693  
      3562       3563       3574       3573       3683       3684       3695       3694  
      3563       3564       3575       3574       3684       3685       3696       3695  
      3565       3566       3577       3576       3686       3687       3698       3697  
      3566       3567       3578       3577       3687       3688       3699       3698  
      3567       3568       3579       3578       3688       3689       3700       3699  
      3568       3569       3580       3579       3689       3690       3701       3700  
      3569       3570       3581       3580       3690       3691       3702       3701  
      3570       3571       3582       3581       3691       3692       3703       3702  
      3571       3572       3583       3582       3692       3693       3704       3703  
      3572       3573       3584       3583       3693       3694       3705       3704  
      3573       3574       3585       3584       3694       3695       3706       3705  
      3574       3575       3586       3585       3695       3696       3707       3706  
      3576       3577       3588       3587       3697       3698       3709       3708  
      3577       3578       3589       3588       3698       3699       3710       3709  
      3578       3579       3590       3589       3699       3700       3711       3710  
      3579       3580       3591       3590       3700       3701       3712       3711  
      3580       3581       3592       3591       3701       3702       3713       3712  
      3581       3582       3593       3592       3702       3703       3714       3713  
      3582       3583       3594       3593       3703       3704       3715       3714  
      3583       3584       3595       3594       3704       3705       3716       3715  
      3584       3585       3596       3595       3705       3706       3717       3716  
      3585       3586       3597       3596       3706       3707       3718       3717  
      3587       3588       3599       3598       3708       3709       3720       3719  
      3588       3589       3600       3599       3709       3710       3721       3720  
      3589       3590       3601       3600       3710       3711       3722       3721  
      3590       3591       3602       3601       3711       3712       3723       3722  
      3591       3592       3603       3602       3712       3713       3724       3723  
      3592       3593       3604       3603       3713       3714       3725       3724  
      3593       3594       3605       3604       3714       3715       3726       3725  
      3594       3595       3606       3605       3715       3716       3727       3726  
      3595       3596       3607       3606       3716       3717       3728       3727  
      3596       3597       3608       3607       3717       3718       3729       3728  
      3598       3599       3610       3609       3719       3720       3731       3730  
      3599       3600       3611       3610       3720       3721       3732       3731  
      3600       3601       3612       3611       3721       3722       3733       3732  
      3601       3602       3613       3612       3722       3723       3734       3733  
      3602       3603       3614       3613       3723       3724       3735       3734  
      3603       3604       3615       3614       3724       3725       3736       3735  
      3604       3605       3616       3615       3725       3726       3737       3736  
      3605       3606       3617       3616       3726       3727       3738       3737  
      3606       3607       3618       3617       3727       3728       3739       3738  
      3607       3608       3619       3618       3728       3729       3740       3739  
      3609       3610       3621       3620       3730       3731       3742       3741  
      3610       3611       3622       3621       3731       3732       3743       3742  
      3611       3612       3623       3622       3732       3733       3744       3743  
      3612       3613       3624       3623       3733       3734       3745       3744  
      3613       3614       3625       3624       3734       3735       3746       3745  
      3614       3615       3626       3625       3735       3736       3747       3746  
      3615       3616       3627       3626       3736       3737       3748       3747  
      3616       3617       3628       3627       3737       3738       3749       3748  
      3617       3618       3629       3628       3738       3739       3750       3749  
      3618       3619       3630       3629       3739       3740       3751       3750  
      3631       3632       3643       3642       3752       3753       3764       3763  
      3632       3633       3644       3643       3753       3754       3765       3764  
      3633       3634       3645       3644       3754       3755       3766       3765  
      3634       3635       3646       3645       3755       3756       3767       3766  
      3635       3636       3647       3646       3756       3757       3768       3767  
      3636       3637       3648       3647       3757       3758       3769       3768  
      3637       3638       3649       3648       3758       3759       3770       3769  
      3638       3639       3650       3649       3759       3760       3771       3770  
      3639       3640       3651       3650       3760       3761       3772       3771  
      3640       3641       3652       3651       3761       3762       3773       3772  
      3642       3643       3654       3653       3763       3764       3775       3774  
      3643       3644       3655       3654       3764       3765       3776       3775  
      3644       3645       3656       3655       3765       3766       3777       3776  
      3645       3646       3657       3656       3766       3767       3778       3777  
      3646       3647       3658       3657       3767       3768       3779       3778  
      3647       3648       3659       3658       3768       3769       3780       3779  
      3648       3649       3660       3659       3769       3770       3781       3780  
      3649       3650       3661       3660       3770       3771       3782       3781  
      3650       3651       3662       3661       3771       3772       3783       3782  
      3651       3652       3663       3662       3772       3773       3784       3783  
      3653       3654       3665       3664       3774       3775       3786       3785  
      3654       3655       3666       3665       3775       3776       3787       3786  
      3655       3656       3667       3666       3776       3777       3788       3787  
      3656       3657       3668       3667       3777       3778       3789       3788  
      3657       3658       3669       3668       3778       3779       3790       3789  
      3658       3659       3670       3669       3779       3780       3791       3790  
      3659       3660       3671       3670       3780       3781       3792       3791  
      3660       3661       3672       3671       3781       3782       3793       3792  
      3661       3662       3673       3672       3782       3783       3794       3793  
      3662       3663       3674       3673       3783       3784       3795       3794  
      3664       3665       3676       3675       3785       3786       3797       3796  
      3665       3666       3677       3676       3786       3787       3798       3797  
      3666       3667       3678       3677       3787       3788       3799       3798  
      3667       3668       3679       3678       3788       3789       3800       3799  
      3668       3669       3680       3679       3789       3790       3801       3800  
      3669       3670       3681       3680       3790       3791       3802       3801  
      3670       3671       3682       3681       3791       3792       3803       3802  
      3671       3672       3683       3682       3792       3793       3804       3803  
      3672       3673       3684       3683       3793       3794       3805       3804  
      3673       3674       3685       3684       3794       3795       3806       3805  
      3675       3676       3687       3686       3796       3797       3808       3807  
      3676       3677       3688       3687       3797       3798       3809       3808  
      3677       3678       3689       3688       3798       3799       3810       3809  
      3678       3679       3690       3689       3799       3800       3811       3810  
      3679       3680       3691       3690       3800       3801       3812       3811  
      3680       3681       3692       3691       3801       3802       3813       3812  
      3681       3682       3693       3692       3802       3803       3814       3813  
      3682       3683       3694       3693       3803       3804       3815       3814  
      3683       3684       3695       3694       3804       3805       3816       3815  
      3684       3685       3696       3695       3805       3806       3817       3816  
      3686       3687       3698       3697       3807       3808       3819       3818  
      3687       3688       3699       3698       3808       3809       3820       3819  
      3688       3689       3700       3699       3809       3810       3821       3820  
      3689       3690       3701       3700       3810       3811       3822       3821  
      3690       3691       3702       3701       3811       3812       3823       3822  
      3691       3692       3703       3702       3812       3813       3824       3823  
      3692       3693       3704       3703       3813       3814       3825       3824  
      3693       3694       3705       3704       3814       3815       3826       3825  
      3694       3695       3706       3705       3815       3816       3827       3826  
      3695       3696       3707       3706       3816       3817       3828       3827  
      3697       3698       3709       3708       3818       3819       3830       3829  
      3698       3699       3710       3709       3819       3820       3831       3830  
      3699       3700       3711       3710       3820       3821       3832       3831  
      3700       3701       3712       3711       3821       3822       3833       3832  
      3701       3702       3713       3712       3822       3823       3834       3833  
      3702       3703       3714       3713       3823       3824       3835       3834  
      3703       3704       3715       3714       3824       3825       3836       3835  
      3704       3705       3716       3715       3825       3826       3837       3836  
      3705       3706       3717       3716       3826       3827       3838       3837  
      3706       3707       3718       3717       3827       3828       3839       3838  
      3708       3709       3720       3719       3829       3830       3841       3840  
      3709       3710       3721       3720       3830       3831       3842       3841  
      3710       3711       3722       3721       3831       3832       3843       3842  
      3711       3712       3723       3722       3832       3833       3844       3843  
      3712       3713       3724       3723       3833       3834       3845       3844  
      3713       3714       3725       3724       3834       3835       3846       3845  
      3714       3715       3726       3725       3835       3836       3847       3846  
      3715       3716       3727       3726       3836       3837       3848       3847  
      3716       3717       3728       3727       3837       3838       3849       3848  
      3717       3718       3729       3728       3838       3839       3850       3849  
      3719       3720       3731       3730       3840       3841       3852       3851  
      3720       3721       3732       3731       3841       3842       3853       3852  
      3721       3722       3733       3732       3842       3843       3854       3853  
      3722       3723       3734       3733       3843       3844       3855       3854  
      3723       3724       3735       3734       3844       3845       3856       3855  
      3724       3725       3736       3735       3845       3846       3857       3856  
      3725       3726       3737       3736       3846       3847       3858       3857  
      3726       3727       3738       3737       3847       3848       3859       3858  
      3727       3728       3739       3738       3848       3849       3860       3859  
      3728       3729       3740       3739       3849       3850       3861       3860  
      3730       3731       3742       3741       3851       3852       3863       3862  
      3731       3732       3743       3742       3852       3853       3864       3863  
      3732       3733       3744       3743       3853       3854       3865       3864  
      3733       3734       3745       3744       3854       3855       3866       3865  
      3734       3735       3746       3745       3855       3856       3867       3866  
      3735       3736       3747       3746       3856       3857       3868       3867  
      3736       3737       3748       3747       3857       3858       3869       3868  
      3737       3738       3749       3748       3858       3859       3870       3869  
      3738       3739       3750       3749       3859       3860       3871       3870  
      3739       3740       3751       3750       3860       3861       3872       3871  
      3752       3753       3764       3763       3873       3874       3885       3884  
      3753       3754       3765       3764       3874       3875       3886       3885  
      3754       3755       3766       3765       3875       3876       3887       3886  
      3755       3756       3767       3766       3876       3877       3888       3887  
      3756       3757       3768       3767       3877       3878       3889       3888  
      3757       3758       3769       3768       3878       3879       3890       3889  
      3758       3759       3770       3769       3879       3880       3891       3890  
      3759       3760       3771       3770       3880       3881       3892       3891  
      3760       3761       3772       3771       3881       3882       3893       3892  
      3761       3762       3773       3772       3882       3883       3894       3893  
      3763       3764       3775       3774       3884       3885       3896       3895  
      3764       3765       3776       3775       3885       3886       3897       3896  
      3765       3766       3777       3776       3886       3887       3898       3897  
      3766       3767       3778       3777       3887       3888       3899       3898  
      3767       3768       3779       3778       3888       3889       3900       3899  
      3768       3769       3780       3779       3889       3890       3901       3900  
      3769       3770       3781       3780       3890       3891       3902       3901  
      3770       3771       3782       3781       3891       3892       3903       3902  
      3771       3772       3783       3782       3892       3893       3904       3903  
      3772       3773       3784       3783       3893       3894       3905       3904  
      3774       3775       3786       3785       3895       3896       3907       3906  
      3775       3776       3787       3786       3896       3897       3908       3907  
      3776       3777       3788       3787       3897       3898       3909       3908  
      3777       3778       3789       3788       3898       3899       3910       3909  
      3778       3779       3790       3789       3899       3900       3911       3910  
      3779       3780       3791       3790       3900       3901       3912       3911  
      3780       3781       3792       3791       3901       3902       3913       3912  
      3781       3782       3793       3792       3902       3903       3914       3913  
      3782       3783       3794       3793       3903       3904       3915       3914  
      3783       3784       3795       3794       3904       3905       3916       3915  
      3785       3786       3797       3796       3906       3907       3918       3917  
      3786       3787       3798       3797       3907       3908       3919       3918  
      3787       3788       3799       3798       3908       3909       3920       3919  
      3788       3789       3800       3799       3909       3910       3921       3920  
      3789       3790       3801       3800       3910       3911       3922       3921  
      3790       3791       3802       3801       3911       3912       3923       3922  
      3791       3792       3803       3802       3912       3913       3924       3923  
      3792       3793       3804       3803       3913       3914       3925       3924  
      3793       3794       3805       3804       3914       3915       3926       3925  
      3794       3795       3806       3805       3915       3916       3927       3926  
      3796       3797       3808       3807       3917       3918       3929       3928  
      3797       3798       3809       3808       3918       3919       3930       3929  
      3798       3799       3810       3809       3919       3920       3931       3930  
      3799       3800       3811       3810       3920       3921       3932       3931  
      3800       3801       3812       3811       3921       3922       3933       3932  
      3801       3802       3813       3812       3922       3923       3934       3933  
      3802       3803       3814       3813       3923       3924       3935       3934  
      3803       3804       3815       3814       3924       3925       3936       3935  
      3804       3805       3816       3815       3925       3926       3937       3936  
      3805       3806       3817       3816       3926       3927       3938       3937  
      3807       3808       3819       3818       3928       3929       3940       3939  
      3808       3809       3820       3819       3929       3930       3941       3940  
      3809       3810       3821       3820       3930       3931       3942       3941  
      3810       3811       3822       3821       3931       3932       3943       3942  
      3811       3812       3823       3822       3932       3933       3944       3943  
      3812       3813       3824       3823       3933       3934       3945       3944  
      3813       3814       3825       3824       3934       3935       3946       3945  
      3814       3815       3826       3825       3935       3936       3947       3946  
      3815       3816       3827       3826       3936       3937       3948       3947  
      3816       3817       3828       3827       3937       3938       3949       3948  
      3818       3819       3830       3829       3939       3940       3951       3950  
      3819       3820       3831       3830       3940       3941       3952       3951  
      3820       3821       3832       3831       3941       3942       3953       3952  
      3821       3822       3833       3832       3942       3943       3954       3953  
      3822       3823       3834       3833       3943       3944       3955       3954  
      3823       3824       3835       3834       3944       3945       3956       3955  
      3824       3825       3836       3835       3945       3946       3957       3956  
      3825       3826       3837       3836       3946       3947       3958       3957  
      3826       3827       3838       3837       3947       3948       3959       3958  
      3827       3828       3839       3838       3948       3949       3960       3959  
      3829       3830       3841       3840       3950       3951       3962       3961  
      3830       3831       3842       3841       3951       3952       3963       3962  
      3831       3832       3843       3842       3952       3953       3964       3963  
      3832       3833       3844       3843       3953       3954       3965       3964  
      3833       3834       3845       3844       3954       3955       3966       3965  
      3834       3835       3846       3845       3955       3956       3967       3966  
      3835       3836       3847       3846       3956       3957       3968       3967  
      3836       3837       3848       3847       3957       3958       3969       3968  
      3837       3838       3849       3848       3958       3959       3970       3969  
      3838       3839       3850       3849       3959       3960       3971       3970  
      3840       3841       3852       3851       3961       3962       3973       3972  
      3841       3842       3853       3852       3962       3963       3974       3973  
      3842       3843       3854       3853       3963       3964       3975       3974  
      3843       3844       3855       3854       3964       3965       3976       3975  
      3844       3845       3856       3855       3965       3966       3977       3976  
      3845       3846       3857       3856       3966       3967       3978       3977  
      3846       3847       3858       3857       3967       3968       3979       3978  
      3847       3848       3859       3858       3968       3969       3980       3979  
      3848       3849       3860       3859       3969       3970       3981       3980  
      3849       3850       3861       3860       3970       3971       3982       3981  
      3851       3852       3863       3862       3972       3973       3984       3983  
      3852       3853       3864       3863       3973       3974       3985       3984  
      3853       3854       3865       3864       3974       3975       3986       3985  
      3854       3855       3866       3865       3975       3976       3987       3986  
      3855       3856       3867       3866       3976       3977       3988       3987  
      3856       3857       3868       3867       3977       3978       3989       3988  
      3857       3858       3869       3868       3978       3979       3990       3989  
      3858       3859       3870       3869       3979       3980       3991       3990  
      3859       3860       3871       3870       3980       3981       3992       3991  
      3860       3861       3872       3871       3981       3982       3993       3992  
      3873       3874       3885       3884       3994       3995       4006       4005  
      3874       3875       3886       3885       3995       3996       4007       4006  
      3875       3876       3887       3886       3996       3997       4008       4007  
      3876       3877       3888       3887       3997       3998       4009       4008  
      3877       3878       3889       3888       3998       3999       4010       4009  
      3878       3879       3890       3889       3999       4000       4011       4010  
      3879       3880       3891       3890       4000       4001       4012       4011  
      3880       3881       3892       3891       4001       4002       4013       4012  
      3881       3882       3893       3892       4002       4003       4014       4013  
      3882       3883       3894       3893       4003       4004       4015       4014  
      3884       3885       3896       3895       4005       4006       4017       4016  
      3885       3886       3897       3896       4006       4007       4018       4017  
      3886       3887       3898       3897       4007       4008       4019       4018  
      3887       3888       3899       3898       4008       4009       4020       4019  
      3888       3889       3900       3899       4009       4010       4021       4020  
      3889       3890       3901       3900       4010       4011       4022       4021  
      3890       3891       3902       3901       4011       4012       4023       4022  
      3891       3892       3903       3902       4012       4013       4024       4023  
      3892       3893       3904       3903       4013       4014       4025       4024  
      3893       3894       3905       3904       4014       4015       4026       4025  
      3895       3896       3907       3906       4016       4017       4028       4027  
      3896       3897       3908       3907       4017       4018       4029       4028  
      3897       3898       3909       3908       4018       4019       4030       4029  
      3898       3899       3910       3909       4019       4020       4031       4030  
      3899       3900       3911       3910       4020       4021       4032       4031  
      3900       3901       3912       3911       4021       4022       4033       4032  
      3901       3902       3913       3912       4022       4023       4034       4033  
      3902       3903       3914       3913       4023       4024       4035       4034  
      3903       3904       3915       3914       4024       4025       4036       4035  
      3904       3905       3916       3915       4025       4026       4037       4036  
      3906       3907       3918       3917       4027       4028       4039       4038  
      3907       3908       3919       3918       4028       4029       4040       4039  
      3908       3909       3920       3919       4029       4030       4041       4040  
      3909       3910       3921       3920       4030       4031       4042       4041  
      3910       3911       3922       3921       4031       4032       4043       4042  
      3911       3912       3923       3922       4032       4033       4044       4043  
      3912       3913       3924       3923       4033       4034       4045       4044  
      3913       3914       3925       3924       4034       4035       4046       4045  
      3914       3915       3926       3925       4035       4036       4047       4046  
      3915       3916       3927       3926       4036       4037       4048       4047  
      3917       3918       3929       3928       4038       4039       4050       4049  
      3918       3919       3930       3929       4039       4040       4051       4050  
      3919       3920       3931       3930       4040       4041       4052       4051  
      3920       3921       3932       3931       4041       4042       4053       4052  
      3921       3922       3933       3932       4042       4043       4054       4053  
      3922       3923       3934       3933       4043       4044       4055       4054  
      3923       3924       3935       3934       4044       4045       4056       4055  
      3924       3925       3936       3935       4045       4046       4057       4056  
      3925       3926       3937       3936       4046       4047       4058       4057  
      3926       3927       3938       3937       4047       4048       4059       4058  
      3928       3929       3940       3939       4049       4050       4061       4060  
      3929       3930       3941       3940       4050       4051       4062       4061  
      3930       3931       3942       3941       4051       4052       4063       4062  
      3931       3932       3943       3942       4052       4053       4064       4063  
      3932       3933       3944       3943       4053       4054       4065       4064  
      3933       3934       3945       3944       4054       4055       4066       4065  
      3934       3935       3946       3945       4055       4056       4067       4066  
      3935       3936       3947       3946       4056       4057       4068       4067  
      3936       3937       3948       3947       4057       4058       4069       4068  
      3937       3938       3949       3948       4058       4059       4070       4069  
      3939       3940       3951       3950       4060       4061       4072       4071  
      3940       3941       3952       3951       4061       4062       4073       4072  
      3941       3942       3953       3952       4062       4063       4074       4073  
      3942       3943       3954       3953       4063       4064       4075       4074  
      3943       3944       3955       3954       4064       4065       4076       4075  
      3944       3945       3956       3955       4065       4066       4077       4076  
      3945       3946       3957       3956       4066       4067       4078       4077  
      3946       3947       3958       3957       4067       4068       4079       4078  
      3947       3948       3959       3958       4068       4069       4080       4079  
      3948       3949       3960       3959       4069       4070       4081       4080  
      3950       3951       3962       3961       4071       4072       4083       4082  
      3951       3952       3963       3962       4072       4073       4084       4083  
      3952       3953       3964       3963       4073       4074       4085       4084  
      3953       3954       3965       3964       4074       4075       4086       4085  
      3954       3955       3966       3965       4075       4076       4087       4086  
      3955       3956       3967       3966       4076       4077       4088       4087  
      3956       3957       3968       3967       4077       4078       4089       4088  
      3957       3958       3969       3968       4078       4079       4090       4089  
      3958       3959       3970       3969       4079       4080       4091       4090  
      3959       3960       3971       3970       4080       4081       4092       4091  
      3961       3962       3973       3972       4082       4083       4094       4093  
      3962       3963       3974       3973       4083       4084       4095       4094  
      3963       3964       3975       3974       4084       4085       4096       4095  
      3964       3965       3976       3975       4085       4086       4097       4096  
      3965       3966       3977       3976       4086       4087       4098       4097  
      3966       3967       3978       3977       4087       4088       4099       4098  
      3967       3968       3979       3978       4088       4089       4100       4099  
      3968       3969       3980       3979       4089       4090       4101       4100  
      3969       3970       3981       3980       4090       4091       4102       4101  
      3970       3971       3982       3981       4091       4092       4103       4102  
      3972       3973       3984       3983       4093       4094       4105       4104  
      3973       3974       3985       3984       4094       4095       4106       4105  
      3974       3975       3986       3985       4095       4096       4107       4106  
      3975       3976       3987       3986       4096       4097       4108       4107  
      3976       3977       3988       3987       4097       4098       4109       4108  
      3977       3978       3989       3988       4098       4099       4110       4109  
      3978       3979       3990       3989       4099       4100       4111       4110  
      3979       3980       3991       3990       4100       4101       4112       4111  
      3980       3981       3992       3991       4101       4102       4113       4112  
      3981       3982       3993       3992       4102       4103       4114       4113  
      3994       3995       4006       4005       4115       4116       4127       4126  
      3995       3996       4007       4006       4116       4117       4128       4127  
      3996       3997       4008       4007       4117       4118       4129       4128  
      3997       3998       4009       4008       4118       4119       4130       4129  
      3998       3999       4010       4009       4119       4120       4131       4130  
      3999       4000       4011       4010       4120       4121       4132       4131  
      4000       4001       4012       4011       4121       4122       4133       4132  
      4001       4002       4013       4012       4122       4123       4134       4133  
      4002       4003       4014       4013       4123       4124       4135       4134  
      4003       4004       4015       4014       4124       4125       4136       4135  
      4005       4006       4017       4016       4126       4127       4138       4137  
      4006       4007       4018       4017       4127       4128       4139       4138  
      4007       4008       4019       4018       4128       4129       4140       4139  
      4008       4009       4020       4019       4129       4130       4141       4140  
      4009       4010       4021       4020       4130       4131       4142       4141  
      4010       4011       4022       4021       4131       4132       4143       4142  
      4011       4012       4023       4022       4132       4133       4144       4143  
      4012       4013       4024       4023       4133       4134       4145       4144  
      4013       4014       4025       4024       4134       4135       4146       4145  
      4014       4015       4026       4025       4135       4136       4147       4146  
      4016       4017       4028       4027       4137       4138       4149       4148  
      4017       4018       4029       4028       4138       4139       4150       4149  
      4018       4019       4030       4029       4139       4140       4151       4150  
      4019       4020       4031       4030       4140       4141       4152       4151  
      4020       4021       4032       4031       4141       4142       4153       4152  
      4021       4022       4033       4032       4142       4143       4154       4153  
      4022       4023       4034       4033       4143       4144       4155       4154  
      4023       4024       4035       4034       4144       4145       4156       4155  
      4024       4025       4036       4035       4145       4146       4157       4156  
      4025       4026       4037       4036       4146       4147       4158       4157  
      4027       4028       4039       4038       4148       4149       4160       4159  
      4028       4029       4040       4039       4149       4150       4161       4160  
      4029       4030       4041       4040       4150       4151       4162       4161  
      4030       4031       4042       4041       4151       4152       4163       4162  
      4031       4032       4043       4042       4152       4153       4164       4163  
      4032       4033       4044       4043       4153       4154       4165       4164  
      4033       4034       4045       4044       4154       4155       4166       4165  
      4034       4035       4046       4045       4155       4156       4167       4166  
      4035       4036       4047       4046       4156       4157       4168       4167  
      4036       4037       4048       4047       4157       4158       4169       4168  
      4038       4039       4050       4049       4159       4160       4171       4170  
      4039       4040       4051       4050       4160       4161       4172       4171  
      4040       4041       4052       4051       4161       4162       4173       4172  
      4041       4042       4053       4052       4162       4163       4174       4173  
      4042       4043       4054       4053       4163       4164       4175       4174  
      4043       4044       4055       4054       4164       4165       4176       4175  
      4044       4045       4056       4055       4165       4166       4177       4176  
      4045       4046       4057       4056       4166       4167       4178       4177  
      4046       4047       4058       4057       4167       4168       4179       4178  
      4047       4048       4059       4058       4168       4169       4180       4179  
      4049       4050       4061       4060       4170       4171       4182       4181  
      4050       4051       4062       4061       4171       4172       4183       4182  
      4051       4052       4063       4062       4172       4173       4184       4183  
      4052       4053       4064       4063       4173       4174       4185       4184  
      4053       4054       4065       4064       4174       4175       4186       4185  
      4054       4055       4066       4065       4175       4176       4187       4186  
      4055       4056       4067       4066       4176       4177       4188       4187  
      4056       4057       4068       4067       4177       4178       4189       4188  
      4057       4058       4069       4068       4178       4179       4190       4189  
      4058       4059       4070       4069       4179       4180       4191       4190  
      4060       4061       4072       4071       4181       4182       4193       4192  
      4061       4062       4073       4072       4182       4183       4194       4193  
      4062       4063       4074       4073       4183       4184       4195       4194  
      4063       4064       4075       4074       4184       4185       4196       4195  
      4064       4065       4076       4075       4185       4186       4197       4196  
      4065       4066       4077       4076       4186       4187       4198       4197  
      4066       4067       4078       4077       4187       4188       4199       4198  
      4067       4068       4079       4078       4188       4189       4200       4199  
      4068       4069       4080       4079       4189       4190       4201       4200  
      4069       4070       4081       4080       4190       4191       4202       4201  
      4071       4072       4083       4082       4192       4193       4204       4203  
      4072       4073       4084       4083       4193       4194       4205       4204  
      4073       4074       4085       4084       4194       4195       4206       4205  
      4074       4075       4086       4085       4195       4196       4207       4206  
      4075       4076       4087       4086       4196       4197       4208       4207  
      4076       4077       4088       4087       4197       4198       4209       4208  
      4077       4078       4089       4088       4198       4199       4210       4209  
      4078       4079       4090       4089       4199       4200       4211       4210  
      4079       4080       4091       4090       4200       4201       4212       4211  
      4080       4081       4092       4091       4201       4202       4213       4212  
      4082       4083       4094       4093       4203       4204       4215       4214  
      4083       4084       4095       4094       4204       4205       4216       4215  
      4084       4085       4096       4095       4205       4206       4217       4216  
      4085       4086       4097       4096       4206       4207       4218       4217  
      4086       4087       4098       4097       4207       4208       4219       4218  
      4087       4088       4099       4098       4208       4209       4220       4219  
      4088       4089       4100       4099       4209       4210       4221       4220  
      4089       4090       4101       4100       4210       4211       4222       4221  
      4090       4091       4102       4101       4211       4212       4223       4222  
      4091       4092       4103       4102       4212       4213       4224       4223  
      4093       4094       4105       4104       4214       4215       4226       4225  
      4094       4095       4106       4105       4215       4216       4227       4226  
      4095       4096       4107       4106       4216       4217       4228       4227  
      4096       4097       4108       4107       4217       4218       4229       4228  
      4097       4098       4109       4108       4218       4219       4230       4229  
      4098       4099       4110       4109       4219       4220       4231       4230  
      4099       4100       4111       4110       4220       4221       4232       4231  
      4100       4101       4112       4111       4221       4222       4233       4232  
      4101       4102       4113       4112       4222       4223       4234       4233  
      4102       4103       4114       4113       4223       4224       4235       4234  
      4115       4116       4127       4126       4236       4237       4248       4247  
      4116       4117       4128       4127       4237       4238       4249       4248  
      4117       4118       4129       4128       4238       4239       4250       4249  
      4118       4119       4130       4129       4239       4240       4251       4250  
      4119       4120       4131       4130       4240       4241       4252       4251  
      4120       4121       4132       4131       4241       4242       4253       4252  
      4121       4122       4133       4132       4242       4243       4254       4253  
      4122       4123       4134       4133       4243       4244       4255       4254  
      4123       4124       4135       4134       4244       4245       4256       4255  
      4124       4125       4136       4135       4245       4246       4257       4256  
      4126       4127       4138       4137       4247       4248       4259       4258  
      4127       4128       4139       4138       4248       4249       4260       4259  
      4128       4129       4140       4139       4249       4250       4261       4260  
      4129       4130       4141       4140       4250       4251       4262       4261  
      4130       4131       4142       4141       4251       4252       4263       4262  
      4131       4132       4143       4142       4252       4253       4264       4263  
      4132       4133       4144       4143       4253       4254       4265       4264  
      4133       4134       4145       4144       4254       4255       4266       4265  
      4134       4135       4146       4145       4255       4256       4267       4266  
      4135       4136       4147       4146       4256       4257       4268       4267  
      4137       4138       4149       4148       4258       4259       4270       4269  
      4138       4139       4150       4149       4259       4260       4271       4270  
      4139       4140       4151       4150       4260       4261       4272       4271  
      4140       4141       4152       4151       4261       4262       4273       4272  
      4141       4142       4153       4152       4262       4263       4274       4273  
      4142       4143       4154       4153       4263       4264       4275       4274  
      4143       4144       4155       4154       4264       4265       4276       4275  
      4144       4145       4156       4155       4265       4266       4277       4276  
      4145       4146       4157       4156       4266       4267       4278       4277  
      4146       4147       4158       4157       4267       4268       4279       4278  
      4148       4149       4160       4159       4269       4270       4281       4280  
      4149       4150       4161       4160       4270       4271       4282       4281  
      4150       4151       4162       4161       4271       4272       4283       4282  
      4151       4152       4163       4162       4272       4273       4284       4283  
      4152       4153       4164       4163       4273       4274       4285       4284  
      4153       4154       4165       4164       4274       4275       4286       4285  
      4154       4155       4166       4165       4275       4276       4287       4286  
      4155       4156       4167       4166       4276       4277       4288       4287  
      4156       4157       4168       4167       4277       4278       4289       4288  
      4157       4158       4169       4168       4278       4279       4290       4289  
      4159       4160       4171       4170       4280       4281       4292       4291  
      4160       4161       4172       4171       4281       4282       4293       4292  
      4161       4162       4173       4172       4282       4283       4294       4293  
      4162       4163       4174       4173       4283       4284       4295       4294  
      4163       4164       4175       4174       4284       4285       4296       4295  
      4164       4165       4176       4175       4285       4286       4297       4296  
      4165       4166       4177       4176       4286       4287       4298       4297  
      4166       4167       4178       4177       4287       4288       4299       4298  
      4167       4168       4179       4178       4288       4289       4300       4299  
      4168       4169       4180       4179       4289       4290       4301       4300  
      4170       4171       4182       4181       4291       4292       4303       4302  
      4171       4172       4183       4182       4292       4293       4304       4303  
      4172       4173       4184       4183       4293       4294       4305       4304  
      4173       4174       4185       4184       4294       4295       4306       4305  
      4174       4175       4186       4185       4295       4296       4307       4306  
      4175       4176       4187       4186       4296       4297       4308       4307  
      4176       4177       4188       4187       4297       4298       4309       4308  
      4177       4178       4189       4188       4298       4299       4310       4309  
      4178       4179       4190       4189       4299       4300       4311       4310  
      4179       4180       4191       4190       4300       4301       4312       4311  
      4181       4182       4193       4192       4302       4303       4314       4313  
      4182       4183       4194       4193       4303       4304       4315       4314  
      4183       4184       4195       4194       4304       4305       4316       4315  
      4184       4185       4196       4195       4305       4306       4317       4316  
      4185       4186       4197       4196       4306       4307       4318       4317  
      4186       4187       4198       4197       4307       4308       4319       4318  
      4187       4188       4199       4198       4308       4309       4320       4319  
      4188       4189       4200       4199       4309       4310       4321       4320  
      4189       4190       4201       4200       4310       4311       4322       4321  
      4190       4191       4202       4201       4311       4312       4323       4322  
      4192       4193       4204       4203       4313       4314       4325       4324  
      4193       4194       4205       4204       4314       4315       4326       4325  
      4194       4195       4206       4205       4315       4316       4327       4326  
      4195       4196       4207       4206       4316       4317       4328       4327  
      4196       4197       4208       4207       4317       4318       4329       4328  
      4197       4198       4209       4208       4318       4319       4330       4329  
      4198       4199       4210       4209       4319       4320       4331       4330  
      4199       4200       4211       4210       4320       4321       4332       4331  
      4200       4201       4212       4211       4321       4322       4333       4332  
      4201       4202       4213       4212       4322       4323       4334       4333  
      4203       4204       4215       4214       4324       4325       4336       4335  
      4204       4205       4216       4215       4325       4326       4337       4336  
      4205       4206       4217       4216       4326       4327       4338       4337  
      4206       4207       4218       4217       4327       4328       4339       4338  
      4207       4208       4219       4218       4328       4329       4340       4339  
      4208       4209       4220       4219       4329       4330       4341       4340  
      4209       4210       4221       4220       4330       4331       4342       4341  
      4210       4211       4222       4221       4331       4332       4343       4342  
      4211       4212       4223       4222       4332       4333       4344       4343  
      4212       4213       4224       4223       4333       4334       4345       4344  
      4214       4215       4226       4225       4335       4336       4347       4346  
      4215       4216       4227       4226       4336       4337       4348       4347  
      4216       4217       4228       4227       4337       4338       4349       4348  
      4217       4218       4229       4228       4338       4339       4350       4349  
      4218       4219       4230       4229       4339       4340       4351       4350  
      4219       4220       4231       4230       4340       4341       4352       4351  
      4220       4221       4232       4231       4341       4342       4353       4352  
      4221       4222       4233       4232       4342       4343       4354       4353  
      4222       4223       4234       4233       4343       4344       4355       4354  
      4223       4224       4235       4234       4344       4345       4356       4355  
      4236       4237       4248       4247       4357       4358       4369       4368  
      4237       4238       4249       4248       4358       4359       4370       4369  
      4238       4239       4250       4249       4359       4360       4371       4370  
      4239       4240       4251       4250       4360       4361       4372       4371  
      4240       4241       4252       4251       4361       4362       4373       4372  
      4241       4242       4253       4252       4362       4363       4374       4373  
      4242       4243       4254       4253       4363       4364       4375       4374  
      4243       4244       4255       4254       4364       4365       4376       4375  
      4244       4245       4256       4255       4365       4366       4377       4376  
      4245       4246       4257       4256       4366       4367       4378       4377  
      4247       4248       4259       4258       4368       4369       4380       4379  
      4248       4249       4260       4259       4369       4370       4381       4380  
      4249       4250       4261       4260       4370       4371       4382       4381  
      4250       4251       4262       4261       4371       4372       4383       4382  
      4251       4252       4263       4262       4372       4373       4384       4383  
      4252       4253       4264       4263       4373       4374       4385       4384  
      4253       4254       4265       4264       4374       4375       4386       4385  
      4254       4255       4266       4265       4375       4376       4387       4386  
      4255       4256       4267       4266       4376       4377       4388       4387  
      4256       4257       4268       4267       4377       4378       4389       4388  
      4258       4259       4270       4269       4379       4380       4391       4390  
      4259       4260       4271       4270       4380       4381       4392       4391  
      4260       4261       4272       4271       4381       4382       4393       4392  
      4261       4262       4273       4272       4382       4383       4394       4393  
      4262       4263       4274       4273       4383       4384       4395       4394  
      4263       4264       4275       4274       4384       4385       4396       4395  
      4264       4265       4276       4275       4385       4386       4397       4396  
      4265       4266       4277       4276       4386       4387       4398       4397  
      4266       4267       4278       4277       4387       4388       4399       4398  
      4267       4268       4279       4278       4388       4389       4400       4399  
      4269       4270       4281       4280       4390       4391       4402       4401  
      4270       4271       4282       4281       4391       4392       4403       4402  
      4271       4272       4283       4282       4392       4393       4404       4403  
      4272       4273       4284       4283       4393       4394       4405       4404  
      4273       4274       4285       4284       4394       4395       4406       4405  
      4274       4275       4286       4285       4395       4396       4407       4406  
      4275       4276       4287       4286       4396       4397       4408       4407  
      4276       4277       4288       4287       4397       4398       4409       4408  
      4277       4278       4289       4288       4398       4399       4410       4409  
      4278       4279       4290       4289       4399       4400       4411       4410  
      4280       4281       4292       4291       4401       4402       4413       4412  
      4281       4282       4293       4292       4402       4403       4414       4413  
      4282       4283       4294       4293       4403       4404       4415       4414  
      4283       4284       4295       4294       4404       4405       4416       4415  
      4284       4285       4296       4295       4405       4406       4417       4416  
      4285       4286       4297       4296       4406       4407       4418       4417  
      4286       4287       4298       4297       4407       4408       4419       4418  
      4287       4288       4299       4298       4408       4409       4420       4419  
      4288       4289       4300       4299       4409       4410       4421       4420  
      4289       4290       4301       4300       4410       4411       4422       4421  
      4291       4292       4303       4302       4412       4413       4424       4423  
      4292       4293       4304       4303       4413       4414       4425       4424  
      4293       4294       4305       4304       4414       4415       4426       4425  
      4294       4295       4306       4305       4415       4416       4427       4426  
      4295       4296       4307       4306       4416       4417       4428       4427  
      4296       4297       4308       4307       4417       4418       4429       4428  
      4297       4298       4309       4308       4418       4419       4430       4429  
      4298       4299       4310       4309       4419       4420       4431       4430  
      4299       4300       4311       4310       4420       4421       4432       4431  
      4300       4301       4312       4311       4421       4422       4433       4432  
      4302       4303       4314       4313       4423       4424       4435       4434  
      4303       4304       4315       4314       4424       4425       4436       4435  
      4304       4305       4316       4315       4425       4426       4437       4436  
      4305       4306       4317       4316       4426       4427       4438       4437  
      4306       4307       4318       4317       4427       4428       4439       4438  
      4307       4308       4319       4318       4428       4429       4440       4439  
      4308       4309       4320       4319       4429       4430       4441       4440  
      4309       4310       4321       4320       4430       4431       4442       4441  
      4310       4311       4322       4321       4431       4432       4443       4442  
      4311       4312       4323       4322       4432       4433       4444       4443  
      4313       4314       4325       4324       4434       4435       4446       4445  
      4314       4315       4326       4325       4435       4436       4447       4446  
      4315       4316       4327       4326       4436       4437       4448       4447  
      4316       4317       4328       4327       4437       4438       4449       4448  
      4317       4318       4329       4328       4438       4439       4450       4449  
      4318       4319       4330       4329       4439       4440       4451       4450  
      4319       4320       4331       4330       4440       4441       4452       4451  
      4320       4321       4332       4331       4441       4442       4453       4452  
      4321       4322       4333       4332       4442       4443       4454       4453  
      4322       4323       4334       4333       4443       4444       4455       4454  
      4324       4325       4336       4335       4445       4446       4457       4456  
      4325       4326       4337       4336       4446       4447       4458       4457  
      4326       4327       4338       4337       4447       4448       4459       4458  
      4327       4328       4339       4338       4448       4449       4460       4459  
      4328       4329       4340       4339       4449       4450       4461       4460  
      4329       4330       4341       4340       4450       4451       4462       4461  
      4330       4331       4342       4341       4451       4452       4463       4462  
      4331       4332       4343       4342       4452       4453       4464       4463  
      4332       4333       4344       4343       4453       4454       4465       4464  
      4333       4334       4345       4344       4454       4455       4466       4465  
      4335       4336       4347       4346       4456       4457       4468       4467  
      4336       4337       4348       4347       4457       4458       4469       4468  
      4337       4338       4349       4348       4458       4459       4470       4469  
      4338       4339       4350       4349       4459       4460       4471       4470  
      4339       4340       4351       4350       4460       4461       4472       4471  
      4340       4341       4352       4351       4461       4462       4473       4472  
      4341       4342       4353       4352       4462       4463       4474       4473  
      4342       4343       4354       4353       4463       4464       4475       4474  
      4343       4344       4355       4354       4464       4465       4476       4475  
      4344       4345       4356       4355       4465       4466       4477       4476  
      4357       4358       4369       4368       4478       4479       4490       4489  
      4358       4359       4370       4369       4479       4480       4491       4490  
      4359       4360       4371       4370       4480       4481       4492       4491  
      4360       4361       4372       4371       4481       4482       4493       4492  
      4361       4362       4373       4372       4482       4483       4494       4493  
      4362       4363       4374       4373       4483       4484       4495       4494  
      4363       4364       4375       4374       4484       4485       4496       4495  
      4364       4365       4376       4375       4485       4486       4497       4496  
      4365       4366       4377       4376       4486       4487       4498       4497  
      4366       4367       4378       4377       4487       4488       4499       4498  
      4368       4369       4380       4379       4489       4490       4501       4500  
      4369       4370       4381       4380       4490       4491       4502       4501  
      4370       4371       4382       4381       4491       4492       4503       4502  
      4371       4372       4383       4382       4492       4493       4504       4503  
      4372       4373       4384       4383       4493       4494       4505       4504  
      4373       4374       4385       4384       4494       4495       4506       4505  
      4374       4375       4386       4385       4495       4496       4507       4506  
      4375       4376       4387       4386       4496       4497       4508       4507  
      4376       4377       4388       4387       4497       4498       4509       4508  
      4377       4378       4389       4388       4498       4499       4510       4509  
      4379       4380       4391       4390       4500       4501       4512       4511  
      4380       4381       4392       4391       4501       4502       4513       4512  
      4381       4382       4393       4392       4502       4503       4514       4513  
      4382       4383       4394       4393       4503       4504       4515       4514  
      4383       4384       4395       4394       4504       4505       4516       4515  
      4384       4385       4396       4395       4505       4506       4517       4516  
      4385       4386       4397       4396       4506       4507       4518       4517  
      4386       4387       4398       4397       4507       4508       4519       4518  
      4387       4388       4399       4398       4508       4509       4520       4519  
      4388       4389       4400       4399       4509       4510       4521       4520  
      4390       4391       4402       4401       4511       4512       4523       4522  
      4391       4392       4403       4402       4512       4513       4524       4523  
      4392       4393       4404       4403       4513       4514       4525       4524  
      4393       4394       4405       4404       4514       4515       4526       4525  
      4394       4395       4406       4405       4515       4516       4527       4526  
      4395       4396       4407       4406       4516       4517       4528       4527  
      4396       4397       4408       4407       4517       4518       4529       4528  
      4397       4398       4409       4408       4518       4519       4530       4529  
      4398       4399       4410       4409       4519       4520       4531       4530  
      4399       4400       4411       4410       4520       4521       4532       4531  
      4401       4402       4413       4412       4522       4523       4534       4533  
      4402       4403       4414       4413       4523       4524       4535       4534  
      4403       4404       4415       4414       4524       4525       4536       4535  
      4404       4405       4416       4415       4525       4526       4537       4536  
      4405       4406       4417       4416       4526       4527       4538       4537  
      4406       4407       4418       4417       4527       4528       4539       4538  
      4407       4408       4419       4418       4528       4529       4540       4539  
      4408       4409       4420       4419       4529       4530       4541       4540  
      4409       4410       4421       4420       4530       4531       4542       4541  
      4410       4411       4422       4421       4531       4532       4543       4542  
      4412       4413       4424       4423       4533       4534       4545       4544  
      4413       4414       4425       4424       4534       4535       4546       4545  
      4414       4415       4426       4425       4535       4536       4547       4546  
      4415       4416       4427       4426       4536       4537       4548       4547  
      4416       4417       4428       4427       4537       4538       4549       4548  
      4417       4418       4429       4428       4538       4539       4550       4549  
      4418       4419       4430       4429       4539       4540       4551       4550  
      4419       4420       4431       4430       4540       4541       4552       4551  
      4420       4421       4432       4431       4541       4542       4553       4552  
      4421       4422       4433       4432       4542       4543       4554       4553  
      4423       4424       4435       4434       4544       4545       4556       4555  
      4424       4425       4436       4435       4545       4546       4557       4556  
      4425       4426       4437       4436       4546       4547       4558       4557  
      4426       4427       4438       4437       4547       4548       4559       4558  
      4427       4428       4439       4438       4548       4549       4560       4559  
      4428       4429       4440       4439       4549       4550       4561       4560  
      4429       4430       4441       4440       4550       4551       4562       4561  
      4430       4431       4442       4441       4551       4552       4563       4562  
      4431       4432       4443       4442       4552       4553       4564       4563  
      4432       4433       4444       4443       4553       4554       4565       4564  
      4434       4435       4446       4445       4555       4556       4567       4566  
      4435       4436       4447       4446       4556       4557       4568       4567  
      4436       4437       4448       4447       4557       4558       4569       4568  
      4437       4438       4449       4448       4558       4559       4570       4569  
      4438       4439       4450       4449       4559       4560       4571       4570  
      4439       4440       4451       4450       4560       4561       4572       4571  
      4440       4441       4452       4451       4561       4562       4573       4572  
      4441       4442       4453       4452       4562       4563       4574       4573  
      4442       4443       4454       4453       4563       4564       4575       4574  
      4443       4444       4455       4454       4564       4565       4576       4575  
      4445       4446       4457       4456       4566       4567       4578       4577  
      4446       4447       4458       4457       4567       4568       4579       4578  
      4447       4448       4459       4458       4568       4569       4580       4579  
      4448       4449       4460       4459       4569       4570       4581       4580  
      4449       4450       4461       4460       4570       4571       4582       4581  
      4450       4451       4462       4461       4571       4572       4583       4582  
      4451       4452       4463       4462       4572       4573       4584       4583  
      4452       4453       4464       4463       4573       4574       4585       4584  
      4453       4454       4465       4464       4574       4575       4586       4585  
      4454       4455       4466       4465       4575       4576       4587       4586  
      4456       4457       4468       4467       4577       4578       4589       4588  
      4457       4458       4469       4468       4578       4579       4590       4589  
      4458       4459       4470       4469       4579       4580       4591       4590  
      4459       4460       4471       4470       4580       4581       4592       4591  
      4460       4461       4472       4471       4581       4582       4593       4592  
      4461       4462       4473       4472       4582       4583       4594       4593  
      4462       4463       4474       4473       4583       4584       4595       4594  
      4463       4464       4475       4474       4584       4585       4596       4595  
      4464       4465       4476       4475       4585       4586       4597       4596  
      4465       4466       4477       4476       4586       4587       4598       4597  
      4478       4479       4490       4489       4599       4600       4611       4610  
      4479       4480       4491       4490       4600       4601       4612       4611  
      4480       4481       4492       4491       4601       4602       4613       4612  
      4481       4482       4493       4492       4602       4603       4614       4613  
      4482       4483       4494       4493       4603       4604       4615       4614  
      4483       4484       4495       4494       4604       4605       4616       4615  
      4484       4485       4496       4495       4605       4606       4617       4616  
      4485       4486       4497       4496       4606       4607       4618       4617  
      4486       4487       4498       4497       4607       4608       4619       4618  
      4487       4488       4499       4498       4608       4609       4620       4619  
      4489       4490       4501       4500       4610       4611       4622       4621  
      4490       4491       4502       4501       4611       4612       4623       4622  
      4491       4492       4503       4502       4612       4613       4624       4623  
      4492       4493       4504       4503       4613       4614       4625       4624  
      4493       4494       4505       4504       4614       4615       4626       4625  
      4494       4495       4506       4505       4615       4616       4627       4626  
      4495       4496       4507       4506       4616       4617       4628       4627  
      4496       4497       4508       4507       4617       4618       4629       4628  
      4497       4498       4509       4508       4618       4619       4630       4629  
      4498       4499       4510       4509       4619       4620       4631       4630  
      4500       4501       4512       4511       4621       4622       4633       4632  
      4501       4502       4513       4512       4622       4623       4634       4633  
      4502       4503       4514       4513       4623       4624       4635       4634  
      4503       4504       4515       4514       4624       4625       4636       4635  
      4504       4505       4516       4515       4625       4626       4637       4636  
      4505       4506       4517       4516       4626       4627       4638       4637  
      4506       4507       4518       4517       4627       4628       4639       4638  
      4507       4508       4519       4518       4628       4629       4640       4639  
      4508       4509       4520       4519       4629       4630       4641       4640  
      4509       4510       4521       4520       4630       4631       4642       4641  
      4511       4512       4523       4522       4632       4633       4644       4643  
      4512       4513       4524       4523       4633       4634       4645       4644  
      4513       4514       4525       4524       4634       4635       4646       4645  
      4514       4515       4526       4525       4635       4636       4647       4646  
      4515       4516       4527       4526       4636       4637       4648       4647  
      4516       4517       4528       4527       4637       4638       4649       4648  
      4517       4518       4529       4528       4638       4639       4650       4649  
      4518       4519       4530       4529       4639       4640       4651       4650  
      4519       4520       4531       4530       4640       4641       4652       4651  
      4520       4521       4532       4531       4641       4642       4653       4652  
      4522       4523       4534       4533       4643       4644       4655       4654  
      4523       4524       4535       4534       4644       4645       4656       4655  
      4524       4525       4536       4535       4645       4646       4657       4656  
      4525       4526       4537       4536       4646       4647       4658       4657  
      4526       4527       4538       4537       4647       4648       4659       4658  
      4527       4528       4539       4538       4648       4649       4660       4659  
      4528       4529       4540       4539       4649       4650       4661       4660  
      4529       4530       4541       4540       4650       4651       4662       4661  
      4530       4531       4542       4541       4651       4652       4663       4662  
      4531       4532       4543       4542       4652       4653       4664       4663  
      4533       4534       4545       4544       4654       4655       4666       4665  
      4534       4535       4546       4545       4655       4656       4667       4666  
      4535       4536       4547       4546       4656       4657       4668       4667  
      4536       4537       4548       4547       4657       4658       4669       4668  
      4537       4538       4549       4548       4658       4659       4670       4669  
      4538       4539       4550       4549       4659       4660       4671       4670  
      4539       4540       4551       4550       4660       4661       4672       4671  
      4540       4541       4552       4551       4661       4662       4673       4672  
      4541       4542       4553       4552       4662       4663       4674       4673  
      4542       4543       4554       4553       4663       4664       4675       4674  
      4544       4545       4556       4555       4665       4666       4677       4676  
      4545       4546       4557       4556       4666       4667       4678       4677  
      4546       4547       4558       4557       4667       4668       4679       4678  
      4547       4548       4559       4558       4668       4669       4680       4679  
      4548       4549       4560       4559       4669       4670       4681       4680  
      4549       4550       4561       4560       4670       4671       4682       4681  
      4550       4551       4562       4561       4671       4672       4683       4682  
      4551       4552       4563       4562       4672       4673       4684       4683  
      4552       4553       4564       4563       4673       4674       4685       4684  
      4553       4554       4565       4564       4674       4675       4686       4685  
      4555       4556       4567       4566       4676       4677       4688       4687  
      4556       4557       4568       4567       4677       4678       4689       4688  
      4557       4558       4569       4568       4678       4679       4690       4689  
      4558       4559       4570       4569       4679       4680       4691       4690  
      4559       4560       4571       4570       4680       4681       4692       4691  
      4560       4561       4572       4571       4681       4682       4693       4692  
      4561       4562       4573       4572       4682       4683       4694       4693  
      4562       4563       4574       4573       4683       4684       4695       4694  
      4563       4564       4575       4574       4684       4685       4696       4695  
      4564       4565       4576       4575       4685       4686       4697       4696  
      4566       4567       4578       4577       4687       4688       4699       4698  
      4567       4568       4579       4578       4688       4689       4700       4699  
      4568       4569       4580       4579       4689       4690       4701       4700  
      4569       4570       4581       4580       4690       4691       4702       4701  
      4570       4571       4582       4581       4691       4692       4703       4702  
      4571       4572       4583       4582       4692       4693       4704       4703  
      4572       4573       4584       4583       4693       4694       4705       4704  
      4573       4574       4585       4584       4694       4695       4706       4705  
      4574       4575       4586       4585       4695       4696       4707       4706  
      4575       4576       4587       4586       4696       4697       4708       4707  
      4577       4578       4589       4588       4698       4699       4710       4709  
      4578       4579       4590       4589       4699       4700       4711       4710  
      4579       4580       4591       4590       4700       4701       4712       4711  
      4580       4581       4592       4591       4701       4702       4713       4712  
      4581       4582       4593       4592       4702       4703       4714       4713  
      4582       4583       4594       4593       4703       4704       4715       4714  
      4583       4584       4595       4594       4704       4705       4716       4715  
      4584       4585       4596       4595       4705       4706       4717       4716  
      4585       4586       4597       4596       4706       4707       4718       4717  
      4586       4587       4598       4597       4707       4708       4719       4718  
      4599       4600       4611       4610       4720       4721       4732       4731  
      4600       4601       4612       4611       4721       4722       4733       4732  
      4601       4602       4613       4612       4722       4723       4734       4733  
      4602       4603       4614       4613       4723       4724       4735       4734  
      4603       4604       4615       4614       4724       4725       4736       4735  
      4604       4605       4616       4615       4725       4726       4737       4736  
      4605       4606       4617       4616       4726       4727       4738       4737  
      4606       4607       4618       4617       4727       4728       4739       4738  
      4607       4608       4619       4618       4728       4729       4740       4739  
      4608       4609       4620       4619       4729       4730       4741       4740  
      4610       4611       4622       4621       4731       4732       4743       4742  
      4611       4612       4623       4622       4732       4733       4744       4743  
      4612       4613       4624       4623       4733       4734       4745       4744  
      4613       4614       4625       4624       4734       4735       4746       4745  
      4614       4615       4626       4625       4735       4736       4747       4746  
      4615       4616       4627       4626       4736       4737       4748       4747  
      4616       4617       4628       4627       4737       4738       4749       4748  
      4617       4618       4629       4628       4738       4739       4750       4749  
      4618       4619       4630       4629       4739       4740       4751       4750  
      4619       4620       4631       4630       4740       4741       4752       4751  
      4621       4622       4633       4632       4742       4743       4754       4753  
      4622       4623       4634       4633       4743       4744       4755       4754  
      4623       4624       4635       4634       4744       4745       4756       4755  
      4624       4625       4636       4635       4745       4746       4757       4756  
      4625       4626       4637       4636       4746       4747       4758       4757  
      4626       4627       4638       4637       4747       4748       4759       4758  
      4627       4628       4639       4638       4748       4749       4760       4759  
      4628       4629       4640       4639       4749       4750       4761       4760  
      4629       4630       4641       4640       4750       4751       4762       4761  
      4630       4631       4642       4641       4751       4752       4763       4762  
      4632       4633       4644       4643       4753       4754       4765       4764  
      4633       4634       4645       4644       4754       4755       4766       4765  
      4634       4635       4646       4645       4755       4756       4767       4766  
      4635       4636       4647       4646       4756       4757       4768       4767  
      4636       4637       4648       4647       4757       4758       4769       4768  
      4637       4638       4649       4648       4758       4759       4770       4769  
      4638       4639       4650       4649       4759       4760       4771       4770  
      4639       4640       4651       4650       4760       4761       4772       4771  
      4640       4641       4652       4651       4761       4762       4773       4772  
      4641       4642       4653       4652       4762       4763       4774       4773  
      4643       4644       4655       4654       4764       4765       4776       4775  
      4644       4645       4656       4655       4765       4766       4777       4776  
      4645       4646       4657       4656       4766       4767       4778       4777  
      4646       4647       4658       4657       4767       4768       4779       4778  
      4647       4648       4659       4658       4768       4769       4780       4779  
      4648       4649       4660       4659       4769       4770       4781       4780  
      4649       4650       4661       4660       4770       4771       4782       4781  
      4650       4651       4662       4661       4771       4772       4783       4782  
      4651       4652       4663       4662       4772       4773       4784       4783  
      4652       4653       4664       4663       4773       4774       4785       4784  
      4654       4655       4666       4665       4775       4776       4787       4786  
      4655       4656       4667       4666       4776       4777       4788       4787  
      4656       4657       4668       4667       4777       4778       4789       4788  
      4657       4658       4669       4668       4778       4779       4790       4789  
      4658       4659       4670       4669       4779       4780       4791       4790  
      4659       4660       4671       4670       4780       4781       4792       4791  
      4660       4661       4672       4671       4781       4782       4793       4792  
      4661       4662       4673       4672       4782       4783       4794       4793  
      4662       4663       4674       4673       4783       4784       4795       4794  
      4663       4664       4675       4674       4784       4785       4796       4795  
      4665       4666       4677       4676       4786       4787       4798       4797  
      4666       4667       4678       4677       4787       4788       4799       4798  
      4667       4668       4679       4678       4788       4789       4800       4799  
      4668       4669       4680       4679       4789       4790       4801       4800  
      4669       4670       4681       4680       4790       4791       4802       4801  
      4670       4671       4682       4681       4791       4792       4803       4802  
      4671       4672       4683       4682       4792       4793       4804       4803  
      4672       4673       4684       4683       4793       4794       4805       4804  
      4673       4674       4685       4684       4794       4795       4806       4805  
      4674       4675       4686       4685       4795       4796       4807       4806  
      4676       4677       4688       4687       4797       4798       4809       4808  
      4677       4678       4689       4688       4798       4799       4810       4809  
      4678       4679       4690       4689       4799       4800       4811       4810  
      4679       4680       4691       4690       4800       4801       4812       4811  
      4680       4681       4692       4691       4801       4802       4813       4812  
      4681       4682       4693       4692       4802       4803       4814       4813  
      4682       4683       4694       4693       4803       4804       4815       4814  
      4683       4684       4695       4694       4804       4805       4816       4815  
      4684       4685       4696       4695       4805       4806       4817       4816  
      4685       4686       4697       4696       4806       4807       4818       4817  
      4687       4688       4699       4698       4808       4809       4820       4819  
      4688       4689       4700       4699       4809       4810       4821       4820  
      4689       4690       4701       4700       4810       4811       4822       4821  
      4690       4691       4702       4701       4811       4812       4823       4822  
      4691       4692       4703       4702       4812       4813       4824       4823  
      4692       4693       4704       4703       4813       4814       4825       4824  
      4693       4694       4705       4704       4814       4815       4826       4825  
      4694       4695       4706       4705       4815       4816       4827       4826  
      4695       4696       4707       4706       4816       4817       4828       4827  
      4696       4697       4708       4707       4817       4818       4829       4828  
      4698       4699       4710       4709       4819       4820       4831       4830  
      4699       4700       4711       4710       4820       4821       4832       4831  
      4700       4701       4712       4711       4821       4822       4833       4832  
      4701       4702       4713       4712       4822       4823       4834       4833  
      4702       4703       4714       4713       4823       4824       4835       4834  
      4703       4704       4715       4714       4824       4825       4836       4835  
      4704       4705       4716       4715       4825       4826       4837       4836  
      4705       4706       4717       4716       4826       4827       4838       4837  
      4706       4707       4718       4717       4827       4828       4839       4838  
      4707       4708       4719       4718       4828       4829       4840       4839  
      4720       4721       4732       4731       4841       4842       4853       4852  
      4721       4722       4733       4732       4842       4843       4854       4853  
      4722       4723       4734       4733       4843       4844       4855       4854  
      4723       4724       4735       4734       4844       4845       4856       4855  
      4724       4725       4736       4735       4845       4846       4857       4856  
      4725       4726       4737       4736       4846       4847       4858       4857  
      4726       4727       4738       4737       4847       4848       4859       4858  
      4727       4728       4739       4738       4848       4849       4860       4859  
      4728       4729       4740       4739       4849       4850       4861       4860  
      4729       4730       4741       4740       4850       4851       4862       4861  
      4731       4732       4743       4742       4852       4853       4864       4863  
      4732       4733       4744       4743       4853       4854       4865       4864  
      4733       4734       4745       4744       4854       4855       4866       4865  
      4734       4735       4746       4745       4855       4856       4867       4866  
      4735       4736       4747       4746       4856       4857       4868       4867  
      4736       4737       4748       4747       4857       4858       4869       4868  
      4737       4738       4749       4748       4858       4859       4870       4869  
      4738       4739       4750       4749       4859       4860       4871       4870  
      4739       4740       4751       4750       4860       4861       4872       4871  
      4740       4741       4752       4751       4861       4862       4873       4872  
      4742       4743       4754       4753       4863       4864       4875       4874  
      4743       4744       4755       4754       4864       4865       4876       4875  
      4744       4745       4756       4755       4865       4866       4877       4876  
      4745       4746       4757       4756       4866       4867       4878       4877  
      4746       4747       4758       4757       4867       4868       4879       4878  
      4747       4748       4759       4758       4868       4869       4880       4879  
      4748       4749       4760       4759       4869       4870       4881       4880  
      4749       4750       4761       4760       4870       4871       4882       4881  
      4750       4751       4762       4761       4871       4872       4883       4882  
      4751       4752       4763       4762       4872       4873       4884       4883  
      4753       4754       4765       4764       4874       4875       4886       4885  
      4754       4755       4766       4765       4875       4876       4887       4886  
      4755       4756       4767       4766       4876       4877       4888       4887  
      4756       4757       4768       4767       4877       4878       4889       4888  
      4757       4758       4769       4768       4878       4879       4890       4889  
      4758       4759       4770       4769       4879       4880       4891       4890  
      4759       4760       4771       4770       4880       4881       4892       4891  
      4760       4761       4772       4771       4881       4882       4893       4892  
      4761       4762       4773       4772       4882       4883       4894       4893  
      4762       4763       4774       4773       4883       4884       4895       4894  
      4764       4765       4776       4775       4885       4886       4897       4896  
      4765       4766       4777       4776       4886       4887       4898       4897  
      4766       4767       4778       4777       4887       4888       4899       4898  
      4767       4768       4779       4778       4888       4889       4900       4899  
      4768       4769       4780       4779       4889       4890       4901       4900  
      4769       4770       4781       4780       4890       4891       4902       4901  
      4770       4771       4782       4781       4891       4892       4903       4902  
      4771       4772       4783       4782       4892       4893       4904       4903  
      4772       4773       4784       4783       4893       4894       4905       4904  
      4773       4774       4785       4784       4894       4895       4906       4905  
      4775       4776       4787       4786       4896       4897       4908       4907  
      4776       4777       4788       4787       4897       4898       4909       4908  
      4777       4778       4789       4788       4898       4899       4910       4909  
      4778       4779       4790       4789       4899       4900       4911       4910  
      4779       4780       4791       4790       4900       4901       4912       4911  
      4780       4781       4792       4791       4901       4902       4913       4912  
      4781       4782       4793       4792       4902       4903       4914       4913  
      4782       4783       4794       4793       4903       4904       4915       4914  
      4783       4784       4795       4794       4904       4905       4916       4915  
      4784       4785       4796       4795       4905       4906       4917       4916  
      4786       4787       4798       4797       4907       4908       4919       4918  
      4787       4788       4799       4798       4908       4909       4920       4919  
      4788       4789       4800       4799       4909       4910       4921       4920  
      4789       4790       4801       4800       4910       4911       4922       4921  
      4790       4791       4802       4801       4911       4912       4923       4922  
      4791       4792       4803       4802       4912       4913       4924       4923  
      4792       4793       4804       4803       4913       4914       4925       4924  
      4793       4794       4805       4804       4914       4915       4926       4925  
      4794       4795       4806       4805       4915       4916       4927       4926  
      4795       4796       4807       4806       4916       4917       4928       4927  
      4797       4798       4809       4808       4918       4919       4930       4929  
      4798       4799       4810       4809       4919       4920       4931       4930  
      4799       4800       4811       4810       4920       4921       4932       4931  
      4800       4801       4812       4811       4921       4922       4933       4932  
      4801       4802       4813       4812       4922       4923       4934       4933  
      4802       4803       4814       4813       4923       4924       4935       4934  
      4803       4804       4815       4814       4924       4925       4936       4935  
      4804       4805       4816       4815       4925       4926       4937       4936  
      4805       4806       4817       4816       4926       4927       4938       4937  
      4806       4807       4818       4817       4927       4928       4939       4938  
      4808       4809       4820       4819       4929       4930       4941       4940  
      4809       4810       4821       4820       4930       4931       4942       4941  
      4810       4811       4822       4821       4931       4932       4943       4942  
      4811       4812       4823       4822       4932       4933       4944       4943  
      4812       4813       4824       4823       4933       4934       4945       4944  
      4813       4814       4825       4824       4934       4935       4946       4945  
      4814       4815       4826       4825       4935       4936       4947       4946  
      4815       4816       4827       4826       4936       4937       4948       4947  
      4816       4817       4828       4827       4937       4938       4949       4948  
      4817       4818       4829       4828       4938       4939       4950       4949  
      4819       4820       4831       4830       4940       4941       4952       4951  
      4820       4821       4832       4831       4941       4942       4953       4952  
      4821       4822       4833       4832       4942       4943       4954       4953  
      4822       4823       4834       4833       4943       4944       4955       4954  
      4823       4824       4835       4834       4944       4945       4956       4955  
      4824       4825       4836       4835       4945       4946       4957       4956  
      4825       4826       4837       4836       4946       4947       4958       4957  
      4826       4827       4838       4837       4947       4948       4959       4958  
      4827       4828       4839       4838       4948       4949       4960       4959  
      4828       4829       4840       4839       4949       4950       4961       4960  
      4841       4842       4853       4852       4962       4963       4974       4973  
      4842       4843       4854       4853       4963       4964       4975       4974  
      4843       4844       4855       4854       4964       4965       4976       4975  
      4844       4845       4856       4855       4965       4966       4977       4976  
      4845       4846       4857       4856       4966       4967       4978       4977  
      4846       4847       4858       4857       4967       4968       4979       4978  
      4847       4848       4859       4858       4968       4969       4980       4979  
      4848       4849       4860       4859       4969       4970       4981       4980  
      4849       4850       4861       4860       4970       4971       4982       4981  
      4850       4851       4862       4861       4971       4972       4983       4982  
      4852       4853       4864       4863       4973       4974       4985       4984  
      4853       4854       4865       4864       4974       4975       4986       4985  
      4854       4855       4866       4865       4975       4976       4987       4986  
      4855       4856       4867       4866       4976       4977       4988       4987  
      4856       4857       4868       4867       4977       4978       4989       4988  
      4857       4858       4869       4868       4978       4979       4990       4989  
      4858       4859       4870       4869       4979       4980       4991       4990  
      4859       4860       4871       4870       4980       4981       4992       4991  
      4860       4861       4872       4871       4981       4982       4993       4992  
      4861       4862       4873       4872       4982       4983       4994       4993  
      4863       4864       4875       4874       4984       4985       4996       4995  
      4864       4865       4876       4875       4985       4986       4997       4996  
      4865       4866       4877       4876       4986       4987       4998       4997  
      4866       4867       4878       4877       4987       4988       4999       4998  
      4867       4868       4879       4878       4988       4989       5000       4999  
      4868       4869       4880       4879       4989       4990       5001       5000  
      4869       4870       4881       4880       4990       4991       5002       5001  
      4870       4871       4882       4881       4991       4992       5003       5002  
      4871       4872       4883       4882       4992       4993       5004       5003  
      4872       4873       4884       4883       4993       4994       5005       5004  
      4874       4875       4886       4885       4995       4996       5007       5006  
      4875       4876       4887       4886       4996       4997       5008       5007  
      4876       4877       4888       4887       4997       4998       5009       5008  
      4877       4878       4889       4888       4998       4999       5010       5009  
      4878       4879       4890       4889       4999       5000       5011       5010  
      4879       4880       4891       4890       5000       5001       5012       5011  
      4880       4881       4892       4891       5001       5002       5013       5012  
      4881       4882       4893       4892       5002       5003       5014       5013  
      4882       4883       4894       4893       5003       5004       5015       5014  
      4883       4884       4895       4894       5004       5005       5016       5015  
      4885       4886       4897       4896       5006       5007       5018       5017  
      4886       4887       4898       4897       5007       5008       5019       5018  
      4887       4888       4899       4898       5008       5009       5020       5019  
      4888       4889       4900       4899       5009       5010       5021       5020  
      4889       4890       4901       4900       5010       5011       5022       5021  
      4890       4891       4902       4901       5011       5012       5023       5022  
      4891       4892       4903       4902       5012       5013       5024       5023  
      4892       4893       4904       4903       5013       5014       5025       5024  
      4893       4894       4905       4904       5014       5015       5026       5025  
      4894       4895       4906       4905       5015       5016       5027       5026  
      4896       4897       4908       4907       5017       5018       5029       5028  
      4897       4898       4909       4908       5018       5019       5030       5029  
      4898       4899       4910       4909       5019       5020       5031       5030  
      4899       4900       4911       4910       5020       5021       5032       5031  
      4900       4901       4912       4911       5021       5022       5033       5032  
      4901       4902       4913       4912       5022       5023       5034       5033  
      4902       4903       4914       4913       5023       5024       5035       5034  
      4903       4904       4915       4914       5024       5025       5036       5035  
      4904       4905       4916       4915       5025       5026       5037       5036  
      4905       4906       4917       4916       5026       5027       5038       5037  
      4907       4908       4919       4918       5028       5029       5040       5039  
      4908       4909       4920       4919       5029       5030       5041       5040  
      4909       4910       4921       4920       5030       5031       5042       5041  
      4910       4911       4922       4921       5031       5032       5043       5042  
      4911       4912       4923       4922       5032       5033       5044       5043  
      4912       4913       4924       4923       5033       5034       5045       5044  
      4913       4914       4925       4924       5034       5035       5046       5045  
      4914       4915       4926       4925       5035       5036       5047       5046  
      4915       4916       4927       4926       5036       5037       5048       5047  
      4916       4917       4928       4927       5037       5038       5049       5048  
      4918       4919       4930       4929       5039       5040       5051       5050  
      4919       4920       4931       4930       5040       5041       5052       5051  
      4920       4921       4932       4931       5041       5042       5053       5052  
      4921       4922       4933       4932       5042       5043       5054       5053  
      4922       4923       4934       4933       5043       5044       5055       5054  
      4923       4924       4935       4934       5044       5045       5056       5055  
      4924       4925       4936       4935       5045       5046       5057       5056  
      4925       4926       4937       4936       5046       5047       5058       5057  
      4926       4927       4938       4937       5047       5048       5059       5058  
      4927       4928       4939       4938       5048       5049       5060       5059  
      4929       4930       4941       4940       5050       5051       5062       5061  
      4930       4931       4942       4941       5051       5052       5063       5062  
      4931       4932       4943       4942       5052       5053       5064       5063  
      4932       4933       4944       4943       5053       5054       5065       5064  
      4933       4934       4945       4944       5054       5055       5066       5065  
      4934       4935       4946       4945       5055       5056       5067       5066  
      4935       4936       4947       4946       5056       5057       5068       5067  
      4936       4937       4948       4947       5057       5058       5069       5068  
      4937       4938       4949       4948       5058       5059       5070       5069  
      4938       4939       4950       4949       5059       5060       5071       5070  
      4940       4941       4952       4951       5061       5062       5073       5072  
      4941       4942       4953       4952       5062       5063       5074       5073  
      4942       4943       4954       4953       5063       5064       5075       5074  
      4943       4944       4955       4954       5064       5065       5076       5075  
      4944       4945       4956       4955       5065       5066       5077       5076  
      4945       4946       4957       4956       5066       5067       5078       5077  
      4946       4947       4958       4957       5067       5068       5079       5078  
      4947       4948       4959       4958       5068       5069       5080       5079  
      4948       4949       4960       4959       5069       5070       5081       5080  
      4949       4950       4961       4960       5070       5071       5082       5081  
      4962       4963       4974       4973       5083       5084       5095       5094  
      4963       4964       4975       4974       5084       5085       5096       5095  
      4964       4965       4976       4975       5085       5086       5097       5096  
      4965       4966       4977       4976       5086       5087       5098       5097  
      4966       4967       4978       4977       5087       5088       5099       5098  
      4967       4968       4979       4978       5088       5089       5100       5099  
      4968       4969       4980       4979       5089       5090       5101       5100  
      4969       4970       4981       4980       5090       5091       5102       5101  
      4970       4971       4982       4981       5091       5092       5103       5102  
      4971       4972       4983       4982       5092       5093       5104       5103  
      4973       4974       4985       4984       5094       5095       5106       5105  
      4974       4975       4986       4985       5095       5096       5107       5106  
      4975       4976       4987       4986       5096       5097       5108       5107  
      4976       4977       4988       4987       5097       5098       5109       5108  
      4977       4978       4989       4988       5098       5099       5110       5109  
      4978       4979       4990       4989       5099       5100       5111       5110  
      4979       4980       4991       4990       5100       5101       5112       5111  
      4980       4981       4992       4991       5101       5102       5113       5112  
      4981       4982       4993       4992       5102       5103       5114       5113  
      4982       4983       4994       4993       5103       5104       5115       5114  
      4984       4985       4996       4995       5105       5106       5117       5116  
      4985       4986       4997       4996       5106       5107       5118       5117  
      4986       4987       4998       4997       5107       5108       5119       5118  
      4987       4988       4999       4998       5108       5109       5120       5119  
      4988       4989       5000       4999       5109       5110       5121       5120  
      4989       4990       5001       5000       5110       5111       5122       5121  
      4990       4991       5002       5001       5111       5112       5123       5122  
      4991       4992       5003       5002       5112       5113       5124       5123  
      4992       4993       5004       5003       5113       5114       5125       5124  
      4993       4994       5005       5004       5114       5115       5126       5125  
      4995       4996       5007       5006       5116       5117       5128       5127  
      4996       4997       5008       5007       5117       5118       5129       5128  
      4997       4998       5009       5008       5118       5119       5130       5129  
      4998       4999       5010       5009       5119       5120       5131       5130  
      4999       5000       5011       5010       5120       5121       5132       5131  
      5000       5001       5012       5011       5121       5122       5133       5132  
      5001       5002       5013       5012       5122       5123       5134       5133  
      5002       5003       5014       5013       5123       5124       5135       5134  
      5003       5004       5015       5014       5124       5125       5136       5135  
      5004       5005       5016       5015       5125       5126       5137       5136  
      5006       5007       5018       5017       5127       5128       5139       5138  
      5007       5008       5019       5018       5128       5129       5140       5139  
      5008       5009       5020       5019       5129       5130       5141       5140  
      5009       5010       5021       5020       5130       5131       5142       5141  
      5010       5011       5022       5021       5131       5132       5143       5142  
      5011       5012       5023       5022       5132       5133       5144       5143  
      5012       5013       5024       5023       5133       5134       5145       5144  
      5013       5014       5025       5024       5134       5135       5146       5145  
      5014       5015       5026       5025       5135       5136       5147       5146  
      5015       5016       5027       5026       5136       5137       5148       5147  
      5017       5018       5029       5028       5138       5139       5150       5149  
      5018       5019       5030       5029       5139       5140       5151       5150  
      5019       5020       5031       5030       5140       5141       5152       5151  
      5020       5021       5032       5031       5141       5142       5153       5152  
      5021       5022       5033       5032       5142       5143       5154       5153  
      5022       5023       5034       5033       5143       5144       5155       5154  
      5023       5024       5035       5034       5144       5145       5156       5155  
      5024       5025       5036       5035       5145       5146       5157       5156  
      5025       5026       5037       5036       5146       5147       5158       5157  
      5026       5027       5038       5037       5147       5148       5159       5158  
      5028       5029       5040       5039       5149       5150       5161       5160  
      5029       5030       5041       5040       5150       5151       5162       5161  
      5030       5031       5042       5041       5151       5152       5163       5162  
      5031       5032       5043       5042       5152       5153       5164       5163  
      5032       5033       5044       5043       5153       5154       5165       5164  
      5033       5034       5045       5044       5154       5155       5166       5165  
      5034       5035       5046       5045       5155       5156       5167       5166  
      5035       5036       5047       5046       5156       5157       5168       5167  
      5036       5037       5048       5047       5157       5158       5169       5168  
      5037       5038       5049       5048       5158       5159       5170       5169  
      5039       5040       5051       5050       5160       5161       5172       5171  
      5040       5041       5052       5051       5161       5162       5173       5172  
      5041       5042       5053       5052       5162       5163       5174       5173  
      5042       5043       5054       5053       5163       5164       5175       5174  
      5043       5044       5055       5054       5164       5165       5176       5175  
      5044       5045       5056       5055       5165       5166       5177       5176  
      5045       5046       5057       5056       5166       5167       5178       5177  
      5046       5047       5058       5057       5167       5168       5179       5178  
      5047       5048       5059       5058       5168       5169       5180       5179  
      5048       5049       5060       5059       5169       5170       5181       5180  
      5050       5051       5062       5061       5171       5172       5183       5182  
      5051       5052       5063       5062       5172       5173       5184       5183  
      5052       5053       5064       5063       5173       5174       5185       5184  
      5053       5054       5065       5064       5174       5175       5186       5185  
      5054       5055       5066       5065       5175       5176       5187       5186  
      5055       5056       5067       5066       5176       5177       5188       5187  
      5056       5057       5068       5067       5177       5178       5189       5188  
      5057       5058       5069       5068       5178       5179       5190       5189  
      5058       5059       5070       5069       5179       5180       5191       5190  
      5059       5060       5071       5070       5180       5181       5192       5191  
      5061       5062       5073       5072       5182       5183       5194       5193  
      5062       5063       5074       5073       5183       5184       5195       5194  
      5063       5064       5075       5074       5184       5185       5196       5195  
      5064       5065       5076       5075       5185       5186       5197       5196  
      5065       5066       5077       5076       5186       5187       5198       5197  
      5066       5067       5078       5077       5187       5188       5199       5198  
      5067       5068       5079       5078       5188       5189       5200       5199  
      5068       5069       5080       5079       5189       5190       5201       5200  
      5069       5070       5081       5080       5190       5191       5202       5201  
      5070       5071       5082       5081       5191       5192       5203       5202  
      5083       5084       5095       5094       5204       5205       5216       5215  
      5084       5085       5096       5095       5205       5206       5217       5216  
      5085       5086       5097       5096       5206       5207       5218       5217  
      5086       5087       5098       5097       5207       5208       5219       5218  
      5087       5088       5099       5098       5208       5209       5220       5219  
      5088       5089       5100       5099       5209       5210       5221       5220  
      5089       5090       5101       5100       5210       5211       5222       5221  
      5090       5091       5102       5101       5211       5212       5223       5222  
      5091       5092       5103       5102       5212       5213       5224       5223  
      5092       5093       5104       5103       5213       5214       5225       5224  
      5094       5095       5106       5105       5215       5216       5227       5226  
      5095       5096       5107       5106       5216       5217       5228       5227  
      5096       5097       5108       5107       5217       5218       5229       5228  
      5097       5098       5109       5108       5218       5219       5230       5229  
      5098       5099       5110       5109       5219       5220       5231       5230  
      5099       5100       5111       5110       5220       5221       5232       5231  
      5100       5101       5112       5111       5221       5222       5233       5232  
      5101       5102       5113       5112       5222       5223       5234       5233  
      5102       5103       5114       5113       5223       5224       5235       5234  
      5103       5104       5115       5114       5224       5225       5236       5235  
      5105       5106       5117       5116       5226       5227       5238       5237  
      5106       5107       5118       5117       5227       5228       5239       5238  
      5107       5108       5119       5118       5228       5229       5240       5239  
      5108       5109       5120       5119       5229       5230       5241       5240  
      5109       5110       5121       5120       5230       5231       5242       5241  
      5110       5111       5122       5121       5231       5232       5243       5242  
      5111       5112       5123       5122       5232       5233       5244       5243  
      5112       5113       5124       5123       5233       5234       5245       5244  
      5113       5114       5125       5124       5234       5235       5246       5245  
      5114       5115       5126       5125       5235       5236       5247       5246  
      5116       5117       5128       5127       5237       5238       5249       5248  
      5117       5118       5129       5128       5238       5239       5250       5249  
      5118       5119       5130       5129       5239       5240       5251       5250  
      5119       5120       5131       5130       5240       5241       5252       5251  
      5120       5121       5132       5131       5241       5242       5253       5252  
      5121       5122       5133       5132       5242       5243       5254       5253  
      5122       5123       5134       5133       5243       5244       5255       5254  
      5123       5124       5135       5134       5244       5245       5256       5255  
      5124       5125       5136       5135       5245       5246       5257       5256  
      5125       5126       5137       5136       5246       5247       5258       5257  
      5127       5128       5139       5138       5248       5249       5260       5259  
      5128       5129       5140       5139       5249       5250       5261       5260  
      5129       5130       5141       5140       5250       5251       5262       5261  
      5130       5131       5142       5141       5251       5252       5263       5262  
      5131       5132       5143       5142       5252       5253       5264       5263  
      5132       5133       5144       5143       5253       5254       5265       5264  
      5133       5134       5145       5144       5254       5255       5266       5265  
      5134       5135       5146       5145       5255       5256       5267       5266  
      5135       5136       5147       5146       5256       5257       5268       5267  
      5136       5137       5148       5147       5257       5258       5269       5268  
      5138       5139       5150       5149       5259       5260       5271       5270  
      5139       5140       5151       5150       5260       5261       5272       5271  
      5140       5141       5152       5151       5261       5262       5273       5272  
      5141       5142       5153       5152       5262       5263       5274       5273  
      5142       5143       5154       5153       5263       5264       5275       5274  
      5143       5144       5155       5154       5264       5265       5276       5275  
      5144       5145       5156       5155       5265       5266       5277       5276  
      5145       5146       5157       5156       5266       5267       5278       5277  
      5146       5147       5158       5157       5267       5268       5279       5278  
      5147       5148       5159       5158       5268       5269       5280       5279  
      5149       5150       5161       5160       5270       5271       5282       5281  
      5150       5151       5162       5161       5271       5272       5283       5282  
      5151       5152       5163       5162       5272       5273       5284       5283  
      5152       5153       5164       5163       5273       5274       5285       5284  
      5153       5154       5165       5164       5274       5275       5286       5285  
      5154       5155       5166       5165       5275       5276       5287       5286  
      5155       5156       5167       5166       5276       5277       5288       5287  
      5156       5157       5168       5167       5277       5278       5289       5288  
      5157       5158       5169       5168       5278       5279       5290       5289  
      5158       5159       5170       5169       5279       5280       5291       5290  
      5160       5161       5172       5171       5281       5282       5293       5292  
      5161       5162       5173       5172       5282       5283       5294       5293  
      5162       5163       5174       5173       5283       5284       5295       5294  
      5163       5164       5175       5174       5284       5285       5296       5295  
      5164       5165       5176       5175       5285       5286       5297       5296  
      5165       5166       5177       5176       5286       5287       5298       5297  
      5166       5167       5178       5177       5287       5288       5299       5298  
      5167       5168       5179       5178       5288       5289       5300       5299  
      5168       5169       5180       5179       5289       5290       5301       5300  
      5169       5170       5181       5180       5290       5291       5302       5301  
      5171       5172       5183       5182       5292       5293       5304       5303  
      5172       5173       5184       5183       5293       5294       5305       5304  
      5173       5174       5185       5184       5294       5295       5306       5305  
      5174       5175       5186       5185       5295       5296       5307       5306  
      5175       5176       5187       5186       5296       5297       5308       5307  
      5176       5177       5188       5187       5297       5298       5309       5308  
      5177       5178       5189       5188       5298       5299       5310       5309  
      5178       5179       5190       5189       5299       5300       5311       5310  
      5179       5180       5191       5190       5300       5301       5312       5311  
      5180       5181       5192       5191       5301       5302       5313       5312  
      5182       5183       5194       5193       5303       5304       5315       5314  
      5183       5184       5195       5194       5304       5305       5316       5315  
      5184       5185       5196       5195       5305       5306       5317       5316  
      5185       5186       5197       5196       5306       5307       5318       5317  
      5186       5187       5198       5197       5307       5308       5319       5318  
      5187       5188       5199       5198       5308       5309       5320       5319  
      5188       5189       5200       5199       5309       5310       5321       5320  
      5189       5190       5201       5200       5310       5311       5322       5321  
      5190       5191       5202       5201       5311       5312       5323       5322  
      5191       5192       5203       5202       5312       5313       5324       5323  
      5204       5205       5216       5215       5325       5326       5337       5336  
      5205       5206       5217       5216       5326       5327       5338       5337  
      5206       5207       5218       5217       5327       5328       5339       5338  
      5207       5208       5219       5218       5328       5329       5340       5339  
      5208       5209       5220       5219       5329       5330       5341       5340  
      5209       5210       5221       5220       5330       5331       5342       5341  
      5210       5211       5222       5221       5331       5332       5343       5342  
      5211       5212       5223       5222       5332       5333       5344       5343  
      5212       5213       5224       5223       5333       5334       5345       5344  
      5213       5214       5225       5224       5334       5335       5346       5345  
      5215       5216       5227       5226       5336       5337       5348       5347  
      5216       5217       5228       5227       5337       5338       5349       5348  
      5217       5218       5229       5228       5338       5339       5350       5349  
      5218       5219       5230       5229       5339       5340       5351       5350  
      5219       5220       5231       5230       5340       5341       5352       5351  
      5220       5221       5232       5231       5341       5342       5353       5352  
      5221       5222       5233       5232       5342       5343       5354       5353  
      5222       5223       5234       5233       5343       5344       5355       5354  
      5223       5224       5235       5234       5344       5345       5356       5355  
      5224       5225       5236       5235       5345       5346       5357       5356  
      5226       5227       5238       5237       5347       5348       5359       5358  
      5227       5228       5239       5238       5348       5349       5360       5359  
      5228       5229       5240       5239       5349       5350       5361       5360  
      5229       5230       5241       5240       5350       5351       5362       5361  
      5230       5231       5242       5241       5351       5352       5363       5362  
      5231       5232       5243       5242       5352       5353       5364       5363  
      5232       5233       5244       5243       5353       5354       5365       5364  
      5233       5234       5245       5244       5354       5355       5366       5365  
      5234       5235       5246       5245       5355       5356       5367       5366  
      5235       5236       5247       5246       5356       5357       5368       5367  
      5237       5238       5249       5248       5358       5359       5370       5369  
      5238       5239       5250       5249       5359       5360       5371       5370  
      5239       5240       5251       5250       5360       5361       5372       5371  
      5240       5241       5252       5251       5361       5362       5373       5372  
      5241       5242       5253       5252       5362       5363       5374       5373  
      5242       5243       5254       5253       5363       5364       5375       5374  
      5243       5244       5255       5254       5364       5365       5376       5375  
      5244       5245       5256       5255       5365       5366       5377       5376  
      5245       5246       5257       5256       5366       5367       5378       5377  
      5246       5247       5258       5257       5367       5368       5379       5378  
      5248       5249       5260       5259       5369       5370       5381       5380  
      5249       5250       5261       5260       5370       5371       5382       5381  
      5250       5251       5262       5261       5371       5372       5383       5382  
      5251       5252       5263       5262       5372       5373       5384       5383  
      5252       5253       5264       5263       5373       5374       5385       5384  
      5253       5254       5265       5264       5374       5375       5386       5385  
      5254       5255       5266       5265       5375       5376       5387       5386  
      5255       5256       5267       5266       5376       5377       5388       5387  
      5256       5257       5268       5267       5377       5378       5389       5388  
      5257       5258       5269       5268       5378       5379       5390       5389  
      5259       5260       5271       5270       5380       5381       5392       5391  
      5260       5261       5272       5271       5381       5382       5393       5392  
      5261       5262       5273       5272       5382       5383       5394       5393  
      5262       5263       5274       5273       5383       5384       5395       5394  
      5263       5264       5275       5274       5384       5385       5396       5395  
      5264       5265       5276       5275       5385       5386       5397       5396  
      5265       5266       5277       5276       5386       5387       5398       5397  
      5266       5267       5278       5277       5387       5388       5399       5398  
      5267       5268       5279       5278       5388       5389       5400       5399  
      5268       5269       5280       5279       5389       5390       5401       5400  
      5270       5271       5282       5281       5391       5392       5403       5402  
      5271       5272       5283       5282       5392       5393       5404       5403  
      5272       5273       5284       5283       5393       5394       5405       5404  
      5273       5274       5285       5284       5394       5395       5406       5405  
      5274       5275       5286       5285       5395       5396       5407       5406  
      5275       5276       5287       5286       5396       5397       5408       5407  
      5276       5277       5288       5287       5397       5398       5409       5408  
      5277       5278       5289       5288       5398       5399       5410       5409  
      5278       5279       5290       5289       5399       5400       5411       5410  
      5279       5280       5291       5290       5400       5401       5412       5411  
      5281       5282       5293       5292       5402       5403       5414       5413  
      5282       5283       5294       5293       5403       5404       5415       5414  
      5283       5284       5295       5294       5404       5405       5416       5415  
      5284       5285       5296       5295       5405       5406       5417       5416  
      5285       5286       5297       5296       5406       5407       5418       5417  
      5286       5287       5298       5297       5407       5408       5419       5418  
      5287       5288       5299       5298       5408       5409       5420       5419  
      5288       5289       5300       5299       5409       5410       5421       5420  
      5289       5290       5301       5300       5410       5411       5422       5421  
      5290       5291       5302       5301       5411       5412       5423       5422  
      5292       5293       5304       5303       5413       5414       5425       5424  
      5293       5294       5305       5304       5414       5415       5426       5425  
      5294       5295       5306       5305       5415       5416       5427       5426  
      5295       5296       5307       5306       5416       5417       5428       5427  
      5296       5297       5308       5307       5417       5418       5429       5428  
      5297       5298       5309       5308       5418       5419       5430       5429  
      5298       5299       5310       5309       5419       5420       5431       5430  
      5299       5300       5311       5310       5420       5421       5432       5431  
      5300       5301       5312       5311       5421       5422       5433       5432  
      5301       5302       5313       5312       5422       5423       5434       5433  
      5303       5304       5315       5314       5424       5425       5436       5435  
      5304       5305       5316       5315       5425       5426       5437       5436  
      5305       5306       5317       5316       5426       5427       5438       5437  
      5306       5307       5318       5317       5427       5428       5439       5438  
      5307       5308       5319       5318       5428       5429       5440       5439  
      5308       5309       5320       5319       5429       5430       5441       5440  
      5309       5310       5321       5320       5430       5431       5442       5441  
      5310       5311       5322       5321       5431       5432       5443       5442  
      5311       5312       5323       5322       5432       5433       5444       5443  
      5312       5313       5324       5323       5433       5434       5445       5444  
      5325       5326       5337       5336       5446       5447       5458       5457  
      5326       5327       5338       5337       5447       5448       5459       5458  
      5327       5328       5339       5338       5448       5449       5460       5459  
      5328       5329       5340       5339       5449       5450       5461       5460  
      5329       5330       5341       5340       5450       5451       5462       5461  
      5330       5331       5342       5341       5451       5452       5463       5462  
      5331       5332       5343       5342       5452       5453       5464       5463  
      5332       5333       5344       5343       5453       5454       5465       5464  
      5333       5334       5345       5344       5454       5455       5466       5465  
      5334       5335       5346       5345       5455       5456       5467       5466  
      5336       5337       5348       5347       5457       5458       5469       5468  
      5337       5338       5349       5348       5458       5459       5470       5469  
      5338       5339       5350       5349       5459       5460       5471       5470  
      5339       5340       5351       5350       5460       5461       5472       5471  
      5340       5341       5352       5351       5461       5462       5473       5472  
      5341       5342       5353       5352       5462       5463       5474       5473  
      5342       5343       5354       5353       5463       5464       5475       5474  
      5343       5344       5355       5354       5464       5465       5476       5475  
      5344       5345       5356       5355       5465       5466       5477       5476  
      5345       5346       5357       5356       5466       5467       5478       5477  
      5347       5348       5359       5358       5468       5469       5480       5479  
      5348       5349       5360       5359       5469       5470       5481       5480  
      5349       5350       5361       5360       5470       5471       5482       5481  
      5350       5351       5362       5361       5471       5472       5483       5482  
      5351       5352       5363       5362       5472       5473       5484       5483  
      5352       5353       5364       5363       5473       5474       5485       5484  
      5353       5354       5365       5364       5474       5475       5486       5485  
      5354       5355       5366       5365       5475       5476       5487       5486  
      5355       5356       5367       5366       5476       5477       5488       5487  
      5356       5357       5368       5367       5477       5478       5489       5488  
      5358       5359       5370       5369       5479       5480       5491       5490  
      5359       5360       5371       5370       5480       5481       5492       5491  
      5360       5361       5372       5371       5481       5482       5493       5492  
      5361       5362       5373       5372       5482       5483       5494       5493  
      5362       5363       5374       5373       5483       5484       5495       5494  
      5363       5364       5375       5374       5484       5485       5496       5495  
      5364       5365       5376       5375       5485       5486       5497       5496  
      5365       5366       5377       5376       5486       5487       5498       5497  
      5366       5367       5378       5377       5487       5488       5499       5498  
      5367       5368       5379       5378       5488       5489       5500       5499  
      5369       5370       5381       5380       5490       5491       5502       5501  
      5370       5371       5382       5381       5491       5492       5503       5502  
      5371       5372       5383       5382       5492       5493       5504       5503  
      5372       5373       5384       5383       5493       5494       5505       5504  
      5373       5374       5385       5384       5494       5495       5506       5505  
      5374       5375       5386       5385       5495       5496       5507       5506  
      5375       5376       5387       5386       5496       5497       5508       5507  
      5376       5377       5388       5387       5497       5498       5509       5508  
      5377       5378       5389       5388       5498       5499       5510       5509  
      5378       5379       5390       5389       5499       5500       5511       5510  
      5380       5381       5392       5391       5501       5502       5513       5512  
      5381       5382       5393       5392       5502       5503       5514       5513  
      5382       5383       5394       5393       5503       5504       5515       5514  
      5383       5384       5395       5394       5504       5505       5516       5515  
      5384       5385       5396       5395       5505       5506       5517       5516  
      5385       5386       5397       5396       5506       5507       5518       5517  
      5386       5387       5398       5397       5507       5508       5519       5518  
      5387       5388       5399       5398       5508       5509       5520       5519  
      5388       5389       5400       5399       5509       5510       5521       5520  
      5389       5390       5401       5400       5510       5511       5522       5521  
      5391       5392       5403       5402       5512       5513       5524       5523  
      5392       5393       5404       5403       5513       5514       5525       5524  
      5393       5394       5405       5404       5514       5515       5526       5525  
      5394       5395       5406       5405       5515       5516       5527       5526  
      5395       5396       5407       5406       5516       5517       5528       5527  
      5396       5397       5408       5407       5517       5518       5529       5528  
      5397       5398       5409       5408       5518       5519       5530       5529  
      5398       5399       5410       5409       5519       5520       5531       5530  
      5399       5400       5411       5410       5520       5521       5532       5531  
      5400       5401       5412       5411       5521       5522       5533       5532  
      5402       5403       5414       5413       5523       5524       5535       5534  
      5403       5404       5415       5414       5524       5525       5536       5535  
      5404       5405       5416       5415       5525       5526       5537       5536  
      5405       5406       5417       5416       5526       5527       5538       5537  
      5406       5407       5418       5417       5527       5528       5539       5538  
      5407       5408       5419       5418       5528       5529       5540       5539  
      5408       5409       5420       5419       5529       5530       5541       5540  
      5409       5410       5421       5420       5530       5531       5542       5541  
      5410       5411       5422       5421       5531       5532       5543       5542  
      5411       5412       5423       5422       5532       5533       5544       5543  
      5413       5414       5425       5424       5534       5535       5546       5545  
      5414       5415       5426       5425       5535       5536       5547       5546  
      5415       5416       5427       5426       5536       5537       5548       5547  
      5416       5417       5428       5427       5537       5538       5549       5548  
      5417       5418       5429       5428       5538       5539       5550       5549  
      5418       5419       5430       5429       5539       5540       5551       5550  
      5419       5420       5431       5430       5540       5541       5552       5551  
      5420       5421       5432       5431       5541       5542       5553       5552  
      5421       5422       5433       5432       5542       5543       5554       5553  
      5422       5423       5434       5433       5543       5544       5555       5554  
      5424       5425       5436       5435       5545       5546       5557       5556  
      5425       5426       5437       5436       5546       5547       5558       5557  
      5426       5427       5438       5437       5547       5548       5559       5558  
      5427       5428       5439       5438       5548       5549       5560       5559  
      5428       5429       5440       5439       5549       5550       5561       5560  
      5429       5430       5441       5440       5550       5551       5562       5561  
      5430       5431       5442       5441       5551       5552       5563       5562  
      5431       5432       5443       5442       5552       5553       5564       5563  
      5432       5433       5444       5443       5553       5554       5565       5564  
      5433       5434       5445       5444       5554       5555       5566       5565  
      5446       5447       5458       5457       5567       5568       5579       5578  
      5447       5448       5459       5458       5568       5569       5580       5579  
      5448       5449       5460       5459       5569       5570       5581       5580  
      5449       5450       5461       5460       5570       5571       5582       5581  
      5450       5451       5462       5461       5571       5572       5583       5582  
      5451       5452       5463       5462       5572       5573       5584       5583  
      5452       5453       5464       5463       5573       5574       5585       5584  
      5453       5454       5465       5464       5574       5575       5586       5585  
      5454       5455       5466       5465       5575       5576       5587       5586  
      5455       5456       5467       5466       5576       5577       5588       5587  
      5457       5458       5469       5468       5578       5579       5590       5589  
      5458       5459       5470       5469       5579       5580       5591       5590  
      5459       5460       5471       5470       5580       5581       5592       5591  
      5460       5461       5472       5471       5581       5582       5593       5592  
      5461       5462       5473       5472       5582       5583       5594       5593  
      5462       5463       5474       5473       5583       5584       5595       5594  
      5463       5464       5475       5474       5584       5585       5596       5595  
      5464       5465       5476       5475       5585       5586       5597       5596  
      5465       5466       5477       5476       5586       5587       5598       5597  
      5466       5467       5478       5477       5587       5588       5599       5598  
      5468       5469       5480       5479       5589       5590       5601       5600  
      5469       5470       5481       5480       5590       5591       5602       5601  
      5470       5471       5482       5481       5591       5592       5603       5602  
      5471       5472       5483       5482       5592       5593       5604       5603  
      5472       5473       5484       5483       5593       5594       5605       5604  
      5473       5474       5485       5484       5594       5595       5606       5605  
      5474       5475       5486       5485       5595       5596       5607       5606  
      5475       5476       5487       5486       5596       5597       5608       5607  
      5476       5477       5488       5487       5597       5598       5609       5608  
      5477       5478       5489       5488       5598       5599       5610       5609  
      5479       5480       5491       5490       5600       5601       5612       5611  
      5480       5481       5492       5491       5601       5602       5613       5612  
      5481       5482       5493       5492       5602       5603       5614       5613  
      5482       5483       5494       5493       5603       5604       5615       5614  
      5483       5484       5495       5494       5604       5605       5616       5615  
      5484       5485       5496       5495       5605       5606       5617       5616  
      5485       5486       5497       5496       5606       5607       5618       5617  
      5486       5487       5498       5497       5607       5608       5619       5618  
      5487       5488       5499       5498       5608       5609       5620       5619  
      5488       5489       5500       5499       5609       5610       5621       5620  
      5490       5491       5502       5501       5611       5612       5623       5622  
      5491       5492       5503       5502       5612       5613       5624       5623  
      5492       5493       5504       5503       5613       5614       5625       5624  
      5493       5494       5505       5504       5614       5615       5626       5625  
      5494       5495       5506       5505       5615       5616       5627       5626  
      5495       5496       5507       5506       5616       5617       5628       5627  
      5496       5497       5508       5507       5617       5618       5629       5628  
      5497       5498       5509       5508       5618       5619       5630       5629  
      5498       5499       5510       5509       5619       5620       5631       5630  
      5499       5500       5511       5510       5620       5621       5632       5631  
      5501       5502       5513       5512       5622       5623       5634       5633  
      5502       5503       5514       5513       5623       5624       5635       5634  
      5503       5504       5515       5514       5624       5625       5636       5635  
      5504       5505       5516       5515       5625       5626       5637       5636  
      5505       5506       5517       5516       5626       5627       5638       5637  
      5506       5507       5518       5517       5627       5628       5639       5638  
      5507       5508       5519       5518       5628       5629       5640       5639  
      5508       5509       5520       5519       5629       5630       5641       5640  
      5509       5510       5521       5520       5630       5631       5642       5641  
      5510       5511       5522       5521       5631       5632       5643       5642  
      5512       5513       5524       5523       5633       5634       5645       5644  
      5513       5514       5525       5524       5634       5635       5646       5645  
      5514       5515       5526       5525       5635       5636       5647       5646  
      5515       5516       5527       5526       5636       5637       5648       5647  
      5516       5517       5528       5527       5637       5638       5649       5648  
      5517       5518       5529       5528       5638       5639       5650       5649  
      5518       5519       5530       5529       5639       5640       5651       5650  
      5519       5520       5531       5530       5640       5641       5652       5651  
      5520       5521       5532       5531       5641       5642       5653       5652  
      5521       5522       5533       5532       5642       5643       5654       5653  
      5523       5524       5535       5534       5644       5645       5656       5655  
      5524       5525       5536       5535       5645       5646       5657       5656  
      5525       5526       5537       5536       5646       5647       5658       5657  
      5526       5527       5538       5537       5647       5648       5659       5658  
      5527       5528       5539       5538       5648       5649       5660       5659  
      5528       5529       5540       5539       5649       5650       5661       5660  
      5529       5530       5541       5540       5650       5651       5662       5661  
      5530       5531       5542       5541       5651       5652       5663       5662  
      5531       5532       5543       5542       5652       5653       5664       5663  
      5532       5533       5544       5543       5653       5654       5665       5664  
      5534       5535       5546       5545       5655       5656       5667       5666  
      5535       5536       5547       5546       5656       5657       5668       5667  
      5536       5537       5548       5547       5657       5658       5669       5668  
      5537       5538       5549       5548       5658       5659       5670       5669  
      5538       5539       5550       5549       5659       5660       5671       5670  
      5539       5540       5551       5550       5660       5661       5672       5671  
      5540       5541       5552       5551       5661       5662       5673       5672  
      5541       5542       5553       5552       5662       5663       5674       5673  
      5542       5543       5554       5553       5663       5664       5675       5674  
      5543       5544       5555       5554       5664       5665       5676       5675  
      5545       5546       5557       5556       5666       5667       5678       5677  
      5546       5547       5558       5557       5667       5668       5679       5678  
      5547       5548       5559       5558       5668       5669       5680       5679  
      5548       5549       5560       5559       5669       5670       5681       5680  
      5549       5550       5561       5560       5670       5671       5682       5681  
      5550       5551       5562       5561       5671       5672       5683       5682  
      5551       5552       5563       5562       5672       5673       5684       5683  
      5552       5553       5564       5563       5673       5674       5685       5684  
      5553       5554       5565       5564       5674       5675       5686       5685  
      5554       5555       5566       5565       5675       5676       5687       5686  
      5567       5568       5579       5578       5688       5689       5700       5699  
      5568       5569       5580       5579       5689       5690       5701       5700  
      5569       5570       5581       5580       5690       5691       5702       5701  
      5570       5571       5582       5581       5691       5692       5703       5702  
      5571       5572       5583       5582       5692       5693       5704       5703  
      5572       5573       5584       5583       5693       5694       5705       5704  
      5573       5574       5585       5584       5694       5695       5706       5705  
      5574       5575       5586       5585       5695       5696       5707       5706  
      5575       5576       5587       5586       5696       5697       5708       5707  
      5576       5577       5588       5587       5697       5698       5709       5708  
      5578       5579       5590       5589       5699       5700       5711       5710  
      5579       5580       5591       5590       5700       5701       5712       5711  
      5580       5581       5592       5591       5701       5702       5713       5712  
      5581       5582       5593       5592       5702       5703       5714       5713  
      5582       5583       5594       5593       5703       5704       5715       5714  
      5583       5584       5595       5594       5704       5705       5716       5715  
      5584       5585       5596       5595       5705       5706       5717       5716  
      5585       5586       5597       5596       5706       5707       5718       5717  
      5586       5587       5598       5597       5707       5708       5719       5718  
      5587       5588       5599       5598       5708       5709       5720       5719  
      5589       5590       5601       5600       5710       5711       5722       5721  
      5590       5591       5602       5601       5711       5712       5723       5722  
      5591       5592       5603       5602       5712       5713       5724       5723  
      5592       5593       5604       5603       5713       5714       5725       5724  
      5593       5594       5605       5604       5714       5715       5726       5725  
      5594       5595       5606       5605       5715       5716       5727       5726  
      5595       5596       5607       5606       5716       5717       5728       5727  
      5596       5597       5608       5607       5717       5718       5729       5728  
      5597       5598       5609       5608       5718       5719       5730       5729  
      5598       5599       5610       5609       5719       5720       5731       5730  
      5600       5601       5612       5611       5721       5722       5733       5732  
      5601       5602       5613       5612       5722       5723       5734       5733  
      5602       5603       5614       5613       5723       5724       5735       5734  
      5603       5604       5615       5614       5724       5725       5736       5735  
      5604       5605       5616       5615       5725       5726       5737       5736  
      5605       5606       5617       5616       5726       5727       5738       5737  
      5606       5607       5618       5617       5727       5728       5739       5738  
      5607       5608       5619       5618       5728       5729       5740       5739  
      5608       5609       5620       5619       5729       5730       5741       5740  
      5609       5610       5621       5620       5730       5731       5742       5741  
      5611       5612       5623       5622       5732       5733       5744       5743  
      5612       5613       5624       5623       5733       5734       5745       5744  
      5613       5614       5625       5624       5734       5735       5746       5745  
      5614       5615       5626       5625       5735       5736       5747       5746  
      5615       5616       5627       5626       5736       5737       5748       5747  
      5616       5617       5628       5627       5737       5738       5749       5748  
      5617       5618       5629       5628       5738       5739       5750       5749  
      5618       5619       5630       5629       5739       5740       5751       5750  
      5619       5620       5631       5630       5740       5741       5752       5751  
      5620       5621       5632       5631       5741       5742       5753       5752  
      5622       5623       5634       5633       5743       5744       5755       5754  
      5623       5624       5635       5634       5744       5745       5756       5755  
      5624       5625       5636       5635       5745       5746       5757       5756  
      5625       5626       5637       5636       5746       5747       5758       5757  
      5626       5627       5638       5637       5747       5748       5759       5758  
      5627       5628       5639       5638       5748       5749       5760       5759  
      5628       5629       5640       5639       5749       5750       5761       5760  
      5629       5630       5641       5640       5750       5751       5762       5761  
      5630       5631       5642       5641       5751       5752       5763       5762  
      5631       5632       5643       5642       5752       5753       5764       5763  
      5633       5634       5645       5644       5754       5755       5766       5765  
      5634       5635       5646       5645       5755       5756       5767       5766  
      5635       5636       5647       5646       5756       5757       5768       5767  
      5636       5637       5648       5647       5757       5758       5769       5768  
      5637       5638       5649       5648       5758       5759       5770       5769  
      5638       5639       5650       5649       5759       5760       5771       5770  
      5639       5640       5651       5650       5760       5761       5772       5771  
      5640       5641       5652       5651       5761       5762       5773       5772  
      5641       5642       5653       5652       5762       5763       5774       5773  
      5642       5643       5654       5653       5763       5764       5775       5774  
      5644       5645       5656       5655       5765       5766       5777       5776  
      5645       5646       5657       5656       5766       5767       5778       5777  
      5646       5647       5658       5657       5767       5768       5779       5778  
      5647       5648       5659       5658       5768       5769       5780       5779  
      5648       5649       5660       5659       5769       5770       5781       5780  
      5649       5650       5661       5660       5770       5771       5782       5781  
      5650       5651       5662       5661       5771       5772       5783       5782  
      5651       5652       5663       5662       5772       5773       5784       5783  
      5652       5653       5664       5663       5773       5774       5785       5784  
      5653       5654       5665       5664       5774       5775       5786       5785  
      5655       5656       5667       5666       5776       5777       5788       5787  
      5656       5657       5668       5667       5777       5778       5789       5788  
      5657       5658       5669       5668       5778       5779       5790       5789  
      5658       5659       5670       5669       5779       5780       5791       5790  
      5659       5660       5671       5670       5780       5781       5792       5791  
      5660       5661       5672       5671       5781       5782       5793       5792  
      5661       5662       5673       5672       5782       5783       5794       5793  
      5662       5663       5674       5673       5783       5784       5795       5794  
      5663       5664       5675       5674       5784       5785       5796       5795  
      5664       5665       5676       5675       5785       5786       5797       5796  
      5666       5667       5678       5677       5787       5788       5799       5798  
      5667       5668       5679       5678       5788       5789       5800       5799  
      5668       5669       5680       5679       5789       5790       5801       5800  
      5669       5670       5681       5680       5790       5791       5802       5801  
      5670       5671       5682       5681       5791       5792       5803       5802  
      5671       5672       5683       5682       5792       5793       5804       5803  
      5672       5673       5684       5683       5793       5794       5805       5804  
      5673       5674       5685       5684       5794       5795       5806       5805  
      5674       5675       5686       5685       5795       5796       5807       5806  
      5675       5676       5687       5686       5796       5797       5808       5807  
      5688       5689       5700       5699       5809       5810       5821       5820  
      5689       5690       5701       5700       5810       5811       5822       5821  
      5690       5691       5702       5701       5811       5812       5823       5822  
      5691       5692       5703       5702       5812       5813       5824       5823  
      5692       5693       5704       5703       5813       5814       5825       5824  
      5693       5694       5705       5704       5814       5815       5826       5825  
      5694       5695       5706       5705       5815       5816       5827       5826  
      5695       5696       5707       5706       5816       5817       5828       5827  
      5696       5697       5708       5707       5817       5818       5829       5828  
      5697       5698       5709       5708       5818       5819       5830       5829  
      5699       5700       5711       5710       5820       5821       5832       5831  
      5700       5701       5712       5711       5821       5822       5833       5832  
      5701       5702       5713       5712       5822       5823       5834       5833  
      5702       5703       5714       5713       5823       5824       5835       5834  
      5703       5704       5715       5714       5824       5825       5836       5835  
      5704       5705       5716       5715       5825       5826       5837       5836  
      5705       5706       5717       5716       5826       5827       5838       5837  
      5706       5707       5718       5717       5827       5828       5839       5838  
      5707       5708       5719       5718       5828       5829       5840       5839  
      5708       5709       5720       5719       5829       5830       5841       5840  
      5710       5711       5722       5721       5831       5832       5843       5842  
      5711       5712       5723       5722       5832       5833       5844       5843  
      5712       5713       5724       5723       5833       5834       5845       5844  
      5713       5714       5725       5724       5834       5835       5846       5845  
      5714       5715       5726       5725       5835       5836       5847       5846  
      5715       5716       5727       5726       5836       5837       5848       5847  
      5716       5717       5728       5727       5837       5838       5849       5848  
      5717       5718       5729       5728       5838       5839       5850       5849  
      5718       5719       5730       5729       5839       5840       5851       5850  
      5719       5720       5731       5730       5840       5841       5852       5851  
      5721       5722       5733       5732       5842       5843       5854       5853  
      5722       5723       5734       5733       5843       5844       5855       5854  
      5723       5724       5735       5734       5844       5845       5856       5855  
      5724       5725       5736       5735       5845       5846       5857       5856  
      5725       5726       5737       5736       5846       5847       5858       5857  
      5726       5727       5738       5737       5847       5848       5859       5858  
      5727       5728       5739       5738       5848       5849       5860       5859  
      5728       5729       5740       5739       5849       5850       5861       5860  
      5729       5730       5741       5740       5850       5851       5862       5861  
      5730       5731       5742       5741       5851       5852       5863       5862  
      5732       5733       5744       5743       5853       5854       5865       5864  
      5733       5734       5745       5744       5854       5855       5866       5865  
      5734       5735       5746       5745       5855       5856       5867       5866  
      5735       5736       5747       5746       5856       5857       5868       5867  
      5736       5737       5748       5747       5857       5858       5869       5868  
      5737       5738       5749       5748       5858       5859       5870       5869  
      5738       5739       5750       5749       5859       5860       5871       5870  
      5739       5740       5751       5750       5860       5861       5872       5871  
      5740       5741       5752       5751       5861       5862       5873       5872  
      5741       5742       5753       5752       5862       5863       5874       5873  
      5743       5744       5755       5754       5864       5865       5876       5875  
      5744       5745       5756       5755       5865       5866       5877       5876  
      5745       5746       5757       5756       5866       5867       5878       5877  
      5746       5747       5758       5757       5867       5868       5879       5878  
      5747       5748       5759       5758       5868       5869       5880       5879  
      5748       5749       5760       5759       5869       5870       5881       5880  
      5749       5750       5761       5760       5870       5871       5882       5881  
      5750       5751       5762       5761       5871       5872       5883       5882  
      5751       5752       5763       5762       5872       5873       5884       5883  
      5752       5753       5764       5763       5873       5874       5885       5884  
      5754       5755       5766       5765       5875       5876       5887       5886  
      5755       5756       5767       5766       5876       5877       5888       5887  
      5756       5757       5768       5767       5877       5878       5889       5888  
      5757       5758       5769       5768       5878       5879       5890       5889  
      5758       5759       5770       5769       5879       5880       5891       5890  
      5759       5760       5771       5770       5880       5881       5892       5891  
      5760       5761       5772       5771       5881       5882       5893       5892  
      5761       5762       5773       5772       5882       5883       5894       5893  
      5762       5763       5774       5773       5883       5884       5895       5894  
      5763       5764       5775       5774       5884       5885       5896       5895  
      5765       5766       5777       5776       5886       5887       5898       5897  
      5766       5767       5778       5777       5887       5888       5899       5898  
      5767       5768       5779       5778       5888       5889       5900       5899  
      5768       5769       5780       5779       5889       5890       5901       5900  
      5769       5770       5781       5780       5890       5891       5902       5901  
      5770       5771       5782       5781       5891       5892       5903       5902  
      5771       5772       5783       5782       5892       5893       5904       5903  
      5772       5773       5784       5783       5893       5894       5905       5904  
      5773       5774       5785       5784       5894       5895       5906       5905  
      5774       5775       5786       5785       5895       5896       5907       5906  
      5776       5777       5788       5787       5897       5898       5909       5908  
      5777       5778       5789       5788       5898       5899       5910       5909  
      5778       5779       5790       5789       5899       5900       5911       5910  
      5779       5780       5791       5790       5900       5901       5912       5911  
      5780       5781       5792       5791       5901       5902       5913       5912  
      5781       5782       5793       5792       5902       5903       5914       5913  
      5782       5783       5794       5793       5903       5904       5915       5914  
      5783       5784       5795       5794       5904       5905       5916       5915  
      5784       5785       5796       5795       5905       5906       5917       5916  
      5785       5786       5797       5796       5906       5907       5918       5917  
      5787       5788       5799       5798       5908       5909       5920       5919  
      5788       5789       5800       5799       5909       5910       5921       5920  
      5789       5790       5801       5800       5910       5911       5922       5921  
      5790       5791       5802       5801       5911       5912       5923       5922  
      5791       5792       5803       5802       5912       5913       5924       5923  
      5792       5793       5804       5803       5913       5914       5925       5924  
      5793       5794       5805       5804       5914       5915       5926       5925  
      5794       5795       5806       5805       5915       5916       5927       5926  
      5795       5796       5807       5806       5916       5917       5928       5927  
      5796       5797       5808       5807       5917       5918       5929       5928  
      5809       5810       5821       5820       5930       5931       5942       5941  
      5810       5811       5822       5821       5931       5932       5943       5942  
      5811       5812       5823       5822       5932       5933       5944       5943  
      5812       5813       5824       5823       5933       5934       5945       5944  
      5813       5814       5825       5824       5934       5935       5946       5945  
      5814       5815       5826       5825       5935       5936       5947       5946  
      5815       5816       5827       5826       5936       5937       5948       5947  
      5816       5817       5828       5827       5937       5938       5949       5948  
      5817       5818       5829       5828       5938       5939       5950       5949  
      5818       5819       5830       5829       5939       5940       5951       5950  
      5820       5821       5832       5831       5941       5942       5953       5952  
      5821       5822       5833       5832       5942       5943       5954       5953  
      5822       5823       5834       5833       5943       5944       5955       5954  
      5823       5824       5835       5834       5944       5945       5956       5955  
      5824       5825       5836       5835       5945       5946       5957       5956  
      5825       5826       5837       5836       5946       5947       5958       5957  
      5826       5827       5838       5837       5947       5948       5959       5958  
      5827       5828       5839       5838       5948       5949       5960       5959  
      5828       5829       5840       5839       5949       5950       5961       5960  
      5829       5830       5841       5840       5950       5951       5962       5961  
      5831       5832       5843       5842       5952       5953       5964       5963  
      5832       5833       5844       5843       5953       5954       5965       5964  
      5833       5834       5845       5844       5954       5955       5966       5965  
      5834       5835       5846       5845       5955       5956       5967       5966  
      5835       5836       5847       5846       5956       5957       5968       5967  
      5836       5837       5848       5847       5957       5958       5969       5968  
      5837       5838       5849       5848       5958       5959       5970       5969  
      5838       5839       5850       5849       5959       5960       5971       5970  
      5839       5840       5851       5850       5960       5961       5972       5971  
      5840       5841       5852       5851       5961       5962       5973       5972  
      5842       5843       5854       5853       5963       5964       5975       5974  
      5843       5844       5855       5854       5964       5965       5976       5975  
      5844       5845       5856       5855       5965       5966       5977       5976  
      5845       5846       5857       5856       5966       5967       5978       5977  
      5846       5847       5858       5857       5967       5968       5979       5978  
      5847       5848       5859       5858       5968       5969       5980       5979  
      5848       5849       5860       5859       5969       5970       5981       5980  
      5849       5850       5861       5860       5970       5971       5982       5981  
      5850       5851       5862       5861       5971       5972       5983       5982  
      5851       5852       5863       5862       5972       5973       5984       5983  
      5853       5854       5865       5864       5974       5975       5986       5985  
      5854       5855       5866       5865       5975       5976       5987       5986  
      5855       5856       5867       5866       5976       5977       5988       5987  
      5856       5857       5868       5867       5977       5978       5989       5988  
      5857       5858       5869       5868       5978       5979       5990       5989  
      5858       5859       5870       5869       5979       5980       5991       5990  
      5859       5860       5871       5870       5980       5981       5992       5991  
      5860       5861       5872       5871       5981       5982       5993       5992  
      5861       5862       5873       5872       5982       5983       5994       5993  
      5862       5863       5874       5873       5983       5984       5995       5994  
      5864       5865       5876       5875       5985       5986       5997       5996  
      5865       5866       5877       5876       5986       5987       5998       5997  
      5866       5867       5878       5877       5987       5988       5999       5998  
      5867       5868       5879       5878       5988       5989       6000       5999  
      5868       5869       5880       5879       5989       5990       6001       6000  
      5869       5870       5881       5880       5990       5991       6002       6001  
      5870       5871       5882       5881       5991       5992       6003       6002  
      5871       5872       5883       5882       5992       5993       6004       6003  
      5872       5873       5884       5883       5993       5994       6005       6004  
      5873       5874       5885       5884       5994       5995       6006       6005  
      5875       5876       5887       5886       5996       5997       6008       6007  
      5876       5877       5888       5887       5997       5998       6009       6008  
      5877       5878       5889       5888       5998       5999       6010       6009  
      5878       5879       5890       5889       5999       6000       6011       6010  
      5879       5880       5891       5890       6000       6001       6012       6011  
      5880       5881       5892       5891       6001       6002       6013       6012  
      5881       5882       5893       5892       6002       6003       6014       6013  
      5882       5883       5894       5893       6003       6004       6015       6014  
      5883       5884       5895       5894       6004       6005       6016       6015  
      5884       5885       5896       5895       6005       6006       6017       6016  
      5886       5887       5898       5897       6007       6008       6019       6018  
      5887       5888       5899       5898       6008       6009       6020       6019  
      5888       5889       5900       5899       6009       6010       6021       6020  
      5889       5890       5901       5900       6010       6011       6022       6021  
      5890       5891       5902       5901       6011       6012       6023       6022  
      5891       5892       5903       5902       6012       6013       6024       6023  
      5892       5893       5904       5903       6013       6014       6025       6024  
      5893       5894       5905       5904       6014       6015       6026       6025  
      5894       5895       5906       5905       6015       6016       6027       6026  
      5895       5896       5907       5906       6016       6017       6028       6027  
      5897       5898       5909       5908       6018       6019       6030       6029  
      5898       5899       5910       5909       6019       6020       6031       6030  
      5899       5900       5911       5910       6020       6021       6032       6031  
      5900       5901       5912       5911       6021       6022       6033       6032  
      5901       5902       5913       5912       6022       6023       6034       6033  
      5902       5903       5914       5913       6023       6024       6035       6034  
      5903       5904       5915       5914       6024       6025       6036       6035  
      5904       5905       5916       5915       6025       6026       6037       6036  
      5905       5906       5917       5916       6026       6027       6038       6037  
      5906       5907       5918       5917       6027       6028       6039       6038  
      5908       5909       5920       5919       6029       6030       6041       6040  
      5909       5910       5921       5920       6030       6031       6042       6041  
      5910       5911       5922       5921       6031       6032       6043       6042  
      5911       5912       5923       5922       6032       6033       6044       6043  
      5912       5913       5924       5923       6033       6034       6045       6044  
      5913       5914       5925       5924       6034       6035       6046       6045  
      5914       5915       5926       5925       6035       6036       6047       6046  
      5915       5916       5927       5926       6036       6037       6048       6047  
      5916       5917       5928       5927       6037       6038       6049       6048  
      5917       5918       5929       5928       6038       6039       6050       6049  
      5930       5931       5942       5941       6051       6052       6063       6062  
      5931       5932       5943       5942       6052       6053       6064       6063  
      5932       5933       5944       5943       6053       6054       6065       6064  
      5933       5934       5945       5944       6054       6055       6066       6065  
      5934       5935       5946       5945       6055       6056       6067       6066  
      5935       5936       5947       5946       6056       6057       6068       6067  
      5936       5937       5948       5947       6057       6058       6069       6068  
      5937       5938       5949       5948       6058       6059       6070       6069  
      5938       5939       5950       5949       6059       6060       6071       6070  
      5939       5940       5951       5950       6060       6061       6072       6071  
      5941       5942       5953       5952       6062       6063       6074       6073  
      5942       5943       5954       5953       6063       6064       6075       6074  
      5943       5944       5955       5954       6064       6065       6076       6075  
      5944       5945       5956       5955       6065       6066       6077       6076  
      5945       5946       5957       5956       6066       6067       6078       6077  
      5946       5947       5958       5957       6067       6068       6079       6078  
      5947       5948       5959       5958       6068       6069       6080       6079  
      5948       5949       5960       5959       6069       6070       6081       6080  
      5949       5950       5961       5960       6070       6071       6082       6081  
      5950       5951       5962       5961       6071       6072       6083       6082  
      5952       5953       5964       5963       6073       6074       6085       6084  
      5953       5954       5965       5964       6074       6075       6086       6085  
      5954       5955       5966       5965       6075       6076       6087       6086  
      5955       5956       5967       5966       6076       6077       6088       6087  
      5956       5957       5968       5967       6077       6078       6089       6088  
      5957       5958       5969       5968       6078       6079       6090       6089  
      5958       5959       5970       5969       6079       6080       6091       6090  
      5959       5960       5971       5970       6080       6081       6092       6091  
      5960       5961       5972       5971       6081       6082       6093       6092  
      5961       5962       5973       5972       6082       6083       6094       6093  
      5963       5964       5975       5974       6084       6085       6096       6095  
      5964       5965       5976       5975       6085       6086       6097       6096  
      5965       5966       5977       5976       6086       6087       6098       6097  
      5966       5967       5978       5977       6087       6088       6099       6098  
      5967       5968       5979       5978       6088       6089       6100       6099  
      5968       5969       5980       5979       6089       6090       6101       6100  
      5969       5970       5981       5980       6090       6091       6102       6101  
      5970       5971       5982       5981       6091       6092       6103       6102  
      5971       5972       5983       5982       6092       6093       6104       6103  
      5972       5973       5984       5983       6093       6094       6105       6104  
      5974       5975       5986       5985       6095       6096       6107       6106  
      5975       5976       5987       5986       6096       6097       6108       6107  
      5976       5977       5988       5987       6097       6098       6109       6108  
      5977       5978       5989       5988       6098       6099       6110       6109  
      5978       5979       5990       5989       6099       6100       6111       6110  
      5979       5980       5991       5990       6100       6101       6112       6111  
      5980       5981       5992       5991       6101       6102       6113       6112  
      5981       5982       5993       5992       6102       6103       6114       6113  
      5982       5983       5994       5993       6103       6104       6115       6114  
      5983       5984       5995       5994       6104       6105       6116       6115  
      5985       5986       5997       5996       6106       6107       6118       6117  
      5986       5987       5998       5997       6107       6108       6119       6118  
      5987       5988       5999       5998       6108       6109       6120       6119  
      5988       5989       6000       5999       6109       6110       6121       6120  
      5989       5990       6001       6000       6110       6111       6122       6121  
      5990       5991       6002       6001       6111       6112       6123       6122  
      5991       5992       6003       6002       6112       6113       6124       6123  
      5992       5993       6004       6003       6113       6114       6125       6124  
      5993       5994       6005       6004       6114       6115       6126       6125  
      5994       5995       6006       6005       6115       6116       6127       6126  
      5996       5997       6008       6007       6117       6118       6129       6128  
      5997       5998       6009       6008       6118       6119       6130       6129  
      5998       5999       6010       6009       6119       6120       6131       6130  
      5999       6000       6011       6010       6120       6121       6132       6131  
      6000       6001       6012       6011       6121       6122       6133       6132  
      6001       6002       6013       6012       6122       6123       6134       6133  
      6002       6003       6014       6013       6123       6124       6135       6134  
      6003       6004       6015       6014       6124       6125       6136       6135  
      6004       6005       6016       6015       6125       6126       6137       6136  
      6005       6006       6017       6016       6126       6127       6138       6137  
      6007       6008       6019       6018       6128       6129       6140       6139  
      6008       6009       6020       6019       6129       6130       6141       6140  
      6009       6010       6021       6020       6130       6131       6142       6141  
      6010       6011       6022       6021       6131       6132       6143       6142  
      6011       6012       6023       6022       6132       6133       6144       6143  
      6012       6013       6024       6023       6133       6134       6145       6144  
      6013       6014       6025       6024       6134       6135       6146       6145  
      6014       6015       6026       6025       6135       6136       6147       6146  
      6015       6016       6027       6026       6136       6137       6148       6147  
      6016       6017       6028       6027       6137       6138       6149       6148  
      6018       6019       6030       6029       6139       6140       6151       6150  
      6019       6020       6031       6030       6140       6141       6152       6151  
      6020       6021       6032       6031       6141       6142       6153       6152  
      6021       6022       6033       6032       6142       6143       6154       6153  
      6022       6023       6034       6033       6143       6144       6155       6154  
      6023       6024       6035       6034       6144       6145       6156       6155  
      6024       6025       6036       6035       6145       6146       6157       6156  
      6025       6026       6037       6036       6146       6147       6158       6157  
      6026       6027       6038       6037       6147       6148       6159       6158  
      6027       6028       6039       6038       6148       6149       6160       6159  
      6029       6030       6041       6040       6150       6151       6162       6161  
      6030       6031       6042       6041       6151       6152       6163       6162  
      6031       6032       6043       6042       6152       6153       6164       6163  
      6032       6033       6044       6043       6153       6154       6165       6164  
      6033       6034       6045       6044       6154       6155       6166       6165  
      6034       6035       6046       6045       6155       6156       6167       6166  
      6035       6036       6047       6046       6156       6157       6168       6167  
      6036       6037       6048       6047       6157       6158       6169       6168  
      6037       6038       6049       6048       6158       6159       6170       6169  
      6038       6039       6050       6049       6159       6160       6171       6170  
      6051       6052       6063       6062       6172       6173       6184       6183  
      6052       6053       6064       6063       6173       6174       6185       6184  
      6053       6054       6065       6064       6174       6175       6186       6185  
      6054       6055       6066       6065       6175       6176       6187       6186  
      6055       6056       6067       6066       6176       6177       6188       6187  
      6056       6057       6068       6067       6177       6178       6189       6188  
      6057       6058       6069       6068       6178       6179       6190       6189  
      6058       6059       6070       6069       6179       6180       6191       6190  
      6059       6060       6071       6070       6180       6181       6192       6191  
      6060       6061       6072       6071       6181       6182       6193       6192  
      6062       6063       6074       6073       6183       6184       6195       6194  
      6063       6064       6075       6074       6184       6185       6196       6195  
      6064       6065       6076       6075       6185       6186       6197       6196  
      6065       6066       6077       6076       6186       6187       6198       6197  
      6066       6067       6078       6077       6187       6188       6199       6198  
      6067       6068       6079       6078       6188       6189       6200       6199  
      6068       6069       6080       6079       6189       6190       6201       6200  
      6069       6070       6081       6080       6190       6191       6202       6201  
      6070       6071       6082       6081       6191       6192       6203       6202  
      6071       6072       6083       6082       6192       6193       6204       6203  
      6073       6074       6085       6084       6194       6195       6206       6205  
      6074       6075       6086       6085       6195       6196       6207       6206  
      6075       6076       6087       6086       6196       6197       6208       6207  
      6076       6077       6088       6087       6197       6198       6209       6208  
      6077       6078       6089       6088       6198       6199       6210       6209  
      6078       6079       6090       6089       6199       6200       6211       6210  
      6079       6080       6091       6090       6200       6201       6212       6211  
      6080       6081       6092       6091       6201       6202       6213       6212  
      6081       6082       6093       6092       6202       6203       6214       6213  
      6082       6083       6094       6093       6203       6204       6215       6214  
      6084       6085       6096       6095       6205       6206       6217       6216  
      6085       6086       6097       6096       6206       6207       6218       6217  
      6086       6087       6098       6097       6207       6208       6219       6218  
      6087       6088       6099       6098       6208       6209       6220       6219  
      6088       6089       6100       6099       6209       6210       6221       6220  
      6089       6090       6101       6100       6210       6211       6222       6221  
      6090       6091       6102       6101       6211       6212       6223       6222  
      6091       6092       6103       6102       6212       6213       6224       6223  
      6092       6093       6104       6103       6213       6214       6225       6224  
      6093       6094       6105       6104       6214       6215       6226       6225  
      6095       6096       6107       6106       6216       6217       6228       6227  
      6096       6097       6108       6107       6217       6218       6229       6228  
      6097       6098       6109       6108       6218       6219       6230       6229  
      6098       6099       6110       6109       6219       6220       6231       6230  
      6099       6100       6111       6110       6220       6221       6232       6231  
      6100       6101       6112       6111       6221       6222       6233       6232  
      6101       6102       6113       6112       6222       6223       6234       6233  
      6102       6103       6114       6113       6223       6224       6235       6234  
      6103       6104       6115       6114       6224       6225       6236       6235  
      6104       6105       6116       6115       6225       6226       6237       6236  
      6106       6107       6118       6117       6227       6228       6239       6238  
      6107       6108       6119       6118       6228       6229       6240       6239  
      6108       6109       6120       6119       6229       6230       6241       6240  
      6109       6110       6121       6120       6230       6231       6242       6241  
      6110       6111       6122       6121       6231       6232       6243       6242  
      6111       6112       6123       6122       6232       6233       6244       6243  
      6112       6113       6124       6123       6233       6234       6245       6244  
      6113       6114       6125       6124       6234       6235       6246       6245  
      6114       6115       6126       6125       6235       6236       6247       6246  
      6115       6116       6127       6126       6236       6237       6248       6247  
      6117       6118       6129       6128       6238       6239       6250       6249  
      6118       6119       6130       6129       6239       6240       6251       6250  
      6119       6120       6131       6130       6240       6241       6252       6251  
      6120       6121       6132       6131       6241       6242       6253       6252  
      6121       6122       6133       6132       6242       6243       6254       6253  
      6122       6123       6134       6133       6243       6244       6255       6254  
      6123       6124       6135       6134       6244       6245       6256       6255  
      6124       6125       6136       6135       6245       6246       6257       6256  
      6125       6126       6137       6136       6246       6247       6258       6257  
      6126       6127       6138       6137       6247       6248       6259       6258  
      6128       6129       6140       6139       6249       6250       6261       6260  
      6129       6130       6141       6140       6250       6251       6262       6261  
      6130       6131       6142       6141       6251       6252       6263       6262  
      6131       6132       6143       6142       6252       6253       6264       6263  
      6132       6133       6144       6143       6253       6254       6265       6264  
      6133       6134       6145       6144       6254       6255       6266       6265  
      6134       6135       6146       6145       6255       6256       6267       6266  
      6135       6136       6147       6146       6256       6257       6268       6267  
      6136       6137       6148       6147       6257       6258       6269       6268  
      6137       6138       6149       6148       6258       6259       6270       6269  
      6139       6140       6151       6150       6260       6261       6272       6271  
      6140       6141       6152       6151       6261       6262       6273       6272  
      6141       6142       6153       6152       6262       6263       6274       6273  
      6142       6143       6154       6153       6263       6264       6275       6274  
      6143       6144       6155       6154       6264       6265       6276       6275  
      6144       6145       6156       6155       6265       6266       6277       6276  
      6145       6146       6157       6156       6266       6267       6278       6277  
      6146       6147       6158       6157       6267       6268       6279       6278  
      6147       6148       6159       6158       6268       6269       6280       6279  
      6148       6149       6160       6159       6269       6270       6281       6280  
      6150       6151       6162       6161       6271       6272       6283       6282  
      6151       6152       6163       6162       6272       6273       6284       6283  
      6152       6153       6164       6163       6273       6274       6285       6284  
      6153       6154       6165       6164       6274       6275       6286       6285  
      6154       6155       6166       6165       6275       6276       6287       6286  
      6155       6156       6167       6166       6276       6277       6288       6287  
      6156       6157       6168       6167       6277       6278       6289       6288  
      6157       6158       6169       6168       6278       6279       6290       6289  
      6158       6159       6170       6169       6279       6280       6291       6290  
      6159       6160       6171       6170       6280       6281       6292       6291  
      6172       6173       6184       6183       6293       6294       6305       6304  
      6173       6174       6185       6184       6294       6295       6306       6305  
      6174       6175       6186       6185       6295       6296       6307       6306  
      6175       6176       6187       6186       6296       6297       6308       6307  
      6176       6177       6188       6187       6297       6298       6309       6308  
      6177       6178       6189       6188       6298       6299       6310       6309  
      6178       6179       6190       6189       6299       6300       6311       6310  
      6179       6180       6191       6190       6300       6301       6312       6311  
      6180       6181       6192       6191       6301       6302       6313       6312  
      6181       6182       6193       6192       6302       6303       6314       6313  
      6183       6184       6195       6194       6304       6305       6316       6315  
      6184       6185       6196       6195       6305       6306       6317       6316  
      6185       6186       6197       6196       6306       6307       6318       6317  
      6186       6187       6198       6197       6307       6308       6319       6318  
      6187       6188       6199       6198       6308       6309       6320       6319  
      6188       6189       6200       6199       6309       6310       6321       6320  
      6189       6190       6201       6200       6310       6311       6322       6321  
      6190       6191       6202       6201       6311       6312       6323       6322  
      6191       6192       6203       6202       6312       6313       6324       6323  
      6192       6193       6204       6203       6313       6314       6325       6324  
      6194       6195       6206       6205       6315       6316       6327       6326  
      6195       6196       6207       6206       6316       6317       6328       6327  
      6196       6197       6208       6207       6317       6318       6329       6328  
      6197       6198       6209       6208       6318       6319       6330       6329  
      6198       6199       6210       6209       6319       6320       6331       6330  
      6199       6200       6211       6210       6320       6321       6332       6331  
      6200       6201       6212       6211       6321       6322       6333       6332  
      6201       6202       6213       6212       6322       6323       6334       6333  
      6202       6203       6214       6213       6323       6324       6335       6334  
      6203       6204       6215       6214       6324       6325       6336       6335  
      6205       6206       6217       6216       6326       6327       6338       6337  
      6206       6207       6218       6217       6327       6328       6339       6338  
      6207       6208       6219       6218       6328       6329       6340       6339  
      6208       6209       6220       6219       6329       6330       6341       6340  
      6209       6210       6221       6220       6330       6331       6342       6341  
      6210       6211       6222       6221       6331       6332       6343       6342  
      6211       6212       6223       6222       6332       6333       6344       6343  
      6212       6213       6224       6223       6333       6334       6345       6344  
      6213       6214       6225       6224       6334       6335       6346       6345  
      6214       6215       6226       6225       6335       6336       6347       6346  
      6216       6217       6228       6227       6337       6338       6349       6348  
      6217       6218       6229       6228       6338       6339       6350       6349  
      6218       6219       6230       6229       6339       6340       6351       6350  
      6219       6220       6231       6230       6340       6341       6352       6351  
      6220       6221       6232       6231       6341       6342       6353       6352  
      6221       6222       6233       6232       6342       6343       6354       6353  
      6222       6223       6234       6233       6343       6344       6355       6354  
      6223       6224       6235       6234       6344       6345       6356       6355  
      6224       6225       6236       6235       6345       6346       6357       6356  
      6225       6226       6237       6236       6346       6347       6358       6357  
      6227       6228       6239       6238       6348       6349       6360       6359  
      6228       6229       6240       6239       6349       6350       6361       6360  
      6229       6230       6241       6240       6350       6351       6362       6361  
      6230       6231       6242       6241       6351       6352       6363       6362  
      6231       6232       6243       6242       6352       6353       6364       6363  
      6232       6233       6244       6243       6353       6354       6365       6364  
      6233       6234       6245       6244       6354       6355       6366       6365  
      6234       6235       6246       6245       6355       6356       6367       6366  
      6235       6236       6247       6246       6356       6357       6368       6367  
      6236       6237       6248       6247       6357       6358       6369       6368  
      6238       6239       6250       6249       6359       6360       6371       6370  
      6239       6240       6251       6250       6360       6361       6372       6371  
      6240       6241       6252       6251       6361       6362       6373       6372  
      6241       6242       6253       6252       6362       6363       6374       6373  
      6242       6243       6254       6253       6363       6364       6375       6374  
      6243       6244       6255       6254       6364       6365       6376       6375  
      6244       6245       6256       6255       6365       6366       6377       6376  
      6245       6246       6257       6256       6366       6367       6378       6377  
      6246       6247       6258       6257       6367       6368       6379       6378  
      6247       6248       6259       6258       6368       6369       6380       6379  
      6249       6250       6261       6260       6370       6371       6382       6381  
      6250       6251       6262       6261       6371       6372       6383       6382  
      6251       6252       6263       6262       6372       6373       6384       6383  
      6252       6253       6264       6263       6373       6374       6385       6384  
      6253       6254       6265       6264       6374       6375       6386       6385  
      6254       6255       6266       6265       6375       6376       6387       6386  
      6255       6256       6267       6266       6376       6377       6388       6387  
      6256       6257       6268       6267       6377       6378       6389       6388  
      6257       6258       6269       6268       6378       6379       6390       6389  
      6258       6259       6270       6269       6379       6380       6391       6390  
      6260       6261       6272       6271       6381       6382       6393       6392  
      6261       6262       6273       6272       6382       6383       6394       6393  
      6262       6263       6274       6273       6383       6384       6395       6394  
      6263       6264       6275       6274       6384       6385       6396       6395  
      6264       6265       6276       6275       6385       6386       6397       6396  
      6265       6266       6277       6276       6386       6387       6398       6397  
      6266       6267       6278       6277       6387       6388       6399       6398  
      6267       6268       6279       6278       6388       6389       6400       6399  
      6268       6269       6280       6279       6389       6390       6401       6400  
      6269       6270       6281       6280       6390       6391       6402       6401  
      6271       6272       6283       6282       6392       6393       6404       6403  
      6272       6273       6284       6283       6393       6394       6405       6404  
      6273       6274       6285       6284       6394       6395       6406       6405  
      6274       6275       6286       6285       6395       6396       6407       6406  
      6275       6276       6287       6286       6396       6397       6408       6407  
      6276       6277       6288       6287       6397       6398       6409       6408  
      6277       6278       6289       6288       6398       6399       6410       6409  
      6278       6279       6290       6289       6399       6400       6411       6410  
      6279       6280       6291       6290       6400       6401       6412       6411  
      6280       6281       6292       6291       6401       6402       6413       6412  
      6293       6294       6305       6304       6414       6415       6426       6425  
      6294       6295       6306       6305       6415       6416       6427       6426  
      6295       6296       6307       6306       6416       6417       6428       6427  
      6296       6297       6308       6307       6417       6418       6429       6428  
      6297       6298       6309       6308       6418       6419       6430       6429  
      6298       6299       6310       6309       6419       6420       6431       6430  
      6299       6300       6311       6310       6420       6421       6432       6431  
      6300       6301       6312       6311       6421       6422       6433       6432  
      6301       6302       6313       6312       6422       6423       6434       6433  
      6302       6303       6314       6313       6423       6424       6435       6434  
      6304       6305       6316       6315       6425       6426       6437       6436  
      6305       6306       6317       6316       6426       6427       6438       6437  
      6306       6307       6318       6317       6427       6428       6439       6438  
      6307       6308       6319       6318       6428       6429       6440       6439  
      6308       6309       6320       6319       6429       6430       6441       6440  
      6309       6310       6321       6320       6430       6431       6442       6441  
      6310       6311       6322       6321       6431       6432       6443       6442  
      6311       6312       6323       6322       6432       6433       6444       6443  
      6312       6313       6324       6323       6433       6434       6445       6444  
      6313       6314       6325       6324       6434       6435       6446       6445  
      6315       6316       6327       6326       6436       6437       6448       6447  
      6316       6317       6328       6327       6437       6438       6449       6448  
      6317       6318       6329       6328       6438       6439       6450       6449  
      6318       6319       6330       6329       6439       6440       6451       6450  
      6319       6320       6331       6330       6440       6441       6452       6451  
      6320       6321       6332       6331       6441       6442       6453       6452  
      6321       6322       6333       6332       6442       6443       6454       6453  
      6322       6323       6334       6333       6443       6444       6455       6454  
      6323       6324       6335       6334       6444       6445       6456       6455  
      6324       6325       6336       6335       6445       6446       6457       6456  
      6326       6327       6338       6337       6447       6448       6459       6458  
      6327       6328       6339       6338       6448       6449       6460       6459  
      6328       6329       6340       6339       6449       6450       6461       6460  
      6329       6330       6341       6340       6450       6451       6462       6461  
      6330       6331       6342       6341       6451       6452       6463       6462  
      6331       6332       6343       6342       6452       6453       6464       6463  
      6332       6333       6344       6343       6453       6454       6465       6464  
      6333       6334       6345       6344       6454       6455       6466       6465  
      6334       6335       6346       6345       6455       6456       6467       6466  
      6335       6336       6347       6346       6456       6457       6468       6467  
      6337       6338       6349       6348       6458       6459       6470       6469  
      6338       6339       6350       6349       6459       6460       6471       6470  
      6339       6340       6351       6350       6460       6461       6472       6471  
      6340       6341       6352       6351       6461       6462       6473       6472  
      6341       6342       6353       6352       6462       6463       6474       6473  
      6342       6343       6354       6353       6463       6464       6475       6474  
      6343       6344       6355       6354       6464       6465       6476       6475  
      6344       6345       6356       6355       6465       6466       6477       6476  
      6345       6346       6357       6356       6466       6467       6478       6477  
      6346       6347       6358       6357       6467       6468       6479       6478  
      6348       6349       6360       6359       6469       6470       6481       6480  
      6349       6350       6361       6360       6470       6471       6482       6481  
      6350       6351       6362       6361       6471       6472       6483       6482  
      6351       6352       6363       6362       6472       6473       6484       6483  
      6352       6353       6364       6363       6473       6474       6485       6484  
      6353       6354       6365       6364       6474       6475       6486       6485  
      6354       6355       6366       6365       6475       6476       6487       6486  
      6355       6356       6367       6366       6476       6477       6488       6487  
      6356       6357       6368       6367       6477       6478       6489       6488  
      6357       6358       6369       6368       6478       6479       6490       6489  
      6359       6360       6371       6370       6480       6481       6492       6491  
      6360       6361       6372       6371       6481       6482       6493       6492  
      6361       6362       6373       6372       6482       6483       6494       6493  
      6362       6363       6374       6373       6483       6484       6495       6494  
      6363       6364       6375       6374       6484       6485       6496       6495  
      6364       6365       6376       6375       6485       6486       6497       6496  
      6365       6366       6377       6376       6486       6487       6498       6497  
      6366       6367       6378       6377       6487       6488       6499       6498  
      6367       6368       6379       6378       6488       6489       6500       6499  
      6368       6369       6380       6379       6489       6490       6501       6500  
      6370       6371       6382       6381       6491       6492       6503       6502  
      6371       6372       6383       6382       6492       6493       6504       6503  
      6372       6373       6384       6383       6493       6494       6505       6504  
      6373       6374       6385       6384       6494       6495       6506       6505  
      6374       6375       6386       6385       6495       6496       6507       6506  
      6375       6376       6387       6386       6496       6497       6508       6507  
      6376       6377       6388       6387       6497       6498       6509       6508  
      6377       6378       6389       6388       6498       6499       6510       6509  
      6378       6379       6390       6389       6499       6500       6511       6510  
      6379       6380       6391       6390       6500       6501       6512       6511  
      6381       6382       6393       6392       6502       6503       6514       6513  
      6382       6383       6394       6393       6503       6504       6515       6514  
      6383       6384       6395       6394       6504       6505       6516       6515  
      6384       6385       6396       6395       6505       6506       6517       6516  
      6385       6386       6397       6396       6506       6507       6518       6517  
      6386       6387       6398       6397       6507       6508       6519       6518  
      6387       6388       6399       6398       6508       6509       6520       6519  
      6388       6389       6400       6399       6509       6510       6521       6520  
      6389       6390       6401       6400       6510       6511       6522       6521  
      6390       6391       6402       6401       6511       6512       6523       6522  
      6392       6393       6404       6403       6513       6514       6525       6524  
      6393       6394       6405       6404       6514       6515       6526       6525  
      6394       6395       6406       6405       6515       6516       6527       6526  
      6395       6396       6407       6406       6516       6517       6528       6527  
      6396       6397       6408       6407       6517       6518       6529       6528  
      6397       6398       6409       6408       6518       6519       6530       6529  
      6398       6399       6410       6409       6519       6520       6531       6530  
      6399       6400       6411       6410       6520       6521       6532       6531  
      6400       6401       6412       6411       6521       6522       6533       6532  
      6401       6402       6413       6412       6522       6523       6534       6533  
      6414       6415       6426       6425       6535       6536       6547       6546  
      6415       6416       6427       6426       6536       6537       6548       6547  
      6416       6417       6428       6427       6537       6538       6549       6548  
      6417       6418       6429       6428       6538       6539       6550       6549  
      6418       6419       6430       6429       6539       6540       6551       6550  
      6419       6420       6431       6430       6540       6541       6552       6551  
      6420       6421       6432       6431       6541       6542       6553       6552  
      6421       6422       6433       6432       6542       6543       6554       6553  
      6422       6423       6434       6433       6543       6544       6555       6554  
      6423       6424       6435       6434       6544       6545       6556       6555  
      6425       6426       6437       6436       6546       6547       6558       6557  
      6426       6427       6438       6437       6547       6548       6559       6558  
      6427       6428       6439       6438       6548       6549       6560       6559  
      6428       6429       6440       6439       6549       6550       6561       6560  
      6429       6430       6441       6440       6550       6551       6562       6561  
      6430       6431       6442       6441       6551       6552       6563       6562  
      6431       6432       6443       6442       6552       6553       6564       6563  
      6432       6433       6444       6443       6553       6554       6565       6564  
      6433       6434       6445       6444       6554       6555       6566       6565  
      6434       6435       6446       6445       6555       6556       6567       6566  
      6436       6437       6448       6447       6557       6558       6569       6568  
      6437       6438       6449       6448       6558       6559       6570       6569  
      6438       6439       6450       6449       6559       6560       6571       6570  
      6439       6440       6451       6450       6560       6561       6572       6571  
      6440       6441       6452       6451       6561       6562       6573       6572  
      6441       6442       6453       6452       6562       6563       6574       6573  
      6442       6443       6454       6453       6563       6564       6575       6574  
      6443       6444       6455       6454       6564       6565       6576       6575  
      6444       6445       6456       6455       6565       6566       6577       6576  
      6445       6446       6457       6456       6566       6567       6578       6577  
      6447       6448       6459       6458       6568       6569       6580       6579  
      6448       6449       6460       6459       6569       6570       6581       6580  
      6449       6450       6461       6460       6570       6571       6582       6581  
      6450       6451       6462       6461       6571       6572       6583       6582  
      6451       6452       6463       6462       6572       6573       6584       6583  
      6452       6453       6464       6463       6573       6574       6585       6584  
      6453       6454       6465       6464       6574       6575       6586       6585  
      6454       6455       6466       6465       6575       6576       6587       6586  
      6455       6456       6467       6466       6576       6577       6588       6587  
      6456       6457       6468       6467       6577       6578       6589       6588  
      6458       6459       6470       6469       6579       6580       6591       6590  
      6459       6460       6471       6470       6580       6581       6592       6591  
      6460       6461       6472       6471       6581       6582       6593       6592  
      6461       6462       6473       6472       6582       6583       6594       6593  
      6462       6463       6474       6473       6583       6584       6595       6594  
      6463       6464       6475       6474       6584       6585       6596       6595  
      6464       6465       6476       6475       6585       6586       6597       6596  
      6465       6466       6477       6476       6586       6587       6598       6597  
      6466       6467       6478       6477       6587       6588       6599       6598  
      6467       6468       6479       6478       6588       6589       6600       6599  
      6469       6470       6481       6480       6590       6591       6602       6601  
      6470       6471       6482       6481       6591       6592       6603       6602  
      6471       6472       6483       6482       6592       6593       6604       6603  
      6472       6473       6484       6483       6593       6594       6605       6604  
      6473       6474       6485       6484       6594       6595       6606       6605  
      6474       6475       6486       6485       6595       6596       6607       6606  
      6475       6476       6487       6486       6596       6597       6608       6607  
      6476       6477       6488       6487       6597       6598       6609       6608  
      6477       6478       6489       6488       6598       6599       6610       6609  
      6478       6479       6490       6489       6599       6600       6611       6610  
      6480       6481       6492       6491       6601       6602       6613       6612  
      6481       6482       6493       6492       6602       6603       6614       6613  
      6482       6483       6494       6493       6603       6604       6615       6614  
      6483       6484       6495       6494       6604       6605       6616       6615  
      6484       6485       6496       6495       6605       6606       6617       6616  
      6485       6486       6497       6496       6606       6607       6618       6617  
      6486       6487       6498       6497       6607       6608       6619       6618  
      6487       6488       6499       6498       6608       6609       6620       6619  
      6488       6489       6500       6499       6609       6610       6621       6620  
      6489       6490       6501       6500       6610       6611       6622       6621  
      6491       6492       6503       6502       6612       6613       6624       6623  
      6492       6493       6504       6503       6613       6614       6625       6624  
      6493       6494       6505       6504       6614       6615       6626       6625  
      6494       6495       6506       6505       6615       6616       6627       6626  
      6495       6496       6507       6506       6616       6617       6628       6627  
      6496       6497       6508       6507       6617       6618       6629       6628  
      6497       6498       6509       6508       6618       6619       6630       6629  
      6498       6499       6510       6509       6619       6620       6631       6630  
      6499       6500       6511       6510       6620       6621       6632       6631  
      6500       6501       6512       6511       6621       6622       6633       6632  
      6502       6503       6514       6513       6623       6624       6635       6634  
      6503       6504       6515       6514       6624       6625       6636       6635  
      6504       6505       6516       6515       6625       6626       6637       6636  
      6505       6506       6517       6516       6626       6627       6638       6637  
      6506       6507       6518       6517       6627       6628       6639       6638  
      6507       6508       6519       6518       6628       6629       6640       6639  
      6508       6509       6520       6519       6629       6630       6641       6640  
      6509       6510       6521       6520       6630       6631       6642       6641  
      6510       6511       6522       6521       6631       6632       6643       6642  
      6511       6512       6523       6522       6632       6633       6644       6643  
      6513       6514       6525       6524       6634       6635       6646       6645  
      6514       6515       6526       6525       6635       6636       6647       6646  
      6515       6516       6527       6526       6636       6637       6648       6647  
      6516       6517       6528       6527       6637       6638       6649       6648  
      6517       6518       6529       6528       6638       6639       6650       6649  
      6518       6519       6530       6529       6639       6640       6651       6650  
      6519       6520       6531       6530       6640       6641       6652       6651  
      6520       6521       6532       6531       6641       6642       6653       6652  
      6521       6522       6533       6532       6642       6643       6654       6653  
      6522       6523       6534       6533       6643       6644       6655       6654  
      6535       6536       6547       6546       6656       6657       6668       6667  
      6536       6537       6548       6547       6657       6658       6669       6668  
      6537       6538       6549       6548       6658       6659       6670       6669  
      6538       6539       6550       6549       6659       6660       6671       6670  
      6539       6540       6551       6550       6660       6661       6672       6671  
      6540       6541       6552       6551       6661       6662       6673       6672  
      6541       6542       6553       6552       6662       6663       6674       6673  
      6542       6543       6554       6553       6663       6664       6675       6674  
      6543       6544       6555       6554       6664       6665       6676       6675  
      6544       6545       6556       6555       6665       6666       6677       6676  
      6546       6547       6558       6557       6667       6668       6679       6678  
      6547       6548       6559       6558       6668       6669       6680       6679  
      6548       6549       6560       6559       6669       6670       6681       6680  
      6549       6550       6561       6560       6670       6671       6682       6681  
      6550       6551       6562       6561       6671       6672       6683       6682  
      6551       6552       6563       6562       6672       6673       6684       6683  
      6552       6553       6564       6563       6673       6674       6685       6684  
      6553       6554       6565       6564       6674       6675       6686       6685  
      6554       6555       6566       6565       6675       6676       6687       6686  
      6555       6556       6567       6566       6676       6677       6688       6687  
      6557       6558       6569       6568       6678       6679       6690       6689  
      6558       6559       6570       6569       6679       6680       6691       6690  
      6559       6560       6571       6570       6680       6681       6692       6691  
      6560       6561       6572       6571       6681       6682       6693       6692  
      6561       6562       6573       6572       6682       6683       6694       6693  
      6562       6563       6574       6573       6683       6684       6695       6694  
      6563       6564       6575       6574       6684       6685       6696       6695  
      6564       6565       6576       6575       6685       6686       6697       6696  
      6565       6566       6577       6576       6686       6687       6698       6697  
      6566       6567       6578       6577       6687       6688       6699       6698  
      6568       6569       6580       6579       6689       6690       6701       6700  
      6569       6570       6581       6580       6690       6691       6702       6701  
      6570       6571       6582       6581       6691       6692       6703       6702  
      6571       6572       6583       6582       6692       6693       6704       6703  
      6572       6573       6584       6583       6693       6694       6705       6704  
      6573       6574       6585       6584       6694       6695       6706       6705  
      6574       6575       6586       6585       6695       6696       6707       6706  
      6575       6576       6587       6586       6696       6697       6708       6707  
      6576       6577       6588       6587       6697       6698       6709       6708  
      6577       6578       6589       6588       6698       6699       6710       6709  
      6579       6580       6591       6590       6700       6701       6712       6711  
      6580       6581       6592       6591       6701       6702       6713       6712  
      6581       6582       6593       6592       6702       6703       6714       6713  
      6582       6583       6594       6593       6703       6704       6715       6714  
      6583       6584       6595       6594       6704       6705       6716       6715  
      6584       6585       6596       6595       6705       6706       6717       6716  
      6585       6586       6597       6596       6706       6707       6718       6717  
      6586       6587       6598       6597       6707       6708       6719       6718  
      6587       6588       6599       6598       6708       6709       6720       6719  
      6588       6589       6600       6599       6709       6710       6721       6720  
      6590       6591       6602       6601       6711       6712       6723       6722  
      6591       6592       6603       6602       6712       6713       6724       6723  
      6592       6593       6604       6603       6713       6714       6725       6724  
      6593       6594       6605       6604       6714       6715       6726       6725  
      6594       6595       6606       6605       6715       6716       6727       6726  
      6595       6596       6607       6606       6716       6717       6728       6727  
      6596       6597       6608       6607       6717       6718       6729       6728  
      6597       6598       6609       6608       6718       6719       6730       6729  
      6598       6599       6610       6609       6719       6720       6731       6730  
      6599       6600       6611       6610       6720       6721       6732       6731  
      6601       6602       6613       6612       6722       6723       6734       6733  
      6602       6603       6614       6613       6723       6724       6735       6734  
      6603       6604       6615       6614       6724       6725       6736       6735  
      6604       6605       6616       6615       6725       6726       6737       6736  
      6605       6606       6617       6616       6726       6727       6738       6737  
      6606       6607       6618       6617       6727       6728       6739       6738  
      6607       6608       6619       6618       6728       6729       6740       6739  
      6608       6609       6620       6619       6729       6730       6741       6740  
      6609       6610       6621       6620       6730       6731       6742       6741  
      6610       6611       6622       6621       6731       6732       6743       6742  
      6612       6613       6624       6623       6733       6734       6745       6744  
      6613       6614       6625       6624       6734       6735       6746       6745  
      6614       6615       6626       6625       6735       6736       6747       6746  
      6615       6616       6627       6626       6736       6737       6748       6747  
      6616       6617       6628       6627       6737       6738       6749       6748  
      6617       6618       6629       6628       6738       6739       6750       6749  
      6618       6619       6630       6629       6739       6740       6751       6750  
      6619       6620       6631       6630       6740       6741       6752       6751  
      6620       6621       6632       6631       6741       6742       6753       6752  
      6621       6622       6633       6632       6742       6743       6754       6753  
      6623       6624       6635       6634       6744       6745       6756       6755  
      6624       6625       6636       6635       6745       6746       6757       6756  
      6625       6626       6637       6636       6746       6747       6758       6757  
      6626       6627       6638       6637       6747       6748       6759       6758  
      6627       6628       6639       6638       6748       6749       6760       6759  
      6628       6629       6640       6639       6749       6750       6761       6760  
      6629       6630       6641       6640       6750       6751       6762       6761  
      6630       6631       6642       6641       6751       6752       6763       6762  
      6631       6632       6643       6642       6752       6753       6764       6763  
      6632       6633       6644       6643       6753       6754       6765       6764  
      6634       6635       6646       6645       6755       6756       6767       6766  
      6635       6636       6647       6646       6756       6757       6768       6767  
      6636       6637       6648       6647       6757       6758       6769       6768  
      6637       6638       6649       6648       6758       6759       6770       6769  
      6638       6639       6650       6649       6759       6760       6771       6770  
      6639       6640       6651       6650       6760       6761       6772       6771  
      6640       6641       6652       6651       6761       6762       6773       6772  
      6641       6642       6653       6652       6762       6763       6774       6773  
      6642       6643       6654       6653       6763       6764       6775       6774  
      6643       6644       6655       6654       6764       6765       6776       6775  
      6656       6657       6668       6667       6777       6778       6789       6788  
      6657       6658       6669       6668       6778       6779       6790       6789  
      6658       6659       6670       6669       6779       6780       6791       6790  
      6659       6660       6671       6670       6780       6781       6792       6791  
      6660       6661       6672       6671       6781       6782       6793       6792  
      6661       6662       6673       6672       6782       6783       6794       6793  
      6662       6663       6674       6673       6783       6784       6795       6794  
      6663       6664       6675       6674       6784       6785       6796       6795  
      6664       6665       6676       6675       6785       6786       6797       6796  
      6665       6666       6677       6676       6786       6787       6798       6797  
      6667       6668       6679       6678       6788       6789       6800       6799  
      6668       6669       6680       6679       6789       6790       6801       6800  
      6669       6670       6681       6680       6790       6791       6802       6801  
      6670       6671       6682       6681       6791       6792       6803       6802  
      6671       6672       6683       6682       6792       6793       6804       6803  
      6672       6673       6684       6683       6793       6794       6805       6804  
      6673       6674       6685       6684       6794       6795       6806       6805  
      6674       6675       6686       6685       6795       6796       6807       6806  
      6675       6676       6687       6686       6796       6797       6808       6807  
      6676       6677       6688       6687       6797       6798       6809       6808  
      6678       6679       6690       6689       6799       6800       6811       6810  
      6679       6680       6691       6690       6800       6801       6812       6811  
      6680       6681       6692       6691       6801       6802       6813       6812  
      6681       6682       6693       6692       6802       6803       6814       6813  
      6682       6683       6694       6693       6803       6804       6815       6814  
      6683       6684       6695       6694       6804       6805       6816       6815  
      6684       6685       6696       6695       6805       6806       6817       6816  
      6685       6686       6697       6696       6806       6807       6818       6817  
      6686       6687       6698       6697       6807       6808       6819       6818  
      6687       6688       6699       6698       6808       6809       6820       6819  
      6689       6690       6701       6700       6810       6811       6822       6821  
      6690       6691       6702       6701       6811       6812       6823       6822  
      6691       6692       6703       6702       6812       6813       6824       6823  
      6692       6693       6704       6703       6813       6814       6825       6824  
      6693       6694       6705       6704       6814       6815       6826       6825  
      6694       6695       6706       6705       6815       6816       6827       6826  
      6695       6696       6707       6706       6816       6817       6828       6827  
      6696       6697       6708       6707       6817       6818       6829       6828  
      6697       6698       6709       6708       6818       6819       6830       6829  
      6698       6699       6710       6709       6819       6820       6831       6830  
      6700       6701       6712       6711       6821       6822       6833       6832  
      6701       6702       6713       6712       6822       6823       6834       6833  
      6702       6703       6714       6713       6823       6824       6835       6834  
      6703       6704       6715       6714       6824       6825       6836       6835  
      6704       6705       6716       6715       6825       6826       6837       6836  
      6705       6706       6717       6716       6826       6827       6838       6837  
      6706       6707       6718       6717       6827       6828       6839       6838  
      6707       6708       6719       6718       6828       6829       6840       6839  
      6708       6709       6720       6719       6829       6830       6841       6840  
      6709       6710       6721       6720       6830       6831       6842       6841  
      6711       6712       6723       6722       6832       6833       6844       6843  
      6712       6713       6724       6723       6833       6834       6845       6844  
      6713       6714       6725       6724       6834       6835       6846       6845  
      6714       6715       6726       6725       6835       6836       6847       6846  
      6715       6716       6727       6726       6836       6837       6848       6847  
      6716       6717       6728       6727       6837       6838       6849       6848  
      6717       6718       6729       6728       6838       6839       6850       6849  
      6718       6719       6730       6729       6839       6840       6851       6850  
      6719       6720       6731       6730       6840       6841       6852       6851  
      6720       6721       6732       6731       6841       6842       6853       6852  
      6722       6723       6734       6733       6843       6844       6855       6854  
      6723       6724       6735       6734       6844       6845       6856       6855  
      6724       6725       6736       6735       6845       6846       6857       6856  
      6725       6726       6737       6736       6846       6847       6858       6857  
      6726       6727       6738       6737       6847       6848       6859       6858  
      6727       6728       6739       6738       6848       6849       6860       6859  
      6728       6729       6740       6739       6849       6850       6861       6860  
      6729       6730       6741       6740       6850       6851       6862       6861  
      6730       6731       6742       6741       6851       6852       6863       6862  
      6731       6732       6743       6742       6852       6853       6864       6863  
      6733       6734       6745       6744       6854       6855       6866       6865  
      6734       6735       6746       6745       6855       6856       6867       6866  
      6735       6736       6747       6746       6856       6857       6868       6867  
      6736       6737       6748       6747       6857       6858       6869       6868  
      6737       6738       6749       6748       6858       6859       6870       6869  
      6738       6739       6750       6749       6859       6860       6871       6870  
      6739       6740       6751       6750       6860       6861       6872       6871  
      6740       6741       6752       6751       6861       6862       6873       6872  
      6741       6742       6753       6752       6862       6863       6874       6873  
      6742       6743       6754       6753       6863       6864       6875       6874  
      6744       6745       6756       6755       6865       6866       6877       6876  
      6745       6746       6757       6756       6866       6867       6878       6877  
      6746       6747       6758       6757       6867       6868       6879       6878  
      6747       6748       6759       6758       6868       6869       6880       6879  
      6748       6749       6760       6759       6869       6870       6881       6880  
      6749       6750       6761       6760       6870       6871       6882       6881  
      6750       6751       6762       6761       6871       6872       6883       6882  
      6751       6752       6763       6762       6872       6873       6884       6883  
      6752       6753       6764       6763       6873       6874       6885       6884  
      6753       6754       6765       6764       6874       6875       6886       6885  
      6755       6756       6767       6766       6876       6877       6888       6887  
      6756       6757       6768       6767       6877       6878       6889       6888  
      6757       6758       6769       6768       6878       6879       6890       6889  
      6758       6759       6770       6769       6879       6880       6891       6890  
      6759       6760       6771       6770       6880       6881       6892       6891  
      6760       6761       6772       6771       6881       6882       6893       6892  
      6761       6762       6773       6772       6882       6883       6894       6893  
      6762       6763       6774       6773       6883       6884       6895       6894  
      6763       6764       6775       6774       6884       6885       6896       6895  
      6764       6765       6776       6775       6885       6886       6897       6896  
      6777       6778       6789       6788       6898       6899       6910       6909  
      6778       6779       6790       6789       6899       6900       6911       6910  
      6779       6780       6791       6790       6900       6901       6912       6911  
      6780       6781       6792       6791       6901       6902       6913       6912  
      6781       6782       6793       6792       6902       6903       6914       6913  
      6782       6783       6794       6793       6903       6904       6915       6914  
      6783       6784       6795       6794       6904       6905       6916       6915  
      6784       6785       6796       6795       6905       6906       6917       6916  
      6785       6786       6797       6796       6906       6907       6918       6917  
      6786       6787       6798       6797       6907       6908       6919       6918  
      6788       6789       6800       6799       6909       6910       6921       6920  
      6789       6790       6801       6800       6910       6911       6922       6921  
      6790       6791       6802       6801       6911       6912       6923       6922  
      6791       6792       6803       6802       6912       6913       6924       6923  
      6792       6793       6804       6803       6913       6914       6925       6924  
      6793       6794       6805       6804       6914       6915       6926       6925  
      6794       6795       6806       6805       6915       6916       6927       6926  
      6795       6796       6807       6806       6916       6917       6928       6927  
      6796       6797       6808       6807       6917       6918       6929       6928  
      6797       6798       6809       6808       6918       6919       6930       6929  
      6799       6800       6811       6810       6920       6921       6932       6931  
      6800       6801       6812       6811       6921       6922       6933       6932  
      6801       6802       6813       6812       6922       6923       6934       6933  
      6802       6803       6814       6813       6923       6924       6935       6934  
      6803       6804       6815       6814       6924       6925       6936       6935  
      6804       6805       6816       6815       6925       6926       6937       6936  
      6805       6806       6817       6816       6926       6927       6938       6937  
      6806       6807       6818       6817       6927       6928       6939       6938  
      6807       6808       6819       6818       6928       6929       6940       6939  
      6808       6809       6820       6819       6929       6930       6941       6940  
      6810       6811       6822       6821       6931       6932       6943       6942  
      6811       6812       6823       6822       6932       6933       6944       6943  
      6812       6813       6824       6823       6933       6934       6945       6944  
      6813       6814       6825       6824       6934       6935       6946       6945  
      6814       6815       6826       6825       6935       6936       6947       6946  
      6815       6816       6827       6826       6936       6937       6948       6947  
      6816       6817       6828       6827       6937       6938       6949       6948  
      6817       6818       6829       6828       6938       6939       6950       6949  
      6818       6819       6830       6829       6939       6940       6951       6950  
      6819       6820       6831       6830       6940       6941       6952       6951  
      6821       6822       6833       6832       6942       6943       6954       6953  
      6822       6823       6834       6833       6943       6944       6955       6954  
      6823       6824       6835       6834       6944       6945       6956       6955  
      6824       6825       6836       6835       6945       6946       6957       6956  
      6825       6826       6837       6836       6946       6947       6958       6957  
      6826       6827       6838       6837       6947       6948       6959       6958  
      6827       6828       6839       6838       6948       6949       6960       6959  
      6828       6829       6840       6839       6949       6950       6961       6960  
      6829       6830       6841       6840       6950       6951       6962       6961  
      6830       6831       6842       6841       6951       6952       6963       6962  
      6832       6833       6844       6843       6953       6954       6965       6964  
      6833       6834       6845       6844       6954       6955       6966       6965  
      6834       6835       6846       6845       6955       6956       6967       6966  
      6835       6836       6847       6846       6956       6957       6968       6967  
      6836       6837       6848       6847       6957       6958       6969       6968  
      6837       6838       6849       6848       6958       6959       6970       6969  
      6838       6839       6850       6849       6959       6960       6971       6970  
      6839       6840       6851       6850       6960       6961       6972       6971  
      6840       6841       6852       6851       6961       6962       6973       6972  
      6841       6842       6853       6852       6962       6963       6974       6973  
      6843       6844       6855       6854       6964       6965       6976       6975  
      6844       6845       6856       6855       6965       6966       6977       6976  
      6845       6846       6857       6856       6966       6967       6978       6977  
      6846       6847       6858       6857       6967       6968       6979       6978  
      6847       6848       6859       6858       6968       6969       6980       6979  
      6848       6849       6860       6859       6969       6970       6981       6980  
      6849       6850       6861       6860       6970       6971       6982       6981  
      6850       6851       6862       6861       6971       6972       6983       6982  
      6851       6852       6863       6862       6972       6973       6984       6983  
      6852       6853       6864       6863       6973       6974       6985       6984  
      6854       6855       6866       6865       6975       6976       6987       6986  
      6855       6856       6867       6866       6976       6977       6988       6987  
      6856       6857       6868       6867       6977       6978       6989       6988  
      6857       6858       6869       6868       6978       6979       6990       6989  
      6858       6859       6870       6869       6979       6980       6991       6990  
      6859       6860       6871       6870       6980       6981       6992       6991  
      6860       6861       6872       6871       6981       6982       6993       6992  
      6861       6862       6873       6872       6982       6983       6994       6993  
      6862       6863       6874       6873       6983       6984       6995       6994  
      6863       6864       6875       6874       6984       6985       6996       6995  
      6865       6866       6877       6876       6986       6987       6998       6997  
      6866       6867       6878       6877       6987       6988       6999       6998  
      6867       6868       6879       6878       6988       6989       7000       6999  
      6868       6869       6880       6879       6989       6990       7001       7000  
      6869       6870       6881       6880       6990       6991       7002       7001  
      6870       6871       6882       6881       6991       6992       7003       7002  
      6871       6872       6883       6882       6992       6993       7004       7003  
      6872       6873       6884       6883       6993       6994       7005       7004  
      6873       6874       6885       6884       6994       6995       7006       7005  
      6874       6875       6886       6885       6995       6996       7007       7006  
      6876       6877       6888       6887       6997       6998       7009       7008  
      6877       6878       6889       6888       6998       6999       7010       7009  
      6878       6879       6890       6889       6999       7000       7011       7010  
      6879       6880       6891       6890       7000       7001       7012       7011  
      6880       6881       6892       6891       7001       7002       7013       7012  
      6881       6882       6893       6892       7002       7003       7014       7013  
      6882       6883       6894       6893       7003       7004       7015       7014  
      6883       6884       6895       6894       7004       7005       7016       7015  
      6884       6885       6896       6895       7005       7006       7017       7016  
      6885       6886       6897       6896       7006       7007       7018       7017  
      6898       6899       6910       6909       7019       7020       7031       7030  
      6899       6900       6911       6910       7020       7021       7032       7031  
      6900       6901       6912       6911       7021       7022       7033       7032  
      6901       6902       6913       6912       7022       7023       7034       7033  
      6902       6903       6914       6913       7023       7024       7035       7034  
      6903       6904       6915       6914       7024       7025       7036       7035  
      6904       6905       6916       6915       7025       7026       7037       7036  
      6905       6906       6917       6916       7026       7027       7038       7037  
      6906       6907       6918       6917       7027       7028       7039       7038  
      6907       6908       6919       6918       7028       7029       7040       7039  
      6909       6910       6921       6920       7030       7031       7042       7041  
      6910       6911       6922       6921       7031       7032       7043       7042  
      6911       6912       6923       6922       7032       7033       7044       7043  
      6912       6913       6924       6923       7033       7034       7045       7044  
      6913       6914       6925       6924       7034       7035       7046       7045  
      6914       6915       6926       6925       7035       7036       7047       7046  
      6915       6916       6927       6926       7036       7037       7048       7047  
      6916       6917       6928       6927       7037       7038       7049       7048  
      6917       6918       6929       6928       7038       7039       7050       7049  
      6918       6919       6930       6929       7039       7040       7051       7050  
      6920       6921       6932       6931       7041       7042       7053       7052  
      6921       6922       6933       6932       7042       7043       7054       7053  
      6922       6923       6934       6933       7043       7044       7055       7054  
      6923       6924       6935       6934       7044       7045       7056       7055  
      6924       6925       6936       6935       7045       7046       7057       7056  
      6925       6926       6937       6936       7046       7047       7058       7057  
      6926       6927       6938       6937       7047       7048       7059       7058  
      6927       6928       6939       6938       7048       7049       7060       7059  
      6928       6929       6940       6939       7049       7050       7061       7060  
      6929       6930       6941       6940       7050       7051       7062       7061  
      6931       6932       6943       6942       7052       7053       7064       7063  
      6932       6933       6944       6943       7053       7054       7065       7064  
      6933       6934       6945       6944       7054       7055       7066       7065  
      6934       6935       6946       6945       7055       7056       7067       7066  
      6935       6936       6947       6946       7056       7057       7068       7067  
      6936       6937       6948       6947       7057       7058       7069       7068  
      6937       6938       6949       6948       7058       7059       7070       7069  
      6938       6939       6950       6949       7059       7060       7071       7070  
      6939       6940       6951       6950       7060       7061       7072       7071  
      6940       6941       6952       6951       7061       7062       7073       7072  
      6942       6943       6954       6953       7063       7064       7075       7074  
      6943       6944       6955       6954       7064       7065       7076       7075  
      6944       6945       6956       6955       7065       7066       7077       7076  
      6945       6946       6957       6956       7066       7067       7078       7077  
      6946       6947       6958       6957       7067       7068       7079       7078  
      6947       6948       6959       6958       7068       7069       7080       7079  
      6948       6949       6960       6959       7069       7070       7081       7080  
      6949       6950       6961       6960       7070       7071       7082       7081  
      6950       6951       6962       6961       7071       7072       7083       7082  
      6951       6952       6963       6962       7072       7073       7084       7083  
      6953       6954       6965       6964       7074       7075       7086       7085  
      6954       6955       6966       6965       7075       7076       7087       7086  
      6955       6956       6967       6966       7076       7077       7088       7087  
      6956       6957       6968       6967       7077       7078       7089       7088  
      6957       6958       6969       6968       7078       7079       7090       7089  
      6958       6959       6970       6969       7079       7080       7091       7090  
      6959       6960       6971       6970       7080       7081       7092       7091  
      6960       6961       6972       6971       7081       7082       7093       7092  
      6961       6962       6973       6972       7082       7083       7094       7093  
      6962       6963       6974       6973       7083       7084       7095       7094  
      6964       6965       6976       6975       7085       7086       7097       7096  
      6965       6966       6977       6976       7086       7087       7098       7097  
      6966       6967       6978       6977       7087       7088       7099       7098  
      6967       6968       6979       6978       7088       7089       7100       7099  
      6968       6969       6980       6979       7089       7090       7101       7100  
      6969       6970       6981       6980       7090       7091       7102       7101  
      6970       6971       6982       6981       7091       7092       7103       7102  
      6971       6972       6983       6982       7092       7093       7104       7103  
      6972       6973       6984       6983       7093       7094       7105       7104  
      6973       6974       6985       6984       7094       7095       7106       7105  
      6975       6976       6987       6986       7096       7097       7108       7107  
      6976       6977       6988       6987       7097       7098       7109       7108  
      6977       6978       6989       6988       7098       7099       7110       7109  
      6978       6979       6990       6989       7099       7100       7111       7110  
      6979       6980       6991       6990       7100       7101       7112       7111  
      6980       6981       6992       6991       7101       7102       7113       7112  
      6981       6982       6993       6992       7102       7103       7114       7113  
      6982       6983       6994       6993       7103       7104       7115       7114  
      6983       6984       6995       6994       7104       7105       7116       7115  
      6984       6985       6996       6995       7105       7106       7117       7116  
      6986       6987       6998       6997       7107       7108       7119       7118  
      6987       6988       6999       6998       7108       7109       7120       7119  
      6988       6989       7000       6999       7109       7110       7121       7120  
      6989       6990       7001       7000       7110       7111       7122       7121  
      6990       6991       7002       7001       7111       7112       7123       7122  
      6991       6992       7003       7002       7112       7113       7124       7123  
      6992       6993       7004       7003       7113       7114       7125       7124  
      6993       6994       7005       7004       7114       7115       7126       7125  
      6994       6995       7006       7005       7115       7116       7127       7126  
      6995       6996       7007       7006       7116       7117       7128       7127  
      6997       6998       7009       7008       7118       7119       7130       7129  
      6998       6999       7010       7009       7119       7120       7131       7130  
      6999       7000       7011       7010       7120       7121       7132       7131  
      7000       7001       7012       7011       7121       7122       7133       7132  
      7001       7002       7013       7012       7122       7123       7134       7133  
      7002       7003       7014       7013       7123       7124       7135       7134  
      7003       7004       7015       7014       7124       7125       7136       7135  
      7004       7005       7016       7015       7125       7126       7137       7136  
      7005       7006       7017       7016       7126       7127       7138       7137  
      7006       7007       7018       7017       7127       7128       7139       7138  
      7019       7020       7031       7030       7140       7141       7152       7151  
      7020       7021       7032       7031       7141       7142       7153       7152  
      7021       7022       7033       7032       7142       7143       7154       7153  
      7022       7023       7034       7033       7143       7144       7155       7154  
      7023       7024       7035       7034       7144       7145       7156       7155  
      7024       7025       7036       7035       7145       7146       7157       7156  
      7025       7026       7037       7036       7146       7147       7158       7157  
      7026       7027       7038       7037       7147       7148       7159       7158  
      7027       7028       7039       7038       7148       7149       7160       7159  
      7028       7029       7040       7039       7149       7150       7161       7160  
      7030       7031       7042       7041       7151       7152       7163       7162  
      7031       7032       7043       7042       7152       7153       7164       7163  
      7032       7033       7044       7043       7153       7154       7165       7164  
      7033       7034       7045       7044       7154       7155       7166       7165  
      7034       7035       7046       7045       7155       7156       7167       7166  
      7035       7036       7047       7046       7156       7157       7168       7167  
      7036       7037       7048       7047       7157       7158       7169       7168  
      7037       7038       7049       7048       7158       7159       7170       7169  
      7038       7039       7050       7049       7159       7160       7171       7170  
      7039       7040       7051       7050       7160       7161       7172       7171  
      7041       7042       7053       7052       7162       7163       7174       7173  
      7042       7043       7054       7053       7163       7164       7175       7174  
      7043       7044       7055       7054       7164       7165       7176       7175  
      7044       7045       7056       7055       7165       7166       7177       7176  
      7045       7046       7057       7056       7166       7167       7178       7177  
      7046       7047       7058       7057       7167       7168       7179       7178  
      7047       7048       7059       7058       7168       7169       7180       7179  
      7048       7049       7060       7059       7169       7170       7181       7180  
      7049       7050       7061       7060       7170       7171       7182       7181  
      7050       7051       7062       7061       7171       7172       7183       7182  
      7052       7053       7064       7063       7173       7174       7185       7184  
      7053       7054       7065       7064       7174       7175       7186       7185  
      7054       7055       7066       7065       7175       7176       7187       7186  
      7055       7056       7067       7066       7176       7177       7188       7187  
      7056       7057       7068       7067       7177       7178       7189       7188  
      7057       7058       7069       7068       7178       7179       7190       7189  
      7058       7059       7070       7069       7179       7180       7191       7190  
      7059       7060       7071       7070       7180       7181       7192       7191  
      7060       7061       7072       7071       7181       7182       7193       7192  
      7061       7062       7073       7072       7182       7183       7194       7193  
      7063       7064       7075       7074       7184       7185       7196       7195  
      7064       7065       7076       7075       7185       7186       7197       7196  
      7065       7066       7077       7076       7186       7187       7198       7197  
      7066       7067       7078       7077       7187       7188       7199       7198  
      7067       7068       7079       7078       7188       7189       7200       7199  
      7068       7069       7080       7079       7189       7190       7201       7200  
      7069       7070       7081       7080       7190       7191       7202       7201  
      7070       7071       7082       7081       7191       7192       7203       7202  
      7071       7072       7083       7082       7192       7193       7204       7203  
      7072       7073       7084       7083       7193       7194       7205       7204  
      7074       7075       7086       7085       7195       7196       7207       7206  
      7075       7076       7087       7086       7196       7197       7208       7207  
      7076       7077       7088       7087       7197       7198       7209       7208  
      7077       7078       7089       7088       7198       7199       7210       7209  
      7078       7079       7090       7089       7199       7200       7211       7210  
      7079       7080       7091       7090       7200       7201       7212       7211  
      7080       7081       7092       7091       7201       7202       7213       7212  
      7081       7082       7093       7092       7202       7203       7214       7213  
      7082       7083       7094       7093       7203       7204       7215       7214  
      7083       7084       7095       7094       7204       7205       7216       7215  
      7085       7086       7097       7096       7206       7207       7218       7217  
      7086       7087       7098       7097       7207       7208       7219       7218  
      7087       7088       7099       7098       7208       7209       7220       7219  
      7088       7089       7100       7099       7209       7210       7221       7220  
      7089       7090       7101       7100       7210       7211       7222       7221  
      7090       7091       7102       7101       7211       7212       7223       7222  
      7091       7092       7103       7102       7212       7213       7224       7223  
      7092       7093       7104       7103       7213       7214       7225       7224  
      7093       7094       7105       7104       7214       7215       7226       7225  
      7094       7095       7106       7105       7215       7216       7227       7226  
      7096       7097       7108       7107       7217       7218       7229       7228  
      7097       7098       7109       7108       7218       7219       7230       7229  
      7098       7099       7110       7109       7219       7220       7231       7230  
      7099       7100       7111       7110       7220       7221       7232       7231  
      7100       7101       7112       7111       7221       7222       7233       7232  
      7101       7102       7113       7112       7222       7223       7234       7233  
      7102       7103       7114       7113       7223       7224       7235       7234  
      7103       7104       7115       7114       7224       7225       7236       7235  
      7104       7105       7116       7115       7225       7226       7237       7236  
      7105       7106       7117       7116       7226       7227       7238       7237  
      7107       7108       7119       7118       7228       7229       7240       7239  
      7108       7109       7120       7119       7229       7230       7241       7240  
      7109       7110       7121       7120       7230       7231       7242       7241  
      7110       7111       7122       7121       7231       7232       7243       7242  
      7111       7112       7123       7122       7232       7233       7244       7243  
      7112       7113       7124       7123       7233       7234       7245       7244  
      7113       7114       7125       7124       7234       7235       7246       7245  
      7114       7115       7126       7125       7235       7236       7247       7246  
      7115       7116       7127       7126       7236       7237       7248       7247  
      7116       7117       7128       7127       7237       7238       7249       7248  
      7118       7119       7130       7129       7239       7240       7251       7250  
      7119       7120       7131       7130       7240       7241       7252       7251  
      7120       7121       7132       7131       7241       7242       7253       7252  
      7121       7122       7133       7132       7242       7243       7254       7253  
      7122       7123       7134       7133       7243       7244       7255       7254  
      7123       7124       7135       7134       7244       7245       7256       7255  
      7124       7125       7136       7135       7245       7246       7257       7256  
      7125       7126       7137       7136       7246       7247       7258       7257  
      7126       7127       7138       7137       7247       7248       7259       7258  
      7127       7128       7139       7138       7248       7249       7260       7259  
      7140       7141       7152       7151       7261       7262       7273       7272  
      7141       7142       7153       7152       7262       7263       7274       7273  
      7142       7143       7154       7153       7263       7264       7275       7274  
      7143       7144       7155       7154       7264       7265       7276       7275  
      7144       7145       7156       7155       7265       7266       7277       7276  
      7145       7146       7157       7156       7266       7267       7278       7277  
      7146       7147       7158       7157       7267       7268       7279       7278  
      7147       7148       7159       7158       7268       7269       7280       7279  
      7148       7149       7160       7159       7269       7270       7281       7280  
      7149       7150       7161       7160       7270       7271       7282       7281  
      7151       7152       7163       7162       7272       7273       7284       7283  
      7152       7153       7164       7163       7273       7274       7285       7284  
      7153       7154       7165       7164       7274       7275       7286       7285  
      7154       7155       7166       7165       7275       7276       7287       7286  
      7155       7156       7167       7166       7276       7277       7288       7287  
      7156       7157       7168       7167       7277       7278       7289       7288  
      7157       7158       7169       7168       7278       7279       7290       7289  
      7158       7159       7170       7169       7279       7280       7291       7290  
      7159       7160       7171       7170       7280       7281       7292       7291  
      7160       7161       7172       7171       7281       7282       7293       7292  
      7162       7163       7174       7173       7283       7284       7295       7294  
      7163       7164       7175       7174       7284       7285       7296       7295  
      7164       7165       7176       7175       7285       7286       7297       7296  
      7165       7166       7177       7176       7286       7287       7298       7297  
      7166       7167       7178       7177       7287       7288       7299       7298  
      7167       7168       7179       7178       7288       7289       7300       7299  
      7168       7169       7180       7179       7289       7290       7301       7300  
      7169       7170       7181       7180       7290       7291       7302       7301  
      7170       7171       7182       7181       7291       7292       7303       7302  
      7171       7172       7183       7182       7292       7293       7304       7303  
      7173       7174       7185       7184       7294       7295       7306       7305  
      7174       7175       7186       7185       7295       7296       7307       7306  
      7175       7176       7187       7186       7296       7297       7308       7307  
      7176       7177       7188       7187       7297       7298       7309       7308  
      7177       7178       7189       7188       7298       7299       7310       7309  
      7178       7179       7190       7189       7299       7300       7311       7310  
      7179       7180       7191       7190       7300       7301       7312       7311  
      7180       7181       7192       7191       7301       7302       7313       7312  
      7181       7182       7193       7192       7302       7303       7314       7313  
      7182       7183       7194       7193       7303       7304       7315       7314  
      7184       7185       7196       7195       7305       7306       7317       7316  
      7185       7186       7197       7196       7306       7307       7318       7317  
      7186       7187       7198       7197       7307       7308       7319       7318  
      7187       7188       7199       7198       7308       7309       7320       7319  
      7188       7189       7200       7199       7309       7310       7321       7320  
      7189       7190       7201       7200       7310       7311       7322       7321  
      7190       7191       7202       7201       7311       7312       7323       7322  
      7191       7192       7203       7202       7312       7313       7324       7323  
      7192       7193       7204       7203       7313       7314       7325       7324  
      7193       7194       7205       7204       7314       7315       7326       7325  
      7195       7196       7207       7206       7316       7317       7328       7327  
      7196       7197       7208       7207       7317       7318       7329       7328  
      7197       7198       7209       7208       7318       7319       7330       7329  
      7198       7199       7210       7209       7319       7320       7331       7330  
      7199       7200       7211       7210       7320       7321       7332       7331  
      7200       7201       7212       7211       7321       7322       7333       7332  
      7201       7202       7213       7212       7322       7323       7334       7333  
      7202       7203       7214       7213       7323       7324       7335       7334  
      7203       7204       7215       7214       7324       7325       7336       7335  
      7204       7205       7216       7215       7325       7326       7337       7336  
      7206       7207       7218       7217       7327       7328       7339       7338  
      7207       7208       7219       7218       7328       7329       7340       7339  
      7208       7209       7220       7219       7329       7330       7341       7340  
      7209       7210       7221       7220       7330       7331       7342       7341  
      7210       7211       7222       7221       7331       7332       7343       7342  
      7211       7212       7223       7222       7332       7333       7344       7343  
      7212       7213       7224       7223       7333       7334       7345       7344  
      7213       7214       7225       7224       7334       7335       7346       7345  
      7214       7215       7226       7225       7335       7336       7347       7346  
      7215       7216       7227       7226       7336       7337       7348       7347  
      7217       7218       7229       7228       7338       7339       7350       7349  
      7218       7219       7230       7229       7339       7340       7351       7350  
      7219       7220       7231       7230       7340       7341       7352       7351  
      7220       7221       7232       7231       7341       7342       7353       7352  
      7221       7222       7233       7232       7342       7343       7354       7353  
      7222       7223       7234       7233       7343       7344       7355       7354  
      7223       7224       7235       7234       7344       7345       7356       7355  
      7224       7225       7236       7235       7345       7346       7357       7356  
      7225       7226       7237       7236       7346       7347       7358       7357  
      7226       7227       7238       7237       7347       7348       7359       7358  
      7228       7229       7240       7239       7349       7350       7361       7360  
      7229       7230       7241       7240       7350       7351       7362       7361  
      7230       7231       7242       7241       7351       7352       7363       7362  
      7231       7232       7243       7242       7352       7353       7364       7363  
      7232       7233       7244       7243       7353       7354       7365       7364  
      7233       7234       7245       7244       7354       7355       7366       7365  
      7234       7235       7246       7245       7355       7356       7367       7366  
      7235       7236       7247       7246       7356       7357       7368       7367  
      7236       7237       7248       7247       7357       7358       7369       7368  
      7237       7238       7249       7248       7358       7359       7370       7369  
      7239       7240       7251       7250       7360       7361       7372       7371  
      7240       7241       7252       7251       7361       7362       7373       7372  
      7241       7242       7253       7252       7362       7363       7374       7373  
      7242       7243       7254       7253       7363       7364       7375       7374  
      7243       7244       7255       7254       7364       7365       7376       7375  
      7244       7245       7256       7255       7365       7366       7377       7376  
      7245       7246       7257       7256       7366       7367       7378       7377  
      7246       7247       7258       7257       7367       7368       7379       7378  
      7247       7248       7259       7258       7368       7369       7380       7379  
      7248       7249       7260       7259       7369       7370       7381       7380  
      7261       7262       7273       7272       7382       7383       7394       7393  
      7262       7263       7274       7273       7383       7384       7395       7394  
      7263       7264       7275       7274       7384       7385       7396       7395  
      7264       7265       7276       7275       7385       7386       7397       7396  
      7265       7266       7277       7276       7386       7387       7398       7397  
      7266       7267       7278       7277       7387       7388       7399       7398  
      7267       7268       7279       7278       7388       7389       7400       7399  
      7268       7269       7280       7279       7389       7390       7401       7400  
      7269       7270       7281       7280       7390       7391       7402       7401  
      7270       7271       7282       7281       7391       7392       7403       7402  
      7272       7273       7284       7283       7393       7394       7405       7404  
      7273       7274       7285       7284       7394       7395       7406       7405  
      7274       7275       7286       7285       7395       7396       7407       7406  
      7275       7276       7287       7286       7396       7397       7408       7407  
      7276       7277       7288       7287       7397       7398       7409       7408  
      7277       7278       7289       7288       7398       7399       7410       7409  
      7278       7279       7290       7289       7399       7400       7411       7410  
      7279       7280       7291       7290       7400       7401       7412       7411  
      7280       7281       7292       7291       7401       7402       7413       7412  
      7281       7282       7293       7292       7402       7403       7414       7413  
      7283       7284       7295       7294       7404       7405       7416       7415  
      7284       7285       7296       7295       7405       7406       7417       7416  
      7285       7286       7297       7296       7406       7407       7418       7417  
      7286       7287       7298       7297       7407       7408       7419       7418  
      7287       7288       7299       7298       7408       7409       7420       7419  
      7288       7289       7300       7299       7409       7410       7421       7420  
      7289       7290       7301       7300       7410       7411       7422       7421  
      7290       7291       7302       7301       7411       7412       7423       7422  
      7291       7292       7303       7302       7412       7413       7424       7423  
      7292       7293       7304       7303       7413       7414       7425       7424  
      7294       7295       7306       7305       7415       7416       7427       7426  
      7295       7296       7307       7306       7416       7417       7428       7427  
      7296       7297       7308       7307       7417       7418       7429       7428  
      7297       7298       7309       7308       7418       7419       7430       7429  
      7298       7299       7310       7309       7419       7420       7431       7430  
      7299       7300       7311       7310       7420       7421       7432       7431  
      7300       7301       7312       7311       7421       7422       7433       7432  
      7301       7302       7313       7312       7422       7423       7434       7433  
      7302       7303       7314       7313       7423       7424       7435       7434  
      7303       7304       7315       7314       7424       7425       7436       7435  
      7305       7306       7317       7316       7426       7427       7438       7437  
      7306       7307       7318       7317       7427       7428       7439       7438  
      7307       7308       7319       7318       7428       7429       7440       7439  
      7308       7309       7320       7319       7429       7430       7441       7440  
      7309       7310       7321       7320       7430       7431       7442       7441  
      7310       7311       7322       7321       7431       7432       7443       7442  
      7311       7312       7323       7322       7432       7433       7444       7443  
      7312       7313       7324       7323       7433       7434       7445       7444  
      7313       7314       7325       7324       7434       7435       7446       7445  
      7314       7315       7326       7325       7435       7436       7447       7446  
      7316       7317       7328       7327       7437       7438       7449       7448  
      7317       7318       7329       7328       7438       7439       7450       7449  
      7318       7319       7330       7329       7439       7440       7451       7450  
      7319       7320       7331       7330       7440       7441       7452       7451  
      7320       7321       7332       7331       7441       7442       7453       7452  
      7321       7322       7333       7332       7442       7443       7454       7453  
      7322       7323       7334       7333       7443       7444       7455       7454  
      7323       7324       7335       7334       7444       7445       7456       7455  
      7324       7325       7336       7335       7445       7446       7457       7456  
      7325       7326       7337       7336       7446       7447       7458       7457  
      7327       7328       7339       7338       7448       7449       7460       7459  
      7328       7329       7340       7339       7449       7450       7461       7460  
      7329       7330       7341       7340       7450       7451       7462       7461  
      7330       7331       7342       7341       7451       7452       7463       7462  
      7331       7332       7343       7342       7452       7453       7464       7463  
      7332       7333       7344       7343       7453       7454       7465       7464  
      7333       7334       7345       7344       7454       7455       7466       7465  
      7334       7335       7346       7345       7455       7456       7467       7466  
      7335       7336       7347       7346       7456       7457       7468       7467  
      7336       7337       7348       7347       7457       7458       7469       7468  
      7338       7339       7350       7349       7459       7460       7471       7470  
      7339       7340       7351       7350       7460       7461       7472       7471  
      7340       7341       7352       7351       7461       7462       7473       7472  
      7341       7342       7353       7352       7462       7463       7474       7473  
      7342       7343       7354       7353       7463       7464       7475       7474  
      7343       7344       7355       7354       7464       7465       7476       7475  
      7344       7345       7356       7355       7465       7466       7477       7476  
      7345       7346       7357       7356       7466       7467       7478       7477  
      7346       7347       7358       7357       7467       7468       7479       7478  
      7347       7348       7359       7358       7468       7469       7480       7479  
      7349       7350       7361       7360       7470       7471       7482       7481  
      7350       7351       7362       7361       7471       7472       7483       7482  
      7351       7352       7363       7362       7472       7473       7484       7483  
      7352       7353       7364       7363       7473       7474       7485       7484  
      7353       7354       7365       7364       7474       7475       7486       7485  
      7354       7355       7366       7365       7475       7476       7487       7486  
      7355       7356       7367       7366       7476       7477       7488       7487  
      7356       7357       7368       7367       7477       7478       7489       7488  
      7357       7358       7369       7368       7478       7479       7490       7489  
      7358       7359       7370       7369       7479       7480       7491       7490  
      7360       7361       7372       7371       7481       7482       7493       7492  
      7361       7362       7373       7372       7482       7483       7494       7493  
      7362       7363       7374       7373       7483       7484       7495       7494  
      7363       7364       7375       7374       7484       7485       7496       7495  
      7364       7365       7376       7375       7485       7486       7497       7496  
      7365       7366       7377       7376       7486       7487       7498       7497  
      7366       7367       7378       7377       7487       7488       7499       7498  
      7367       7368       7379       7378       7488       7489       7500       7499  
      7368       7369       7380       7379       7489       7490       7501       7500  
      7369       7370       7381       7380       7490       7491       7502       7501  
      7382       7383       7394       7393       7503       7504       7515       7514  
      7383       7384       7395       7394       7504       7505       7516       7515  
      7384       7385       7396       7395       7505       7506       7517       7516  
      7385       7386       7397       7396       7506       7507       7518       7517  
      7386       7387       7398       7397       7507       7508       7519       7518  
      7387       7388       7399       7398       7508       7509       7520       7519  
      7388       7389       7400       7399       7509       7510       7521       7520  
      7389       7390       7401       7400       7510       7511       7522       7521  
      7390       7391       7402       7401       7511       7512       7523       7522  
      7391       7392       7403       7402       7512       7513       7524       7523  
      7393       7394       7405       7404       7514       7515       7526       7525  
      7394       7395       7406       7405       7515       7516       7527       7526  
      7395       7396       7407       7406       7516       7517       7528       7527  
      7396       7397       7408       7407       7517       7518       7529       7528  
      7397       7398       7409       7408       7518       7519       7530       7529  
      7398       7399       7410       7409       7519       7520       7531       7530  
      7399       7400       7411       7410       7520       7521       7532       7531  
      7400       7401       7412       7411       7521       7522       7533       7532  
      7401       7402       7413       7412       7522       7523       7534       7533  
      7402       7403       7414       7413       7523       7524       7535       7534  
      7404       7405       7416       7415       7525       7526       7537       7536  
      7405       7406       7417       7416       7526       7527       7538       7537  
      7406       7407       7418       7417       7527       7528       7539       7538  
      7407       7408       7419       7418       7528       7529       7540       7539  
      7408       7409       7420       7419       7529       7530       7541       7540  
      7409       7410       7421       7420       7530       7531       7542       7541  
      7410       7411       7422       7421       7531       7532       7543       7542  
      7411       7412       7423       7422       7532       7533       7544       7543  
      7412       7413       7424       7423       7533       7534       7545       7544  
      7413       7414       7425       7424       7534       7535       7546       7545  
      7415       7416       7427       7426       7536       7537       7548       7547  
      7416       7417       7428       7427       7537       7538       7549       7548  
      7417       7418       7429       7428       7538       7539       7550       7549  
      7418       7419       7430       7429       7539       7540       7551       7550  
      7419       7420       7431       7430       7540       7541       7552       7551  
      7420       7421       7432       7431       7541       7542       7553       7552  
      7421       7422       7433       7432       7542       7543       7554       7553  
      7422       7423       7434       7433       7543       7544       7555       7554  
      7423       7424       7435       7434       7544       7545       7556       7555  
      7424       7425       7436       7435       7545       7546       7557       7556  
      7426       7427       7438       7437       7547       7548       7559       7558  
      7427       7428       7439       7438       7548       7549       7560       7559  
      7428       7429       7440       7439       7549       7550       7561       7560  
      7429       7430       7441       7440       7550       7551       7562       7561  
      7430       7431       7442       7441       7551       7552       7563       7562  
      7431       7432       7443       7442       7552       7553       7564       7563  
      7432       7433       7444       7443       7553       7554       7565       7564  
      7433       7434       7445       7444       7554       7555       7566       7565  
      7434       7435       7446       7445       7555       7556       7567       7566  
      7435       7436       7447       7446       7556       7557       7568       7567  
      7437       7438       7449       7448       7558       7559       7570       7569  
      7438       7439       7450       7449       7559       7560       7571       7570  
      7439       7440       7451       7450       7560       7561       7572       7571  
      7440       7441       7452       7451       7561       7562       7573       7572  
      7441       7442       7453       7452       7562       7563       7574       7573  
      7442       7443       7454       7453       7563       7564       7575       7574  
      7443       7444       7455       7454       7564       7565       7576       7575  
      7444       7445       7456       7455       7565       7566       7577       7576  
      7445       7446       7457       7456       7566       7567       7578       7577  
      7446       7447       7458       7457       7567       7568       7579       7578  
      7448       7449       7460       7459       7569       7570       7581       7580  
      7449       7450       7461       7460       7570       7571       7582       7581  
      7450       7451       7462       7461       7571       7572       7583       7582  
      7451       7452       7463       7462       7572       7573       7584       7583  
      7452       7453       7464       7463       7573       7574       7585       7584  
      7453       7454       7465       7464       7574       7575       7586       7585  
      7454       7455       7466       7465       7575       7576       7587       7586  
      7455       7456       7467       7466       7576       7577       7588       7587  
      7456       7457       7468       7467       7577       7578       7589       7588  
      7457       7458       7469       7468       7578       7579       7590       7589  
      7459       7460       7471       7470       7580       7581       7592       7591  
      7460       7461       7472       7471       7581       7582       7593       7592  
      7461       7462       7473       7472       7582       7583       7594       7593  
      7462       7463       7474       7473       7583       7584       7595       7594  
      7463       7464       7475       7474       7584       7585       7596       7595  
      7464       7465       7476       7475       7585       7586       7597       7596  
      7465       7466       7477       7476       7586       7587       7598       7597  
      7466       7467       7478       7477       7587       7588       7599       7598  
      7467       7468       7479       7478       7588       7589       7600       7599  
      7468       7469       7480       7479       7589       7590       7601       7600  
      7470       7471       7482       7481       7591       7592       7603       7602  
      7471       7472       7483       7482       7592       7593       7604       7603  
      7472       7473       7484       7483       7593       7594       7605       7604  
      7473       7474       7485       7484       7594       7595       7606       7605  
      7474       7475       7486       7485       7595       7596       7607       7606  
      7475       7476       7487       7486       7596       7597       7608       7607  
      7476       7477       7488       7487       7597       7598       7609       7608  
      7477       7478       7489       7488       7598       7599       7610       7609  
      7478       7479       7490       7489       7599       7600       7611       7610  
      7479       7480       7491       7490       7600       7601       7612       7611  
      7481       7482       7493       7492       7602       7603       7614       7613  
      7482       7483       7494       7493       7603       7604       7615       7614  
      7483       7484       7495       7494       7604       7605       7616       7615  
      7484       7485       7496       7495       7605       7606       7617       7616  
      7485       7486       7497       7496       7606       7607       7618       7617  
      7486       7487       7498       7497       7607       7608       7619       7618  
      7487       7488       7499       7498       7608       7609       7620       7619  
      7488       7489       7500       7499       7609       7610       7621       7620  
      7489       7490       7501       7500       7610       7611       7622       7621  
      7490       7491       7502       7501       7611       7612       7623       7622  
      7503       7504       7515       7514       7624       7625       7636       7635  
      7504       7505       7516       7515       7625       7626       7637       7636  
      7505       7506       7517       7516       7626       7627       7638       7637  
      7506       7507       7518       7517       7627       7628       7639       7638  
      7507       7508       7519       7518       7628       7629       7640       7639  
      7508       7509       7520       7519       7629       7630       7641       7640  
      7509       7510       7521       7520       7630       7631       7642       7641  
      7510       7511       7522       7521       7631       7632       7643       7642  
      7511       7512       7523       7522       7632       7633       7644       7643  
      7512       7513       7524       7523       7633       7634       7645       7644  
      7514       7515       7526       7525       7635       7636       7647       7646  
      7515       7516       7527       7526       7636       7637       7648       7647  
      7516       7517       7528       7527       7637       7638       7649       7648  
      7517       7518       7529       7528       7638       7639       7650       7649  
      7518       7519       7530       7529       7639       7640       7651       7650  
      7519       7520       7531       7530       7640       7641       7652       7651  
      7520       7521       7532       7531       7641       7642       7653       7652  
      7521       7522       7533       7532       7642       7643       7654       7653  
      7522       7523       7534       7533       7643       7644       7655       7654  
      7523       7524       7535       7534       7644       7645       7656       7655  
      7525       7526       7537       7536       7646       7647       7658       7657  
      7526       7527       7538       7537       7647       7648       7659       7658  
      7527       7528       7539       7538       7648       7649       7660       7659  
      7528       7529       7540       7539       7649       7650       7661       7660  
      7529       7530       7541       7540       7650       7651       7662       7661  
      7530       7531       7542       7541       7651       7652       7663       7662  
      7531       7532       7543       7542       7652       7653       7664       7663  
      7532       7533       7544       7543       7653       7654       7665       7664  
      7533       7534       7545       7544       7654       7655       7666       7665  
      7534       7535       7546       7545       7655       7656       7667       7666  
      7536       7537       7548       7547       7657       7658       7669       7668  
      7537       7538       7549       7548       7658       7659       7670       7669  
      7538       7539       7550       7549       7659       7660       7671       7670  
      7539       7540       7551       7550       7660       7661       7672       7671  
      7540       7541       7552       7551       7661       7662       7673       7672  
      7541       7542       7553       7552       7662       7663       7674       7673  
      7542       7543       7554       7553       7663       7664       7675       7674  
      7543       7544       7555       7554       7664       7665       7676       7675  
      7544       7545       7556       7555       7665       7666       7677       7676  
      7545       7546       7557       7556       7666       7667       7678       7677  
      7547       7548       7559       7558       7668       7669       7680       7679  
      7548       7549       7560       7559       7669       7670       7681       7680  
      7549       7550       7561       7560       7670       7671       7682       7681  
      7550       7551       7562       7561       7671       7672       7683       7682  
      7551       7552       7563       7562       7672       7673       7684       7683  
      7552       7553       7564       7563       7673       7674       7685       7684  
      7553       7554       7565       7564       7674       7675       7686       7685  
      7554       7555       7566       7565       7675       7676       7687       7686  
      7555       7556       7567       7566       7676       7677       7688       7687  
      7556       7557       7568       7567       7677       7678       7689       7688  
      7558       7559       7570       7569       7679       7680       7691       7690  
      7559       7560       7571       7570       7680       7681       7692       7691  
      7560       7561       7572       7571       7681       7682       7693       7692  
      7561       7562       7573       7572       7682       7683       7694       7693  
      7562       7563       7574       7573       7683       7684       7695       7694  
      7563       7564       7575       7574       7684       7685       7696       7695  
      7564       7565       7576       7575       7685       7686       7697       7696  
      7565       7566       7577       7576       7686       7687       7698       7697  
      7566       7567       7578       7577       7687       7688       7699       7698  
      7567       7568       7579       7578       7688       7689       7700       7699  
      7569       7570       7581       7580       7690       7691       7702       7701  
      7570       7571       7582       7581       7691       7692       7703       7702  
      7571       7572       7583       7582       7692       7693       7704       7703  
      7572       7573       7584       7583       7693       7694       7705       7704  
      7573       7574       7585       7584       7694       7695       7706       7705  
      7574       7575       7586       7585       7695       7696       7707       7706  
      7575       7576       7587       7586       7696       7697       7708       7707  
      7576       7577       7588       7587       7697       7698       7709       7708  
      7577       7578       7589       7588       7698       7699       7710       7709  
      7578       7579       7590       7589       7699       7700       7711       7710  
      7580       7581       7592       7591       7701       7702       7713       7712  
      7581       7582       7593       7592       7702       7703       7714       7713  
      7582       7583       7594       7593       7703       7704       7715       7714  
      7583       7584       7595       7594       7704       7705       7716       7715  
      7584       7585       7596       7595       7705       7706       7717       7716  
      7585       7586       7597       7596       7706       7707       7718       7717  
      7586       7587       7598       7597       7707       7708       7719       7718  
      7587       7588       7599       7598       7708       7709       7720       7719  
      7588       7589       7600       7599       7709       7710       7721       7720  
      7589       7590       7601       7600       7710       7711       7722       7721  
      7591       7592       7603       7602       7712       7713       7724       7723  
      7592       7593       7604       7603       7713       7714       7725       7724  
      7593       7594       7605       7604       7714       7715       7726       7725  
      7594       7595       7606       7605       7715       7716       7727       7726  
      7595       7596       7607       7606       7716       7717       7728       7727  
      7596       7597       7608       7607       7717       7718       7729       7728  
      7597       7598       7609       7608       7718       7719       7730       7729  
      7598       7599       7610       7609       7719       7720       7731       7730  
      7599       7600       7611       7610       7720       7721       7732       7731  
      7600       7601       7612       7611       7721       7722       7733       7732  
      7602       7603       7614       7613       7723       7724       7735       7734  
      7603       7604       7615       7614       7724       7725       7736       7735  
      7604       7605       7616       7615       7725       7726       7737       7736  
      7605       7606       7617       7616       7726       7727       7738       7737  
      7606       7607       7618       7617       7727       7728       7739       7738  
      7607       7608       7619       7618       7728       7729       7740       7739  
      7608       7609       7620       7619       7729       7730       7741       7740  
      7609       7610       7621       7620       7730       7731       7742       7741  
      7610       7611       7622       7621       7731       7732       7743       7742  
      7611       7612       7623       7622       7732       7733       7744       7743  
      7624       7625       7636       7635       7745       7746       7757       7756  
      7625       7626       7637       7636       7746       7747       7758       7757  
      7626       7627       7638       7637       7747       7748       7759       7758  
      7627       7628       7639       7638       7748       7749       7760       7759  
      7628       7629       7640       7639       7749       7750       7761       7760  
      7629       7630       7641       7640       7750       7751       7762       7761  
      7630       7631       7642       7641       7751       7752       7763       7762  
      7631       7632       7643       7642       7752       7753       7764       7763  
      7632       7633       7644       7643       7753       7754       7765       7764  
      7633       7634       7645       7644       7754       7755       7766       7765  
      7635       7636       7647       7646       7756       7757       7768       7767  
      7636       7637       7648       7647       7757       7758       7769       7768  
      7637       7638       7649       7648       7758       7759       7770       7769  
      7638       7639       7650       7649       7759       7760       7771       7770  
      7639       7640       7651       7650       7760       7761       7772       7771  
      7640       7641       7652       7651       7761       7762       7773       7772  
      7641       7642       7653       7652       7762       7763       7774       7773  
      7642       7643       7654       7653       7763       7764       7775       7774  
      7643       7644       7655       7654       7764       7765       7776       7775  
      7644       7645       7656       7655       7765       7766       7777       7776  
      7646       7647       7658       7657       7767       7768       7779       7778  
      7647       7648       7659       7658       7768       7769       7780       7779  
      7648       7649       7660       7659       7769       7770       7781       7780  
      7649       7650       7661       7660       7770       7771       7782       7781  
      7650       7651       7662       7661       7771       7772       7783       7782  
      7651       7652       7663       7662       7772       7773       7784       7783  
      7652       7653       7664       7663       7773       7774       7785       7784  
      7653       7654       7665       7664       7774       7775       7786       7785  
      7654       7655       7666       7665       7775       7776       7787       7786  
      7655       7656       7667       7666       7776       7777       7788       7787  
      7657       7658       7669       7668       7778       7779       7790       7789  
      7658       7659       7670       7669       7779       7780       7791       7790  
      7659       7660       7671       7670       7780       7781       7792       7791  
      7660       7661       7672       7671       7781       7782       7793       7792  
      7661       7662       7673       7672       7782       7783       7794       7793  
      7662       7663       7674       7673       7783       7784       7795       7794  
      7663       7664       7675       7674       7784       7785       7796       7795  
      7664       7665       7676       7675       7785       7786       7797       7796  
      7665       7666       7677       7676       7786       7787       7798       7797  
      7666       7667       7678       7677       7787       7788       7799       7798  
      7668       7669       7680       7679       7789       7790       7801       7800  
      7669       7670       7681       7680       7790       7791       7802       7801  
      7670       7671       7682       7681       7791       7792       7803       7802  
      7671       7672       7683       7682       7792       7793       7804       7803  
      7672       7673       7684       7683       7793       7794       7805       7804  
      7673       7674       7685       7684       7794       7795       7806       7805  
      7674       7675       7686       7685       7795       7796       7807       7806  
      7675       7676       7687       7686       7796       7797       7808       7807  
      7676       7677       7688       7687       7797       7798       7809       7808  
      7677       7678       7689       7688       7798       7799       7810       7809  
      7679       7680       7691       7690       7800       7801       7812       7811  
      7680       7681       7692       7691       7801       7802       7813       7812  
      7681       7682       7693       7692       7802       7803       7814       7813  
      7682       7683       7694       7693       7803       7804       7815       7814  
      7683       7684       7695       7694       7804       7805       7816       7815  
      7684       7685       7696       7695       7805       7806       7817       7816  
      7685       7686       7697       7696       7806       7807       7818       7817  
      7686       7687       7698       7697       7807       7808       7819       7818  
      7687       7688       7699       7698       7808       7809       7820       7819  
      7688       7689       7700       7699       7809       7810       7821       7820  
      7690       7691       7702       7701       7811       7812       7823       7822  
      7691       7692       7703       7702       7812       7813       7824       7823  
      7692       7693       7704       7703       7813       7814       7825       7824  
      7693       7694       7705       7704       7814       7815       7826       7825  
      7694       7695       7706       7705       7815       7816       7827       7826  
      7695       7696       7707       7706       7816       7817       7828       7827  
      7696       7697       7708       7707       7817       7818       7829       7828  
      7697       7698       7709       7708       7818       7819       7830       7829  
      7698       7699       7710       7709       7819       7820       7831       7830  
      7699       7700       7711       7710       7820       7821       7832       7831  
      7701       7702       7713       7712       7822       7823       7834       7833  
      7702       7703       7714       7713       7823       7824       7835       7834  
      7703       7704       7715       7714       7824       7825       7836       7835  
      7704       7705       7716       7715       7825       7826       7837       7836  
      7705       7706       7717       7716       7826       7827       7838       7837  
      7706       7707       7718       7717       7827       7828       7839       7838  
      7707       7708       7719       7718       7828       7829       7840       7839  
      7708       7709       7720       7719       7829       7830       7841       7840  
      7709       7710       7721       7720       7830       7831       7842       7841  
      7710       7711       7722       7721       7831       7832       7843       7842  
      7712       7713       7724       7723       7833       7834       7845       7844  
      7713       7714       7725       7724       7834       7835       7846       7845  
      7714       7715       7726       7725       7835       7836       7847       7846  
      7715       7716       7727       7726       7836       7837       7848       7847  
      7716       7717       7728       7727       7837       7838       7849       7848  
      7717       7718       7729       7728       7838       7839       7850       7849  
      7718       7719       7730       7729       7839       7840       7851       7850  
      7719       7720       7731       7730       7840       7841       7852       7851  
      7720       7721       7732       7731       7841       7842       7853       7852  
      7721       7722       7733       7732       7842       7843       7854       7853  
      7723       7724       7735       7734       7844       7845       7856       7855  
      7724       7725       7736       7735       7845       7846       7857       7856  
      7725       7726       7737       7736       7846       7847       7858       7857  
      7726       7727       7738       7737       7847       7848       7859       7858  
      7727       7728       7739       7738       7848       7849       7860       7859  
      7728       7729       7740       7739       7849       7850       7861       7860  
      7729       7730       7741       7740       7850       7851       7862       7861  
      7730       7731       7742       7741       7851       7852       7863       7862  
      7731       7732       7743       7742       7852       7853       7864       7863  
      7732       7733       7744       7743       7853       7854       7865       7864  
      7745       7746       7757       7756       7866       7867       7878       7877  
      7746       7747       7758       7757       7867       7868       7879       7878  
      7747       7748       7759       7758       7868       7869       7880       7879  
      7748       7749       7760       7759       7869       7870       7881       7880  
      7749       7750       7761       7760       7870       7871       7882       7881  
      7750       7751       7762       7761       7871       7872       7883       7882  
      7751       7752       7763       7762       7872       7873       7884       7883  
      7752       7753       7764       7763       7873       7874       7885       7884  
      7753       7754       7765       7764       7874       7875       7886       7885  
      7754       7755       7766       7765       7875       7876       7887       7886  
      7756       7757       7768       7767       7877       7878       7889       7888  
      7757       7758       7769       7768       7878       7879       7890       7889  
      7758       7759       7770       7769       7879       7880       7891       7890  
      7759       7760       7771       7770       7880       7881       7892       7891  
      7760       7761       7772       7771       7881       7882       7893       7892  
      7761       7762       7773       7772       7882       7883       7894       7893  
      7762       7763       7774       7773       7883       7884       7895       7894  
      7763       7764       7775       7774       7884       7885       7896       7895  
      7764       7765       7776       7775       7885       7886       7897       7896  
      7765       7766       7777       7776       7886       7887       7898       7897  
      7767       7768       7779       7778       7888       7889       7900       7899  
      7768       7769       7780       7779       7889       7890       7901       7900  
      7769       7770       7781       7780       7890       7891       7902       7901  
      7770       7771       7782       7781       7891       7892       7903       7902  
      7771       7772       7783       7782       7892       7893       7904       7903  
      7772       7773       7784       7783       7893       7894       7905       7904  
      7773       7774       7785       7784       7894       7895       7906       7905  
      7774       7775       7786       7785       7895       7896       7907       7906  
      7775       7776       7787       7786       7896       7897       7908       7907  
      7776       7777       7788       7787       7897       7898       7909       7908  
      7778       7779       7790       7789       7899       7900       7911       7910  
      7779       7780       7791       7790       7900       7901       7912       7911  
      7780       7781       7792       7791       7901       7902       7913       7912  
      7781       7782       7793       7792       7902       7903       7914       7913  
      7782       7783       7794       7793       7903       7904       7915       7914  
      7783       7784       7795       7794       7904       7905       7916       7915  
      7784       7785       7796       7795       7905       7906       7917       7916  
      7785       7786       7797       7796       7906       7907       7918       7917  
      7786       7787       7798       7797       7907       7908       7919       7918  
      7787       7788       7799       7798       7908       7909       7920       7919  
      7789       7790       7801       7800       7910       7911       7922       7921  
      7790       7791       7802       7801       7911       7912       7923       7922  
      7791       7792       7803       7802       7912       7913       7924       7923  
      7792       7793       7804       7803       7913       7914       7925       7924  
      7793       7794       7805       7804       7914       7915       7926       7925  
      7794       7795       7806       7805       7915       7916       7927       7926  
      7795       7796       7807       7806       7916       7917       7928       7927  
      7796       7797       7808       7807       7917       7918       7929       7928  
      7797       7798       7809       7808       7918       7919       7930       7929  
      7798       7799       7810       7809       7919       7920       7931       7930  
      7800       7801       7812       7811       7921       7922       7933       7932  
      7801       7802       7813       7812       7922       7923       7934       7933  
      7802       7803       7814       7813       7923       7924       7935       7934  
      7803       7804       7815       7814       7924       7925       7936       7935  
      7804       7805       7816       7815       7925       7926       7937       7936  
      7805       7806       7817       7816       7926       7927       7938       7937  
      7806       7807       7818       7817       7927       7928       7939       7938  
      7807       7808       7819       7818       7928       7929       7940       7939  
      7808       7809       7820       7819       7929       7930       7941       7940  
      7809       7810       7821       7820       7930       7931       7942       7941  
      7811       7812       7823       7822       7932       7933       7944       7943  
      7812       7813       7824       7823       7933       7934       7945       7944  
      7813       7814       7825       7824       7934       7935       7946       7945  
      7814       7815       7826       7825       7935       7936       7947       7946  
      7815       7816       7827       7826       7936       7937       7948       7947  
      7816       7817       7828       7827       7937       7938       7949       7948  
      7817       7818       7829       7828       7938       7939       7950       7949  
      7818       7819       7830       7829       7939       7940       7951       7950  
      7819       7820       7831       7830       7940       7941       7952       7951  
      7820       7821       7832       7831       7941       7942       7953       7952  
      7822       7823       7834       7833       7943       7944       7955       7954  
      7823       7824       7835       7834       7944       7945       7956       7955  
      7824       7825       7836       7835       7945       7946       7957       7956  
      7825       7826       7837       7836       7946       7947       7958       7957  
      7826       7827       7838       7837       7947       7948       7959       7958  
      7827       7828       7839       7838       7948       7949       7960       7959  
      7828       7829       7840       7839       7949       7950       7961       7960  
      7829       7830       7841       7840       7950       7951       7962       7961  
      7830       7831       7842       7841       7951       7952       7963       7962  
      7831       7832       7843       7842       7952       7953       7964       7963  
      7833       7834       7845       7844       7954       7955       7966       7965  
      7834       7835       7846       7845       7955       7956       7967       7966  
      7835       7836       7847       7846       7956       7957       7968       7967  
      7836       7837       7848       7847       7957       7958       7969       7968  
      7837       7838       7849       7848       7958       7959       7970       7969  
      7838       7839       7850       7849       7959       7960       7971       7970  
      7839       7840       7851       7850       7960       7961       7972       7971  
      7840       7841       7852       7851       7961       7962       7973       7972  
      7841       7842       7853       7852       7962       7963       7974       7973  
      7842       7843       7854       7853       7963       7964       7975       7974  
      7844       7845       7856       7855       7965       7966       7977       7976  
      7845       7846       7857       7856       7966       7967       7978       7977  
      7846       7847       7858       7857       7967       7968       7979       7978  
      7847       7848       7859       7858       7968       7969       7980       7979  
      7848       7849       7860       7859       7969       7970       7981       7980  
      7849       7850       7861       7860       7970       7971       7982       7981  
      7850       7851       7862       7861       7971       7972       7983       7982  
      7851       7852       7863       7862       7972       7973       7984       7983  
      7852       7853       7864       7863       7973       7974       7985       7984  
      7853       7854       7865       7864       7974       7975       7986       7985  
      7866       7867       7878       7877       7987       7988       7999       7998  
      7867       7868       7879       7878       7988       7989       8000       7999  
      7868       7869       7880       7879       7989       7990       8001       8000  
      7869       7870       7881       7880       7990       7991       8002       8001  
      7870       7871       7882       7881       7991       7992       8003       8002  
      7871       7872       7883       7882       7992       7993       8004       8003  
      7872       7873       7884       7883       7993       7994       8005       8004  
      7873       7874       7885       7884       7994       7995       8006       8005  
      7874       7875       7886       7885       7995       7996       8007       8006  
      7875       7876       7887       7886       7996       7997       8008       8007  
      7877       7878       7889       7888       7998       7999       8010       8009  
      7878       7879       7890       7889       7999       8000       8011       8010  
      7879       7880       7891       7890       8000       8001       8012       8011  
      7880       7881       7892       7891       8001       8002       8013       8012  
      7881       7882       7893       7892       8002       8003       8014       8013  
      7882       7883       7894       7893       8003       8004       8015       8014  
      7883       7884       7895       7894       8004       8005       8016       8015  
      7884       7885       7896       7895       8005       8006       8017       8016  
      7885       7886       7897       7896       8006       8007       8018       8017  
      7886       7887       7898       7897       8007       8008       8019       8018  
      7888       7889       7900       7899       8009       8010       8021       8020  
      7889       7890       7901       7900       8010       8011       8022       8021  
      7890       7891       7902       7901       8011       8012       8023       8022  
      7891       7892       7903       7902       8012       8013       8024       8023  
      7892       7893       7904       7903       8013       8014       8025       8024  
      7893       7894       7905       7904       8014       8015       8026       8025  
      7894       7895       7906       7905       8015       8016       8027       8026  
      7895       7896       7907       7906       8016       8017       8028       8027  
      7896       7897       7908       7907       8017       8018       8029       8028  
      7897       7898       7909       7908       8018       8019       8030       8029  
      7899       7900       7911       7910       8020       8021       8032       8031  
      7900       7901       7912       7911       8021       8022       8033       8032  
      7901       7902       7913       7912       8022       8023       8034       8033  
      7902       7903       7914       7913       8023       8024       8035       8034  
      7903       7904       7915       7914       8024       8025       8036       8035  
      7904       7905       7916       7915       8025       8026       8037       8036  
      7905       7906       7917       7916       8026       8027       8038       8037  
      7906       7907       7918       7917       8027       8028       8039       8038  
      7907       7908       7919       7918       8028       8029       8040       8039  
      7908       7909       7920       7919       8029       8030       8041       8040  
      7910       7911       7922       7921       8031       8032       8043       8042  
      7911       7912       7923       7922       8032       8033       8044       8043  
      7912       7913       7924       7923       8033       8034       8045       8044  
      7913       7914       7925       7924       8034       8035       8046       8045  
      7914       7915       7926       7925       8035       8036       8047       8046  
      7915       7916       7927       7926       8036       8037       8048       8047  
      7916       7917       7928       7927       8037       8038       8049       8048  
      7917       7918       7929       7928       8038       8039       8050       8049  
      7918       7919       7930       7929       8039       8040       8051       8050  
      7919       7920       7931       7930       8040       8041       8052       8051  
      7921       7922       7933       7932       8042       8043       8054       8053  
      7922       7923       7934       7933       8043       8044       8055       8054  
      7923       7924       7935       7934       8044       8045       8056       8055  
      7924       7925       7936       7935       8045       8046       8057       8056  
      7925       7926       7937       7936       8046       8047       8058       8057  
      7926       7927       7938       7937       8047       8048       8059       8058  
      7927       7928       7939       7938       8048       8049       8060       8059  
      7928       7929       7940       7939       8049       8050       8061       8060  
      7929       7930       7941       7940       8050       8051       8062       8061  
      7930       7931       7942       7941       8051       8052       8063       8062  
      7932       7933       7944       7943       8053       8054       8065       8064  
      7933       7934       7945       7944       8054       8055       8066       8065  
      7934       7935       7946       7945       8055       8056       8067       8066  
      7935       7936       7947       7946       8056       8057       8068       8067  
      7936       7937       7948       7947       8057       8058       8069       8068  
      7937       7938       7949       7948       8058       8059       8070       8069  
      7938       7939       7950       7949       8059       8060       8071       8070  
      7939       7940       7951       7950       8060       8061       8072       8071  
      7940       7941       7952       7951       8061       8062       8073       8072  
      7941       7942       7953       7952       8062       8063       8074       8073  
      7943       7944       7955       7954       8064       8065       8076       8075  
      7944       7945       7956       7955       8065       8066       8077       8076  
      7945       7946       7957       7956       8066       8067       8078       8077  
      7946       7947       7958       7957       8067       8068       8079       8078  
      7947       7948       7959       7958       8068       8069       8080       8079  
      7948       7949       7960       7959       8069       8070       8081       8080  
      7949       7950       7961       7960       8070       8071       8082       8081  
      7950       7951       7962       7961       8071       8072       8083       8082  
      7951       7952       7963       7962       8072       8073       8084       8083  
      7952       7953       7964       7963       8073       8074       8085       8084  
      7954       7955       7966       7965       8075       8076       8087       8086  
      7955       7956       7967       7966       8076       8077       8088       8087  
      7956       7957       7968       7967       8077       8078       8089       8088  
      7957       7958       7969       7968       8078       8079       8090       8089  
      7958       7959       7970       7969       8079       8080       8091       8090  
      7959       7960       7971       7970       8080       8081       8092       8091  
      7960       7961       7972       7971       8081       8082       8093       8092  
      7961       7962       7973       7972       8082       8083       8094       8093  
      7962       7963       7974       7973       8083       8084       8095       8094  
      7963       7964       7975       7974       8084       8085       8096       8095  
      7965       7966       7977       7976       8086       8087       8098       8097  
      7966       7967       7978       7977       8087       8088       8099       8098  
      7967       7968       7979       7978       8088       8089       8100       8099  
      7968       7969       7980       7979       8089       8090       8101       8100  
      7969       7970       7981       7980       8090       8091       8102       8101  
      7970       7971       7982       7981       8091       8092       8103       8102  
      7971       7972       7983       7982       8092       8093       8104       8103  
      7972       7973       7984       7983       8093       8094       8105       8104  
      7973       7974       7985       7984       8094       8095       8106       8105  
      7974       7975       7986       7985       8095       8096       8107       8106  
      7987       7988       7999       7998       8108       8109       8120       8119  
      7988       7989       8000       7999       8109       8110       8121       8120  
      7989       7990       8001       8000       8110       8111       8122       8121  
      7990       7991       8002       8001       8111       8112       8123       8122  
      7991       7992       8003       8002       8112       8113       8124       8123  
      7992       7993       8004       8003       8113       8114       8125       8124  
      7993       7994       8005       8004       8114       8115       8126       8125  
      7994       7995       8006       8005       8115       8116       8127       8126  
      7995       7996       8007       8006       8116       8117       8128       8127  
      7996       7997       8008       8007       8117       8118       8129       8128  
      7998       7999       8010       8009       8119       8120       8131       8130  
      7999       8000       8011       8010       8120       8121       8132       8131  
      8000       8001       8012       8011       8121       8122       8133       8132  
      8001       8002       8013       8012       8122       8123       8134       8133  
      8002       8003       8014       8013       8123       8124       8135       8134  
      8003       8004       8015       8014       8124       8125       8136       8135  
      8004       8005       8016       8015       8125       8126       8137       8136  
      8005       8006       8017       8016       8126       8127       8138       8137  
      8006       8007       8018       8017       8127       8128       8139       8138  
      8007       8008       8019       8018       8128       8129       8140       8139  
      8009       8010       8021       8020       8130       8131       8142       8141  
      8010       8011       8022       8021       8131       8132       8143       8142  
      8011       8012       8023       8022       8132       8133       8144       8143  
      8012       8013       8024       8023       8133       8134       8145       8144  
      8013       8014       8025       8024       8134       8135       8146       8145  
      8014       8015       8026       8025       8135       8136       8147       8146  
      8015       8016       8027       8026       8136       8137       8148       8147  
      8016       8017       8028       8027       8137       8138       8149       8148  
      8017       8018       8029       8028       8138       8139       8150       8149  
      8018       8019       8030       8029       8139       8140       8151       8150  
      8020       8021       8032       8031       8141       8142       8153       8152  
      8021       8022       8033       8032       8142       8143       8154       8153  
      8022       8023       8034       8033       8143       8144       8155       8154  
      8023       8024       8035       8034       8144       8145       8156       8155  
      8024       8025       8036       8035       8145       8146       8157       8156  
      8025       8026       8037       8036       8146       8147       8158       8157  
      8026       8027       8038       8037       8147       8148       8159       8158  
      8027       8028       8039       8038       8148       8149       8160       8159  
      8028       8029       8040       8039       8149       8150       8161       8160  
      8029       8030       8041       8040       8150       8151       8162       8161  
      8031       8032       8043       8042       8152       8153       8164       8163  
      8032       8033       8044       8043       8153       8154       8165       8164  
      8033       8034       8045       8044       8154       8155       8166       8165  
      8034       8035       8046       8045       8155       8156       8167       8166  
      8035       8036       8047       8046       8156       8157       8168       8167  
      8036       8037       8048       8047       8157       8158       8169       8168  
      8037       8038       8049       8048       8158       8159       8170       8169  
      8038       8039       8050       8049       8159       8160       8171       8170  
      8039       8040       8051       8050       8160       8161       8172       8171  
      8040       8041       8052       8051       8161       8162       8173       8172  
      8042       8043       8054       8053       8163       8164       8175       8174  
      8043       8044       8055       8054       8164       8165       8176       8175  
      8044       8045       8056       8055       8165       8166       8177       8176  
      8045       8046       8057       8056       8166       8167       8178       8177  
      8046       8047       8058       8057       8167       8168       8179       8178  
      8047       8048       8059       8058       8168       8169       8180       8179  
      8048       8049       8060       8059       8169       8170       8181       8180  
      8049       8050       8061       8060       8170       8171       8182       8181  
      8050       8051       8062       8061       8171       8172       8183       8182  
      8051       8052       8063       8062       8172       8173       8184       8183  
      8053       8054       8065       8064       8174       8175       8186       8185  
      8054       8055       8066       8065       8175       8176       8187       8186  
      8055       8056       8067       8066       8176       8177       8188       8187  
      8056       8057       8068       8067       8177       8178       8189       8188  
      8057       8058       8069       8068       8178       8179       8190       8189  
      8058       8059       8070       8069       8179       8180       8191       8190  
      8059       8060       8071       8070       8180       8181       8192       8191  
      8060       8061       8072       8071       8181       8182       8193       8192  
      8061       8062       8073       8072       8182       8183       8194       8193  
      8062       8063       8074       8073       8183       8184       8195       8194  
      8064       8065       8076       8075       8185       8186       8197       8196  
      8065       8066       8077       8076       8186       8187       8198       8197  
      8066       8067       8078       8077       8187       8188       8199       8198  
      8067       8068       8079       8078       8188       8189       8200       8199  
      8068       8069       8080       8079       8189       8190       8201       8200  
      8069       8070       8081       8080       8190       8191       8202       8201  
      8070       8071       8082       8081       8191       8192       8203       8202  
      8071       8072       8083       8082       8192       8193       8204       8203  
      8072       8073       8084       8083       8193       8194       8205       8204  
      8073       8074       8085       8084       8194       8195       8206       8205  
      8075       8076       8087       8086       8196       8197       8208       8207  
      8076       8077       8088       8087       8197       8198       8209       8208  
      8077       8078       8089       8088       8198       8199       8210       8209  
      8078       8079       8090       8089       8199       8200       8211       8210  
      8079       8080       8091       8090       8200       8201       8212       8211  
      8080       8081       8092       8091       8201       8202       8213       8212  
      8081       8082       8093       8092       8202       8203       8214       8213  
      8082       8083       8094       8093       8203       8204       8215       8214  
      8083       8084       8095       8094       8204       8205       8216       8215  
      8084       8085       8096       8095       8205       8206       8217       8216  
      8086       8087       8098       8097       8207       8208       8219       8218  
      8087       8088       8099       8098       8208       8209       8220       8219  
      8088       8089       8100       8099       8209       8210       8221       8220  
      8089       8090       8101       8100       8210       8211       8222       8221  
      8090       8091       8102       8101       8211       8212       8223       8222  
      8091       8092       8103       8102       8212       8213       8224       8223  
      8092       8093       8104       8103       8213       8214       8225       8224  
      8093       8094       8105       8104       8214       8215       8226       8225  
      8094       8095       8106       8105       8215       8216       8227       8226  
      8095       8096       8107       8106       8216       8217       8228       8227  
      8108       8109       8120       8119       8229       8230       8241       8240  
      8109       8110       8121       8120       8230       8231       8242       8241  
      8110       8111       8122       8121       8231       8232       8243       8242  
      8111       8112       8123       8122       8232       8233       8244       8243  
      8112       8113       8124       8123       8233       8234       8245       8244  
      8113       8114       8125       8124       8234       8235       8246       8245  
      8114       8115       8126       8125       8235       8236       8247       8246  
      8115       8116       8127       8126       8236       8237       8248       8247  
      8116       8117       8128       8127       8237       8238       8249       8248  
      8117       8118       8129       8128       8238       8239       8250       8249  
      8119       8120       8131       8130       8240       8241       8252       8251  
      8120       8121       8132       8131       8241       8242       8253       8252  
      8121       8122       8133       8132       8242       8243       8254       8253  
      8122       8123       8134       8133       8243       8244       8255       8254  
      8123       8124       8135       8134       8244       8245       8256       8255  
      8124       8125       8136       8135       8245       8246       8257       8256  
      8125       8126       8137       8136       8246       8247       8258       8257  
      8126       8127       8138       8137       8247       8248       8259       8258  
      8127       8128       8139       8138       8248       8249       8260       8259  
      8128       8129       8140       8139       8249       8250       8261       8260  
      8130       8131       8142       8141       8251       8252       8263       8262  
      8131       8132       8143       8142       8252       8253       8264       8263  
      8132       8133       8144       8143       8253       8254       8265       8264  
      8133       8134       8145       8144       8254       8255       8266       8265  
      8134       8135       8146       8145       8255       8256       8267       8266  
      8135       8136       8147       8146       8256       8257       8268       8267  
      8136       8137       8148       8147       8257       8258       8269       8268  
      8137       8138       8149       8148       8258       8259       8270       8269  
      8138       8139       8150       8149       8259       8260       8271       8270  
      8139       8140       8151       8150       8260       8261       8272       8271  
      8141       8142       8153       8152       8262       8263       8274       8273  
      8142       8143       8154       8153       8263       8264       8275       8274  
      8143       8144       8155       8154       8264       8265       8276       8275  
      8144       8145       8156       8155       8265       8266       8277       8276  
      8145       8146       8157       8156       8266       8267       8278       8277  
      8146       8147       8158       8157       8267       8268       8279       8278  
      8147       8148       8159       8158       8268       8269       8280       8279  
      8148       8149       8160       8159       8269       8270       8281       8280  
      8149       8150       8161       8160       8270       8271       8282       8281  
      8150       8151       8162       8161       8271       8272       8283       8282  
      8152       8153       8164       8163       8273       8274       8285       8284  
      8153       8154       8165       8164       8274       8275       8286       8285  
      8154       8155       8166       8165       8275       8276       8287       8286  
      8155       8156       8167       8166       8276       8277       8288       8287  
      8156       8157       8168       8167       8277       8278       8289       8288  
      8157       8158       8169       8168       8278       8279       8290       8289  
      8158       8159       8170       8169       8279       8280       8291       8290  
      8159       8160       8171       8170       8280       8281       8292       8291  
      8160       8161       8172       8171       8281       8282       8293       8292  
      8161       8162       8173       8172       8282       8283       8294       8293  
      8163       8164       8175       8174       8284       8285       8296       8295  
      8164       8165       8176       8175       8285       8286       8297       8296  
      8165       8166       8177       8176       8286       8287       8298       8297  
      8166       8167       8178       8177       8287       8288       8299       8298  
      8167       8168       8179       8178       8288       8289       8300       8299  
      8168       8169       8180       8179       8289       8290       8301       8300  
      8169       8170       8181       8180       8290       8291       8302       8301  
      8170       8171       8182       8181       8291       8292       8303       8302  
      8171       8172       8183       8182       8292       8293       8304       8303  
      8172       8173       8184       8183       8293       8294       8305       8304  
      8174       8175       8186       8185       8295       8296       8307       8306  
      8175       8176       8187       8186       8296       8297       8308       8307  
      8176       8177       8188       8187       8297       8298       8309       8308  
      8177       8178       8189       8188       8298       8299       8310       8309  
      8178       8179       8190       8189       8299       8300       8311       8310  
      8179       8180       8191       8190       8300       8301       8312       8311  
      8180       8181       8192       8191       8301       8302       8313       8312  
      8181       8182       8193       8192       8302       8303       8314       8313  
      8182       8183       8194       8193       8303       8304       8315       8314  
      8183       8184       8195       8194       8304       8305       8316       8315  
      8185       8186       8197       8196       8306       8307       8318       8317  
      8186       8187       8198       8197       8307       8308       8319       8318  
      8187       8188       8199       8198       8308       8309       8320       8319  
      8188       8189       8200       8199       8309       8310       8321       8320  
      8189       8190       8201       8200       8310       8311       8322       8321  
      8190       8191       8202       8201       8311       8312       8323       8322  
      8191       8192       8203       8202       8312       8313       8324       8323  
      8192       8193       8204       8203       8313       8314       8325       8324  
      8193       8194       8205       8204       8314       8315       8326       8325  
      8194       8195       8206       8205       8315       8316       8327       8326  
      8196       8197       8208       8207       8317       8318       8329       8328  
      8197       8198       8209       8208       8318       8319       8330       8329  
      8198       8199       8210       8209       8319       8320       8331       8330  
      8199       8200       8211       8210       8320       8321       8332       8331  
      8200       8201       8212       8211       8321       8322       8333       8332  
      8201       8202       8213       8212       8322       8323       8334       8333  
      8202       8203       8214       8213       8323       8324       8335       8334  
      8203       8204       8215       8214       8324       8325       8336       8335  
      8204       8205       8216       8215       8325       8326       8337       8336  
      8205       8206       8217       8216       8326       8327       8338       8337  
      8207       8208       8219       8218       8328       8329       8340       8339  
      8208       8209       8220       8219       8329       8330       8341       8340  
      8209       8210       8221       8220       8330       8331       8342       8341  
      8210       8211       8222       8221       8331       8332       8343       8342  
      8211       8212       8223       8222       8332       8333       8344       8343  
      8212       8213       8224       8223       8333       8334       8345       8344  
      8213       8214       8225       8224       8334       8335       8346       8345  
      8214       8215       8226       8225       8335       8336       8347       8346  
      8215       8216       8227       8226       8336       8337       8348       8347  
      8216       8217       8228       8227       8337       8338       8349       8348  
      8229       8230       8241       8240       8350       8351       8362       8361  
      8230       8231       8242       8241       8351       8352       8363       8362  
      8231       8232       8243       8242       8352       8353       8364       8363  
      8232       8233       8244       8243       8353       8354       8365       8364  
      8233       8234       8245       8244       8354       8355       8366       8365  
      8234       8235       8246       8245       8355       8356       8367       8366  
      8235       8236       8247       8246       8356       8357       8368       8367  
      8236       8237       8248       8247       8357       8358       8369       8368  
      8237       8238       8249       8248       8358       8359       8370       8369  
      8238       8239       8250       8249       8359       8360       8371       8370  
      8240       8241       8252       8251       8361       8362       8373       8372  
      8241       8242       8253       8252       8362       8363       8374       8373  
      8242       8243       8254       8253       8363       8364       8375       8374  
      8243       8244       8255       8254       8364       8365       8376       8375  
      8244       8245       8256       8255       8365       8366       8377       8376  
      8245       8246       8257       8256       8366       8367       8378       8377  
      8246       8247       8258       8257       8367       8368       8379       8378  
      8247       8248       8259       8258       8368       8369       8380       8379  
      8248       8249       8260       8259       8369       8370       8381       8380  
      8249       8250       8261       8260       8370       8371       8382       8381  
      8251       8252       8263       8262       8372       8373       8384       8383  
      8252       8253       8264       8263       8373       8374       8385       8384  
      8253       8254       8265       8264       8374       8375       8386       8385  
      8254       8255       8266       8265       8375       8376       8387       8386  
      8255       8256       8267       8266       8376       8377       8388       8387  
      8256       8257       8268       8267       8377       8378       8389       8388  
      8257       8258       8269       8268       8378       8379       8390       8389  
      8258       8259       8270       8269       8379       8380       8391       8390  
      8259       8260       8271       8270       8380       8381       8392       8391  
      8260       8261       8272       8271       8381       8382       8393       8392  
      8262       8263       8274       8273       8383       8384       8395       8394  
      8263       8264       8275       8274       8384       8385       8396       8395  
      8264       8265       8276       8275       8385       8386       8397       8396  
      8265       8266       8277       8276       8386       8387       8398       8397  
      8266       8267       8278       8277       8387       8388       8399       8398  
      8267       8268       8279       8278       8388       8389       8400       8399  
      8268       8269       8280       8279       8389       8390       8401       8400  
      8269       8270       8281       8280       8390       8391       8402       8401  
      8270       8271       8282       8281       8391       8392       8403       8402  
      8271       8272       8283       8282       8392       8393       8404       8403  
      8273       8274       8285       8284       8394       8395       8406       8405  
      8274       8275       8286       8285       8395       8396       8407       8406  
      8275       8276       8287       8286       8396       8397       8408       8407  
      8276       8277       8288       8287       8397       8398       8409       8408  
      8277       8278       8289       8288       8398       8399       8410       8409  
      8278       8279       8290       8289       8399       8400       8411       8410  
      8279       8280       8291       8290       8400       8401       8412       8411  
      8280       8281       8292       8291       8401       8402       8413       8412  
      8281       8282       8293       8292       8402       8403       8414       8413  
      8282       8283       8294       8293       8403       8404       8415       8414  
      8284       8285       8296       8295       8405       8406       8417       8416  
      8285       8286       8297       8296       8406       8407       8418       8417  
      8286       8287       8298       8297       8407       8408       8419       8418  
      8287       8288       8299       8298       8408       8409       8420       8419  
      8288       8289       8300       8299       8409       8410       8421       8420  
      8289       8290       8301       8300       8410       8411       8422       8421  
      8290       8291       8302       8301       8411       8412       8423       8422  
      8291       8292       8303       8302       8412       8413       8424       8423  
      8292       8293       8304       8303       8413       8414       8425       8424  
      8293       8294       8305       8304       8414       8415       8426       8425  
      8295       8296       8307       8306       8416       8417       8428       8427  
      8296       8297       8308       8307       8417       8418       8429       8428  
      8297       8298       8309       8308       8418       8419       8430       8429  
      8298       8299       8310       8309       8419       8420       8431       8430  
      8299       8300       8311       8310       8420       8421       8432       8431  
      8300       8301       8312       8311       8421       8422       8433       8432  
      8301       8302       8313       8312       8422       8423       8434       8433  
      8302       8303       8314       8313       8423       8424       8435       8434  
      8303       8304       8315       8314       8424       8425       8436       8435  
      8304       8305       8316       8315       8425       8426       8437       8436  
      8306       8307       8318       8317       8427       8428       8439       8438  
      8307       8308       8319       8318       8428       8429       8440       8439  
      8308       8309       8320       8319       8429       8430       8441       8440  
      8309       8310       8321       8320       8430       8431       8442       8441  
      8310       8311       8322       8321       8431       8432       8443       8442  
      8311       8312       8323       8322       8432       8433       8444       8443  
      8312       8313       8324       8323       8433       8434       8445       8444  
      8313       8314       8325       8324       8434       8435       8446       8445  
      8314       8315       8326       8325       8435       8436       8447       8446  
      8315       8316       8327       8326       8436       8437       8448       8447  
      8317       8318       8329       8328       8438       8439       8450       8449  
      8318       8319       8330       8329       8439       8440       8451       8450  
      8319       8320       8331       8330       8440       8441       8452       8451  
      8320       8321       8332       8331       8441       8442       8453       8452  
      8321       8322       8333       8332       8442       8443       8454       8453  
      8322       8323       8334       8333       8443       8444       8455       8454  
      8323       8324       8335       8334       8444       8445       8456       8455  
      8324       8325       8336       8335       8445       8446       8457       8456  
      8325       8326       8337       8336       8446       8447       8458       8457  
      8326       8327       8338       8337       8447       8448       8459       8458  
      8328       8329       8340       8339       8449       8450       8461       8460  
      8329       8330       8341       8340       8450       8451       8462       8461  
      8330       8331       8342       8341       8451       8452       8463       8462  
      8331       8332       8343       8342       8452       8453       8464       8463  
      8332       8333       8344       8343       8453       8454       8465       8464  
      8333       8334       8345       8344       8454       8455       8466       8465  
      8334       8335       8346       8345       8455       8456       8467       8466  
      8335       8336       8347       8346       8456       8457       8468       8467  
      8336       8337       8348       8347       8457       8458       8469       8468  
      8337       8338       8349       8348       8458       8459       8470       8469  
      8350       8351       8362       8361       8471       8472       8483       8482  
      8351       8352       8363       8362       8472       8473       8484       8483  
      8352       8353       8364       8363       8473       8474       8485       8484  
      8353       8354       8365       8364       8474       8475       8486       8485  
      8354       8355       8366       8365       8475       8476       8487       8486  
      8355       8356       8367       8366       8476       8477       8488       8487  
      8356       8357       8368       8367       8477       8478       8489       8488  
      8357       8358       8369       8368       8478       8479       8490       8489  
      8358       8359       8370       8369       8479       8480       8491       8490  
      8359       8360       8371       8370       8480       8481       8492       8491  
      8361       8362       8373       8372       8482       8483       8494       8493  
      8362       8363       8374       8373       8483       8484       8495       8494  
      8363       8364       8375       8374       8484       8485       8496       8495  
      8364       8365       8376       8375       8485       8486       8497       8496  
      8365       8366       8377       8376       8486       8487       8498       8497  
      8366       8367       8378       8377       8487       8488       8499       8498  
      8367       8368       8379       8378       8488       8489       8500       8499  
      8368       8369       8380       8379       8489       8490       8501       8500  
      8369       8370       8381       8380       8490       8491       8502       8501  
      8370       8371       8382       8381       8491       8492       8503       8502  
      8372       8373       8384       8383       8493       8494       8505       8504  
      8373       8374       8385       8384       8494       8495       8506       8505  
      8374       8375       8386       8385       8495       8496       8507       8506  
      8375       8376       8387       8386       8496       8497       8508       8507  
      8376       8377       8388       8387       8497       8498       8509       8508  
      8377       8378       8389       8388       8498       8499       8510       8509  
      8378       8379       8390       8389       8499       8500       8511       8510  
      8379       8380       8391       8390       8500       8501       8512       8511  
      8380       8381       8392       8391       8501       8502       8513       8512  
      8381       8382       8393       8392       8502       8503       8514       8513  
      8383       8384       8395       8394       8504       8505       8516       8515  
      8384       8385       8396       8395       8505       8506       8517       8516  
      8385       8386       8397       8396       8506       8507       8518       8517  
      8386       8387       8398       8397       8507       8508       8519       8518  
      8387       8388       8399       8398       8508       8509       8520       8519  
      8388       8389       8400       8399       8509       8510       8521       8520  
      8389       8390       8401       8400       8510       8511       8522       8521  
      8390       8391       8402       8401       8511       8512       8523       8522  
      8391       8392       8403       8402       8512       8513       8524       8523  
      8392       8393       8404       8403       8513       8514       8525       8524  
      8394       8395       8406       8405       8515       8516       8527       8526  
      8395       8396       8407       8406       8516       8517       8528       8527  
      8396       8397       8408       8407       8517       8518       8529       8528  
      8397       8398       8409       8408       8518       8519       8530       8529  
      8398       8399       8410       8409       8519       8520       8531       8530  
      8399       8400       8411       8410       8520       8521       8532       8531  
      8400       8401       8412       8411       8521       8522       8533       8532  
      8401       8402       8413       8412       8522       8523       8534       8533  
      8402       8403       8414       8413       8523       8524       8535       8534  
      8403       8404       8415       8414       8524       8525       8536       8535  
      8405       8406       8417       8416       8526       8527       8538       8537  
      8406       8407       8418       8417       8527       8528       8539       8538  
      8407       8408       8419       8418       8528       8529       8540       8539  
      8408       8409       8420       8419       8529       8530       8541       8540  
      8409       8410       8421       8420       8530       8531       8542       8541  
      8410       8411       8422       8421       8531       8532       8543       8542  
      8411       8412       8423       8422       8532       8533       8544       8543  
      8412       8413       8424       8423       8533       8534       8545       8544  
      8413       8414       8425       8424       8534       8535       8546       8545  
      8414       8415       8426       8425       8535       8536       8547       8546  
      8416       8417       8428       8427       8537       8538       8549       8548  
      8417       8418       8429       8428       8538       8539       8550       8549  
      8418       8419       8430       8429       8539       8540       8551       8550  
      8419       8420       8431       8430       8540       8541       8552       8551  
      8420       8421       8432       8431       8541       8542       8553       8552  
      8421       8422       8433       8432       8542       8543       8554       8553  
      8422       8423       8434       8433       8543       8544       8555       8554  
      8423       8424       8435       8434       8544       8545       8556       8555  
      8424       8425       8436       8435       8545       8546       8557       8556  
      8425       8426       8437       8436       8546       8547       8558       8557  
      8427       8428       8439       8438       8548       8549       8560       8559  
      8428       8429       8440       8439       8549       8550       8561       8560  
      8429       8430       8441       8440       8550       8551       8562       8561  
      8430       8431       8442       8441       8551       8552       8563       8562  
      8431       8432       8443       8442       8552       8553       8564       8563  
      8432       8433       8444       8443       8553       8554       8565       8564  
      8433       8434       8445       8444       8554       8555       8566       8565  
      8434       8435       8446       8445       8555       8556       8567       8566  
      8435       8436       8447       8446       8556       8557       8568       8567  
      8436       8437       8448       8447       8557       8558       8569       8568  
      8438       8439       8450       8449       8559       8560       8571       8570  
      8439       8440       8451       8450       8560       8561       8572       8571  
      8440       8441       8452       8451       8561       8562       8573       8572  
      8441       8442       8453       8452       8562       8563       8574       8573  
      8442       8443       8454       8453       8563       8564       8575       8574  
      8443       8444       8455       8454       8564       8565       8576       8575  
      8444       8445       8456       8455       8565       8566       8577       8576  
      8445       8446       8457       8456       8566       8567       8578       8577  
      8446       8447       8458       8457       8567       8568       8579       8578  
      8447       8448       8459       8458       8568       8569       8580       8579  
      8449       8450       8461       8460       8570       8571       8582       8581  
      8450       8451       8462       8461       8571       8572       8583       8582  
      8451       8452       8463       8462       8572       8573       8584       8583  
      8452       8453       8464       8463       8573       8574       8585       8584  
      8453       8454       8465       8464       8574       8575       8586       8585  
      8454       8455       8466       8465       8575       8576       8587       8586  
      8455       8456       8467       8466       8576       8577       8588       8587  
      8456       8457       8468       8467       8577       8578       8589       8588  
      8457       8458       8469       8468       8578       8579       8590       8589  
      8458       8459       8470       8469       8579       8580       8591       8590  
      8471       8472       8483       8482       8592       8593       8604       8603  
      8472       8473       8484       8483       8593       8594       8605       8604  
      8473       8474       8485       8484       8594       8595       8606       8605  
      8474       8475       8486       8485       8595       8596       8607       8606  
      8475       8476       8487       8486       8596       8597       8608       8607  
      8476       8477       8488       8487       8597       8598       8609       8608  
      8477       8478       8489       8488       8598       8599       8610       8609  
      8478       8479       8490       8489       8599       8600       8611       8610  
      8479       8480       8491       8490       8600       8601       8612       8611  
      8480       8481       8492       8491       8601       8602       8613       8612  
      8482       8483       8494       8493       8603       8604       8615       8614  
      8483       8484       8495       8494       8604       8605       8616       8615  
      8484       8485       8496       8495       8605       8606       8617       8616  
      8485       8486       8497       8496       8606       8607       8618       8617  
      8486       8487       8498       8497       8607       8608       8619       8618  
      8487       8488       8499       8498       8608       8609       8620       8619  
      8488       8489       8500       8499       8609       8610       8621       8620  
      8489       8490       8501       8500       8610       8611       8622       8621  
      8490       8491       8502       8501       8611       8612       8623       8622  
      8491       8492       8503       8502       8612       8613       8624       8623  
      8493       8494       8505       8504       8614       8615       8626       8625  
      8494       8495       8506       8505       8615       8616       8627       8626  
      8495       8496       8507       8506       8616       8617       8628       8627  
      8496       8497       8508       8507       8617       8618       8629       8628  
      8497       8498       8509       8508       8618       8619       8630       8629  
      8498       8499       8510       8509       8619       8620       8631       8630  
      8499       8500       8511       8510       8620       8621       8632       8631  
      8500       8501       8512       8511       8621       8622       8633       8632  
      8501       8502       8513       8512       8622       8623       8634       8633  
      8502       8503       8514       8513       8623       8624       8635       8634  
      8504       8505       8516       8515       8625       8626       8637       8636  
      8505       8506       8517       8516       8626       8627       8638       8637  
      8506       8507       8518       8517       8627       8628       8639       8638  
      8507       8508       8519       8518       8628       8629       8640       8639  
      8508       8509       8520       8519       8629       8630       8641       8640  
      8509       8510       8521       8520       8630       8631       8642       8641  
      8510       8511       8522       8521       8631       8632       8643       8642  
      8511       8512       8523       8522       8632       8633       8644       8643  
      8512       8513       8524       8523       8633       8634       8645       8644  
      8513       8514       8525       8524       8634       8635       8646       8645  
      8515       8516       8527       8526       8636       8637       8648       8647  
      8516       8517       8528       8527       8637       8638       8649       8648  
      8517       8518       8529       8528       8638       8639       8650       8649  
      8518       8519       8530       8529       8639       8640       8651       8650  
      8519       8520       8531       8530       8640       8641       8652       8651  
      8520       8521       8532       8531       8641       8642       8653       8652  
      8521       8522       8533       8532       8642       8643       8654       8653  
      8522       8523       8534       8533       8643       8644       8655       8654  
      8523       8524       8535       8534       8644       8645       8656       8655  
      8524       8525       8536       8535       8645       8646       8657       8656  
      8526       8527       8538       8537       8647       8648       8659       8658  
      8527       8528       8539       8538       8648       8649       8660       8659  
      8528       8529       8540       8539       8649       8650       8661       8660  
      8529       8530       8541       8540       8650       8651       8662       8661  
      8530       8531       8542       8541       8651       8652       8663       8662  
      8531       8532       8543       8542       8652       8653       8664       8663  
      8532       8533       8544       8543       8653       8654       8665       8664  
      8533       8534       8545       8544       8654       8655       8666       8665  
      8534       8535       8546       8545       8655       8656       8667       8666  
      8535       8536       8547       8546       8656       8657       8668       8667  
      8537       8538       8549       8548       8658       8659       8670       8669  
      8538       8539       8550       8549       8659       8660       8671       8670  
      8539       8540       8551       8550       8660       8661       8672       8671  
      8540       8541       8552       8551       8661       8662       8673       8672  
      8541       8542       8553       8552       8662       8663       8674       8673  
      8542       8543       8554       8553       8663       8664       8675       8674  
      8543       8544       8555       8554       8664       8665       8676       8675  
      8544       8545       8556       8555       8665       8666       8677       8676  
      8545       8546       8557       8556       8666       8667       8678       8677  
      8546       8547       8558       8557       8667       8668       8679       8678  
      8548       8549       8560       8559       8669       8670       8681       8680  
      8549       8550       8561       8560       8670       8671       8682       8681  
      8550       8551       8562       8561       8671       8672       8683       8682  
      8551       8552       8563       8562       8672       8673       8684       8683  
      8552       8553       8564       8563       8673       8674       8685       8684  
      8553       8554       8565       8564       8674       8675       8686       8685  
      8554       8555       8566       8565       8675       8676       8687       8686  
      8555       8556       8567       8566       8676       8677       8688       8687  
      8556       8557       8568       8567       8677       8678       8689       8688  
      8557       8558       8569       8568       8678       8679       8690       8689  
      8559       8560       8571       8570       8680       8681       8692       8691  
      8560       8561       8572       8571       8681       8682       8693       8692  
      8561       8562       8573       8572       8682       8683       8694       8693  
      8562       8563       8574       8573       8683       8684       8695       8694  
      8563       8564       8575       8574       8684       8685       8696       8695  
      8564       8565       8576       8575       8685       8686       8697       8696  
      8565       8566       8577       8576       8686       8687       8698       8697  
      8566       8567       8578       8577       8687       8688       8699       8698  
      8567       8568       8579       8578       8688       8689       8700       8699  
      8568       8569       8580       8579       8689       8690       8701       8700  
      8570       8571       8582       8581       8691       8692       8703       8702  
      8571       8572       8583       8582       8692       8693       8704       8703  
      8572       8573       8584       8583       8693       8694       8705       8704  
      8573       8574       8585       8584       8694       8695       8706       8705  
      8574       8575       8586       8585       8695       8696       8707       8706  
      8575       8576       8587       8586       8696       8697       8708       8707  
      8576       8577       8588       8587       8697       8698       8709       8708  
      8577       8578       8589       8588       8698       8699       8710       8709  
      8578       8579       8590       8589       8699       8700       8711       8710  
      8579       8580       8591       8590       8700       8701       8712       8711  
      8592       8593       8604       8603       8713       8714       8725       8724  
      8593       8594       8605       8604       8714       8715       8726       8725  
      8594       8595       8606       8605       8715       8716       8727       8726  
      8595       8596       8607       8606       8716       8717       8728       8727  
      8596       8597       8608       8607       8717       8718       8729       8728  
      8597       8598       8609       8608       8718       8719       8730       8729  
      8598       8599       8610       8609       8719       8720       8731       8730  
      8599       8600       8611       8610       8720       8721       8732       8731  
      8600       8601       8612       8611       8721       8722       8733       8732  
      8601       8602       8613       8612       8722       8723       8734       8733  
      8603       8604       8615       8614       8724       8725       8736       8735  
      8604       8605       8616       8615       8725       8726       8737       8736  
      8605       8606       8617       8616       8726       8727       8738       8737  
      8606       8607       8618       8617       8727       8728       8739       8738  
      8607       8608       8619       8618       8728       8729       8740       8739  
      8608       8609       8620       8619       8729       8730       8741       8740  
      8609       8610       8621       8620       8730       8731       8742       8741  
      8610       8611       8622       8621       8731       8732       8743       8742  
      8611       8612       8623       8622       8732       8733       8744       8743  
      8612       8613       8624       8623       8733       8734       8745       8744  
      8614       8615       8626       8625       8735       8736       8747       8746  
      8615       8616       8627       8626       8736       8737       8748       8747  
      8616       8617       8628       8627       8737       8738       8749       8748  
      8617       8618       8629       8628       8738       8739       8750       8749  
      8618       8619       8630       8629       8739       8740       8751       8750  
      8619       8620       8631       8630       8740       8741       8752       8751  
      8620       8621       8632       8631       8741       8742       8753       8752  
      8621       8622       8633       8632       8742       8743       8754       8753  
      8622       8623       8634       8633       8743       8744       8755       8754  
      8623       8624       8635       8634       8744       8745       8756       8755  
      8625       8626       8637       8636       8746       8747       8758       8757  
      8626       8627       8638       8637       8747       8748       8759       8758  
      8627       8628       8639       8638       8748       8749       8760       8759  
      8628       8629       8640       8639       8749       8750       8761       8760  
      8629       8630       8641       8640       8750       8751       8762       8761  
      8630       8631       8642       8641       8751       8752       8763       8762  
      8631       8632       8643       8642       8752       8753       8764       8763  
      8632       8633       8644       8643       8753       8754       8765       8764  
      8633       8634       8645       8644       8754       8755       8766       8765  
      8634       8635       8646       8645       8755       8756       8767       8766  
      8636       8637       8648       8647       8757       8758       8769       8768  
      8637       8638       8649       8648       8758       8759       8770       8769  
      8638       8639       8650       8649       8759       8760       8771       8770  
      8639       8640       8651       8650       8760       8761       8772       8771  
      8640       8641       8652       8651       8761       8762       8773       8772  
      8641       8642       8653       8652       8762       8763       8774       8773  
      8642       8643       8654       8653       8763       8764       8775       8774  
      8643       8644       8655       8654       8764       8765       8776       8775  
      8644       8645       8656       8655       8765       8766       8777       8776  
      8645       8646       8657       8656       8766       8767       8778       8777  
      8647       8648       8659       8658       8768       8769       8780       8779  
      8648       8649       8660       8659       8769       8770       8781       8780  
      8649       8650       8661       8660       8770       8771       8782       8781  
      8650       8651       8662       8661       8771       8772       8783       8782  
      8651       8652       8663       8662       8772       8773       8784       8783  
      8652       8653       8664       8663       8773       8774       8785       8784  
      8653       8654       8665       8664       8774       8775       8786       8785  
      8654       8655       8666       8665       8775       8776       8787       8786  
      8655       8656       8667       8666       8776       8777       8788       8787  
      8656       8657       8668       8667       8777       8778       8789       8788  
      8658       8659       8670       8669       8779       8780       8791       8790  
      8659       8660       8671       8670       8780       8781       8792       8791  
      8660       8661       8672       8671       8781       8782       8793       8792  
      8661       8662       8673       8672       8782       8783       8794       8793  
      8662       8663       8674       8673       8783       8784       8795       8794  
      8663       8664       8675       8674       8784       8785       8796       8795  
      8664       8665       8676       8675       8785       8786       8797       8796  
      8665       8666       8677       8676       8786       8787       8798       8797  
      8666       8667       8678       8677       8787       8788       8799       8798  
      8667       8668       8679       8678       8788       8789       8800       8799  
      8669       8670       8681       8680       8790       8791       8802       8801  
      8670       8671       8682       8681       8791       8792       8803       8802  
      8671       8672       8683       8682       8792       8793       8804       8803  
      8672       8673       8684       8683       8793       8794       8805       8804  
      8673       8674       8685       8684       8794       8795       8806       8805  
      8674       8675       8686       8685       8795       8796       8807       8806  
      8675       8676       8687       8686       8796       8797       8808       8807  
      8676       8677       8688       8687       8797       8798       8809       8808  
      8677       8678       8689       8688       8798       8799       8810       8809  
      8678       8679       8690       8689       8799       8800       8811       8810  
      8680       8681       8692       8691       8801       8802       8813       8812  
      8681       8682       8693       8692       8802       8803       8814       8813  
      8682       8683       8694       8693       8803       8804       8815       8814  
      8683       8684       8695       8694       8804       8805       8816       8815  
      8684       8685       8696       8695       8805       8806       8817       8816  
      8685       8686       8697       8696       8806       8807       8818       8817  
      8686       8687       8698       8697       8807       8808       8819       8818  
      8687       8688       8699       8698       8808       8809       8820       8819  
      8688       8689       8700       8699       8809       8810       8821       8820  
      8689       8690       8701       8700       8810       8811       8822       8821  
      8691       8692       8703       8702       8812       8813       8824       8823  
      8692       8693       8704       8703       8813       8814       8825       8824  
      8693       8694       8705       8704       8814       8815       8826       8825  
      8694       8695       8706       8705       8815       8816       8827       8826  
      8695       8696       8707       8706       8816       8817       8828       8827  
      8696       8697       8708       8707       8817       8818       8829       8828  
      8697       8698       8709       8708       8818       8819       8830       8829  
      8698       8699       8710       8709       8819       8820       8831       8830  
      8699       8700       8711       8710       8820       8821       8832       8831  
      8700       8701       8712       8711       8821       8822       8833       8832  
      8713       8714       8725       8724       8834       8835       8846       8845  
      8714       8715       8726       8725       8835       8836       8847       8846  
      8715       8716       8727       8726       8836       8837       8848       8847  
      8716       8717       8728       8727       8837       8838       8849       8848  
      8717       8718       8729       8728       8838       8839       8850       8849  
      8718       8719       8730       8729       8839       8840       8851       8850  
      8719       8720       8731       8730       8840       8841       8852       8851  
      8720       8721       8732       8731       8841       8842       8853       8852  
      8721       8722       8733       8732       8842       8843       8854       8853  
      8722       8723       8734       8733       8843       8844       8855       8854  
      8724       8725       8736       8735       8845       8846       8857       8856  
      8725       8726       8737       8736       8846       8847       8858       8857  
      8726       8727       8738       8737       8847       8848       8859       8858  
      8727       8728       8739       8738       8848       8849       8860       8859  
      8728       8729       8740       8739       8849       8850       8861       8860  
      8729       8730       8741       8740       8850       8851       8862       8861  
      8730       8731       8742       8741       8851       8852       8863       8862  
      8731       8732       8743       8742       8852       8853       8864       8863  
      8732       8733       8744       8743       8853       8854       8865       8864  
      8733       8734       8745       8744       8854       8855       8866       8865  
      8735       8736       8747       8746       8856       8857       8868       8867  
      8736       8737       8748       8747       8857       8858       8869       8868  
      8737       8738       8749       8748       8858       8859       8870       8869  
      8738       8739       8750       8749       8859       8860       8871       8870  
      8739       8740       8751       8750       8860       8861       8872       8871  
      8740       8741       8752       8751       8861       8862       8873       8872  
      8741       8742       8753       8752       8862       8863       8874       8873  
      8742       8743       8754       8753       8863       8864       8875       8874  
      8743       8744       8755       8754       8864       8865       8876       8875  
      8744       8745       8756       8755       8865       8866       8877       8876  
      8746       8747       8758       8757       8867       8868       8879       8878  
      8747       8748       8759       8758       8868       8869       8880       8879  
      8748       8749       8760       8759       8869       8870       8881       8880  
      8749       8750       8761       8760       8870       8871       8882       8881  
      8750       8751       8762       8761       8871       8872       8883       8882  
      8751       8752       8763       8762       8872       8873       8884       8883  
      8752       8753       8764       8763       8873       8874       8885       8884  
      8753       8754       8765       8764       8874       8875       8886       8885  
      8754       8755       8766       8765       8875       8876       8887       8886  
      8755       8756       8767       8766       8876       8877       8888       8887  
      8757       8758       8769       8768       8878       8879       8890       8889  
      8758       8759       8770       8769       8879       8880       8891       8890  
      8759       8760       8771       8770       8880       8881       8892       8891  
      8760       8761       8772       8771       8881       8882       8893       8892  
      8761       8762       8773       8772       8882       8883       8894       8893  
      8762       8763       8774       8773       8883       8884       8895       8894  
      8763       8764       8775       8774       8884       8885       8896       8895  
      8764       8765       8776       8775       8885       8886       8897       8896  
      8765       8766       8777       8776       8886       8887       8898       8897  
      8766       8767       8778       8777       8887       8888       8899       8898  
      8768       8769       8780       8779       8889       8890       8901       8900  
      8769       8770       8781       8780       8890       8891       8902       8901  
      8770       8771       8782       8781       8891       8892       8903       8902  
      8771       8772       8783       8782       8892       8893       8904       8903  
      8772       8773       8784       8783       8893       8894       8905       8904  
      8773       8774       8785       8784       8894       8895       8906       8905  
      8774       8775       8786       8785       8895       8896       8907       8906  
      8775       8776       8787       8786       8896       8897       8908       8907  
      8776       8777       8788       8787       8897       8898       8909       8908  
      8777       8778       8789       8788       8898       8899       8910       8909  
      8779       8780       8791       8790       8900       8901       8912       8911  
      8780       8781       8792       8791       8901       8902       8913       8912  
      8781       8782       8793       8792       8902       8903       8914       8913  
      8782       8783       8794       8793       8903       8904       8915       8914  
      8783       8784       8795       8794       8904       8905       8916       8915  
      8784       8785       8796       8795       8905       8906       8917       8916  
      8785       8786       8797       8796       8906       8907       8918       8917  
      8786       8787       8798       8797       8907       8908       8919       8918  
      8787       8788       8799       8798       8908       8909       8920       8919  
      8788       8789       8800       8799       8909       8910       8921       8920  
      8790       8791       8802       8801       8911       8912       8923       8922  
      8791       8792       8803       8802       8912       8913       8924       8923  
      8792       8793       8804       8803       8913       8914       8925       8924  
      8793       8794       8805       8804       8914       8915       8926       8925  
      8794       8795       8806       8805       8915       8916       8927       8926  
      8795       8796       8807       8806       8916       8917       8928       8927  
      8796       8797       8808       8807       8917       8918       8929       8928  
      8797       8798       8809       8808       8918       8919       8930       8929  
      8798       8799       8810       8809       8919       8920       8931       8930  
      8799       8800       8811       8810       8920       8921       8932       8931  
      8801       8802       8813       8812       8922       8923       8934       8933  
      8802       8803       8814       8813       8923       8924       8935       8934  
      8803       8804       8815       8814       8924       8925       8936       8935  
      8804       8805       8816       8815       8925       8926       8937       8936  
      8805       8806       8817       8816       8926       8927       8938       8937  
      8806       8807       8818       8817       8927       8928       8939       8938  
      8807       8808       8819       8818       8928       8929       8940       8939  
      8808       8809       8820       8819       8929       8930       8941       8940  
      8809       8810       8821       8820       8930       8931       8942       8941  
      8810       8811       8822       8821       8931       8932       8943       8942  
      8812       8813       8824       8823       8933       8934       8945       8944  
      8813       8814       8825       8824       8934       8935       8946       8945  
      8814       8815       8826       8825       8935       8936       8947       8946  
      8815       8816       8827       8826       8936       8937       8948       8947  
      8816       8817       8828       8827       8937       8938       8949       8948  
      8817       8818       8829       8828       8938       8939       8950       8949  
      8818       8819       8830       8829       8939       8940       8951       8950  
      8819       8820       8831       8830       8940       8941       8952       8951  
      8820       8821       8832       8831       8941       8942       8953       8952  
      8821       8822       8833       8832       8942       8943       8954       8953  
      8834       8835       8846       8845       8955       8956       8967       8966  
      8835       8836       8847       8846       8956       8957       8968       8967  
      8836       8837       8848       8847       8957       8958       8969       8968  
      8837       8838       8849       8848       8958       8959       8970       8969  
      8838       8839       8850       8849       8959       8960       8971       8970  
      8839       8840       8851       8850       8960       8961       8972       8971  
      8840       8841       8852       8851       8961       8962       8973       8972  
      8841       8842       8853       8852       8962       8963       8974       8973  
      8842       8843       8854       8853       8963       8964       8975       8974  
      8843       8844       8855       8854       8964       8965       8976       8975  
      8845       8846       8857       8856       8966       8967       8978       8977  
      8846       8847       8858       8857       8967       8968       8979       8978  
      8847       8848       8859       8858       8968       8969       8980       8979  
      8848       8849       8860       8859       8969       8970       8981       8980  
      8849       8850       8861       8860       8970       8971       8982       8981  
      8850       8851       8862       8861       8971       8972       8983       8982  
      8851       8852       8863       8862       8972       8973       8984       8983  
      8852       8853       8864       8863       8973       8974       8985       8984  
      8853       8854       8865       8864       8974       8975       8986       8985  
      8854       8855       8866       8865       8975       8976       8987       8986  
      8856       8857       8868       8867       8977       8978       8989       8988  
      8857       8858       8869       8868       8978       8979       8990       8989  
      8858       8859       8870       8869       8979       8980       8991       8990  
      8859       8860       8871       8870       8980       8981       8992       8991  
      8860       8861       8872       8871       8981       8982       8993       8992  
      8861       8862       8873       8872       8982       8983       8994       8993  
      8862       8863       8874       8873       8983       8984       8995       8994  
      8863       8864       8875       8874       8984       8985       8996       8995  
      8864       8865       8876       8875       8985       8986       8997       8996  
      8865       8866       8877       8876       8986       8987       8998       8997  
      8867       8868       8879       8878       8988       8989       9000       8999  
      8868       8869       8880       8879       8989       8990       9001       9000  
      8869       8870       8881       8880       8990       8991       9002       9001  
      8870       8871       8882       8881       8991       8992       9003       9002  
      8871       8872       8883       8882       8992       8993       9004       9003  
      8872       8873       8884       8883       8993       8994       9005       9004  
      8873       8874       8885       8884       8994       8995       9006       9005  
      8874       8875       8886       8885       8995       8996       9007       9006  
      8875       8876       8887       8886       8996       8997       9008       9007  
      8876       8877       8888       8887       8997       8998       9009       9008  
      8878       8879       8890       8889       8999       9000       9011       9010  
      8879       8880       8891       8890       9000       9001       9012       9011  
      8880       8881       8892       8891       9001       9002       9013       9012  
      8881       8882       8893       8892       9002       9003       9014       9013  
      8882       8883       8894       8893       9003       9004       9015       9014  
      8883       8884       8895       8894       9004       9005       9016       9015  
      8884       8885       8896       8895       9005       9006       9017       9016  
      8885       8886       8897       8896       9006       9007       9018       9017  
      8886       8887       8898       8897       9007       9008       9019       9018  
      8887       8888       8899       8898       9008       9009       9020       9019  
      8889       8890       8901       8900       9010       9011       9022       9021  
      8890       8891       8902       8901       9011       9012       9023       9022  
      8891       8892       8903       8902       9012       9013       9024       9023  
      8892       8893       8904       8903       9013       9014       9025       9024  
      8893       8894       8905       8904       9014       9015       9026       9025  
      8894       8895       8906       8905       9015       9016       9027       9026  
      8895       8896       8907       8906       9016       9017       9028       9027  
      8896       8897       8908       8907       9017       9018       9029       9028  
      8897       8898       8909       8908       9018       9019       9030       9029  
      8898       8899       8910       8909       9019       9020       9031       9030  
      8900       8901       8912       8911       9021       9022       9033       9032  
      8901       8902       8913       8912       9022       9023       9034       9033  
      8902       8903       8914       8913       9023       9024       9035       9034  
      8903       8904       8915       8914       9024       9025       9036       9035  
      8904       8905       8916       8915       9025       9026       9037       9036  
      8905       8906       8917       8916       9026       9027       9038       9037  
      8906       8907       8918       8917       9027       9028       9039       9038  
      8907       8908       8919       8918       9028       9029       9040       9039  
      8908       8909       8920       8919       9029       9030       9041       9040  
      8909       8910       8921       8920       9030       9031       9042       9041  
      8911       8912       8923       8922       9032       9033       9044       9043  
      8912       8913       8924       8923       9033       9034       9045       9044  
      8913       8914       8925       8924       9034       9035       9046       9045  
      8914       8915       8926       8925       9035       9036       9047       9046  
      8915       8916       8927       8926       9036       9037       9048       9047  
      8916       8917       8928       8927       9037       9038       9049       9048  
      8917       8918       8929       8928       9038       9039       9050       9049  
      8918       8919       8930       8929       9039       9040       9051       9050  
      8919       8920       8931       8930       9040       9041       9052       9051  
      8920       8921       8932       8931       9041       9042       9053       9052  
      8922       8923       8934       8933       9043       9044       9055       9054  
      8923       8924       8935       8934       9044       9045       9056       9055  
      8924       8925       8936       8935       9045       9046       9057       9056  
      8925       8926       8937       8936       9046       9047       9058       9057  
      8926       8927       8938       8937       9047       9048       9059       9058  
      8927       8928       8939       8938       9048       9049       9060       9059  
      8928       8929       8940       8939       9049       9050       9061       9060  
      8929       8930       8941       8940       9050       9051       9062       9061  
      8930       8931       8942       8941       9051       9052       9063       9062  
      8931       8932       8943       8942       9052       9053       9064       9063  
      8933       8934       8945       8944       9054       9055       9066       9065  
      8934       8935       8946       8945       9055       9056       9067       9066  
      8935       8936       8947       8946       9056       9057       9068       9067  
      8936       8937       8948       8947       9057       9058       9069       9068  
      8937       8938       8949       8948       9058       9059       9070       9069  
      8938       8939       8950       8949       9059       9060       9071       9070  
      8939       8940       8951       8950       9060       9061       9072       9071  
      8940       8941       8952       8951       9061       9062       9073       9072  
      8941       8942       8953       8952       9062       9063       9074       9073  
      8942       8943       8954       8953       9063       9064       9075       9074  
      8955       8956       8967       8966       9076       9077       9088       9087  
      8956       8957       8968       8967       9077       9078       9089       9088  
      8957       8958       8969       8968       9078       9079       9090       9089  
      8958       8959       8970       8969       9079       9080       9091       9090  
      8959       8960       8971       8970       9080       9081       9092       9091  
      8960       8961       8972       8971       9081       9082       9093       9092  
      8961       8962       8973       8972       9082       9083       9094       9093  
      8962       8963       8974       8973       9083       9084       9095       9094  
      8963       8964       8975       8974       9084       9085       9096       9095  
      8964       8965       8976       8975       9085       9086       9097       9096  
      8966       8967       8978       8977       9087       9088       9099       9098  
      8967       8968       8979       8978       9088       9089       9100       9099  
      8968       8969       8980       8979       9089       9090       9101       9100  
      8969       8970       8981       8980       9090       9091       9102       9101  
      8970       8971       8982       8981       9091       9092       9103       9102  
      8971       8972       8983       8982       9092       9093       9104       9103  
      8972       8973       8984       8983       9093       9094       9105       9104  
      8973       8974       8985       8984       9094       9095       9106       9105  
      8974       8975       8986       8985       9095       9096       9107       9106  
      8975       8976       8987       8986       9096       9097       9108       9107  
      8977       8978       8989       8988       9098       9099       9110       9109  
      8978       8979       8990       8989       9099       9100       9111       9110  
      8979       8980       8991       8990       9100       9101       9112       9111  
      8980       8981       8992       8991       9101       9102       9113       9112  
      8981       8982       8993       8992       9102       9103       9114       9113  
      8982       8983       8994       8993       9103       9104       9115       9114  
      8983       8984       8995       8994       9104       9105       9116       9115  
      8984       8985       8996       8995       9105       9106       9117       9116  
      8985       8986       8997       8996       9106       9107       9118       9117  
      8986       8987       8998       8997       9107       9108       9119       9118  
      8988       8989       9000       8999       9109       9110       9121       9120  
      8989       8990       9001       9000       9110       9111       9122       9121  
      8990       8991       9002       9001       9111       9112       9123       9122  
      8991       8992       9003       9002       9112       9113       9124       9123  
      8992       8993       9004       9003       9113       9114       9125       9124  
      8993       8994       9005       9004       9114       9115       9126       9125  
      8994       8995       9006       9005       9115       9116       9127       9126  
      8995       8996       9007       9006       9116       9117       9128       9127  
      8996       8997       9008       9007       9117       9118       9129       9128  
      8997       8998       9009       9008       9118       9119       9130       9129  
      8999       9000       9011       9010       9120       9121       9132       9131  
      9000       9001       9012       9011       9121       9122       9133       9132  
      9001       9002       9013       9012       9122       9123       9134       9133  
      9002       9003       9014       9013       9123       9124       9135       9134  
      9003       9004       9015       9014       9124       9125       9136       9135  
      9004       9005       9016       9015       9125       9126       9137       9136  
      9005       9006       9017       9016       9126       9127       9138       9137  
      9006       9007       9018       9017       9127       9128       9139       9138  
      9007       9008       9019       9018       9128       9129       9140       9139  
      9008       9009       9020       9019       9129       9130       9141       9140  
      9010       9011       9022       9021       9131       9132       9143       9142  
      9011       9012       9023       9022       9132       9133       9144       9143  
      9012       9013       9024       9023       9133       9134       9145       9144  
      9013       9014       9025       9024       9134       9135       9146       9145  
      9014       9015       9026       9025       9135       9136       9147       9146  
      9015       9016       9027       9026       9136       9137       9148       9147  
      9016       9017       9028       9027       9137       9138       9149       9148  
      9017       9018       9029       9028       9138       9139       9150       9149  
      9018       9019       9030       9029       9139       9140       9151       9150  
      9019       9020       9031       9030       9140       9141       9152       9151  
      9021       9022       9033       9032       9142       9143       9154       9153  
      9022       9023       9034       9033       9143       9144       9155       9154  
      9023       9024       9035       9034       9144       9145       9156       9155  
      9024       9025       9036       9035       9145       9146       9157       9156  
      9025       9026       9037       9036       9146       9147       9158       9157  
      9026       9027       9038       9037       9147       9148       9159       9158  
      9027       9028       9039       9038       9148       9149       9160       9159  
      9028       9029       9040       9039       9149       9150       9161       9160  
      9029       9030       9041       9040       9150       9151       9162       9161  
      9030       9031       9042       9041       9151       9152       9163       9162  
      9032       9033       9044       9043       9153       9154       9165       9164  
      9033       9034       9045       9044       9154       9155       9166       9165  
      9034       9035       9046       9045       9155       9156       9167       9166  
      9035       9036       9047       9046       9156       9157       9168       9167  
      9036       9037       9048       9047       9157       9158       9169       9168  
      9037       9038       9049       9048       9158       9159       9170       9169  
      9038       9039       9050       9049       9159       9160       9171       9170  
      9039       9040       9051       9050       9160       9161       9172       9171  
      9040       9041       9052       9051       9161       9162       9173       9172  
      9041       9042       9053       9052       9162       9163       9174       9173  
      9043       9044       9055       9054       9164       9165       9176       9175  
      9044       9045       9056       9055       9165       9166       9177       9176  
      9045       9046       9057       9056       9166       9167       9178       9177  
      9046       9047       9058       9057       9167       9168       9179       9178  
      9047       9048       9059       9058       9168       9169       9180       9179  
      9048       9049       9060       9059       9169       9170       9181       9180  
      9049       9050       9061       9060       9170       9171       9182       9181  
      9050       9051       9062       9061       9171       9172       9183       9182  
      9051       9052       9063       9062       9172       9173       9184       9183  
      9052       9053       9064       9063       9173       9174       9185       9184  
      9054       9055       9066       9065       9175       9176       9187       9186  
      9055       9056       9067       9066       9176       9177       9188       9187  
      9056       9057       9068       9067       9177       9178       9189       9188  
      9057       9058       9069       9068       9178       9179       9190       9189  
      9058       9059       9070       9069       9179       9180       9191       9190  
      9059       9060       9071       9070       9180       9181       9192       9191  
      9060       9061       9072       9071       9181       9182       9193       9192  
      9061       9062       9073       9072       9182       9183       9194       9193  
      9062       9063       9074       9073       9183       9184       9195       9194  
      9063       9064       9075       9074       9184       9185       9196       9195  
      9076       9077       9088       9087       9197       9198       9209       9208  
      9077       9078       9089       9088       9198       9199       9210       9209  
      9078       9079       9090       9089       9199       9200       9211       9210  
      9079       9080       9091       9090       9200       9201       9212       9211  
      9080       9081       9092       9091       9201       9202       9213       9212  
      9081       9082       9093       9092       9202       9203       9214       9213  
      9082       9083       9094       9093       9203       9204       9215       9214  
      9083       9084       9095       9094       9204       9205       9216       9215  
      9084       9085       9096       9095       9205       9206       9217       9216  
      9085       9086       9097       9096       9206       9207       9218       9217  
      9087       9088       9099       9098       9208       9209       9220       9219  
      9088       9089       9100       9099       9209       9210       9221       9220  
      9089       9090       9101       9100       9210       9211       9222       9221  
      9090       9091       9102       9101       9211       9212       9223       9222  
      9091       9092       9103       9102       9212       9213       9224       9223  
      9092       9093       9104       9103       9213       9214       9225       9224  
      9093       9094       9105       9104       9214       9215       9226       9225  
      9094       9095       9106       9105       9215       9216       9227       9226  
      9095       9096       9107       9106       9216       9217       9228       9227  
      9096       9097       9108       9107       9217       9218       9229       9228  
      9098       9099       9110       9109       9219       9220       9231       9230  
      9099       9100       9111       9110       9220       9221       9232       9231  
      9100       9101       9112       9111       9221       9222       9233       9232  
      9101       9102       9113       9112       9222       9223       9234       9233  
      9102       9103       9114       9113       9223       9224       9235       9234  
      9103       9104       9115       9114       9224       9225       9236       9235  
      9104       9105       9116       9115       9225       9226       9237       9236  
      9105       9106       9117       9116       9226       9227       9238       9237  
      9106       9107       9118       9117       9227       9228       9239       9238  
      9107       9108       9119       9118       9228       9229       9240       9239  
      9109       9110       9121       9120       9230       9231       9242       9241  
      9110       9111       9122       9121       9231       9232       9243       9242  
      9111       9112       9123       9122       9232       9233       9244       9243  
      9112       9113       9124       9123       9233       9234       9245       9244  
      9113       9114       9125       9124       9234       9235       9246       9245  
      9114       9115       9126       9125       9235       9236       9247       9246  
      9115       9116       9127       9126       9236       9237       9248       9247  
      9116       9117       9128       9127       9237       9238       9249       9248  
      9117       9118       9129       9128       9238       9239       9250       9249  
      9118       9119       9130       9129       9239       9240       9251       9250  
      9120       9121       9132       9131       9241       9242       9253       9252  
      9121       9122       9133       9132       9242       9243       9254       9253  
      9122       9123       9134       9133       9243       9244       9255       9254  
      9123       9124       9135       9134       9244       9245       9256       9255  
      9124       9125       9136       9135       9245       9246       9257       9256  
      9125       9126       9137       9136       9246       9247       9258       9257  
      9126       9127       9138       9137       9247       9248       9259       9258  
      9127       9128       9139       9138       9248       9249       9260       9259  
      9128       9129       9140       9139       9249       9250       9261       9260  
      9129       9130       9141       9140       9250       9251       9262       9261  
      9131       9132       9143       9142       9252       9253       9264       9263  
      9132       9133       9144       9143       9253       9254       9265       9264  
      9133       9134       9145       9144       9254       9255       9266       9265  
      9134       9135       9146       9145       9255       9256       9267       9266  
      9135       9136       9147       9146       9256       9257       9268       9267  
      9136       9137       9148       9147       9257       9258       9269       9268  
      9137       9138       9149       9148       9258       9259       9270       9269  
      9138       9139       9150       9149       9259       9260       9271       9270  
      9139       9140       9151       9150       9260       9261       9272       9271  
      9140       9141       9152       9151       9261       9262       9273       9272  
      9142       9143       9154       9153       9263       9264       9275       9274  
      9143       9144       9155       9154       9264       9265       9276       9275  
      9144       9145       9156       9155       9265       9266       9277       9276  
      9145       9146       9157       9156       9266       9267       9278       9277  
      9146       9147       9158       9157       9267       9268       9279       9278  
      9147       9148       9159       9158       9268       9269       9280       9279  
      9148       9149       9160       9159       9269       9270       9281       9280  
      9149       9150       9161       9160       9270       9271       9282       9281  
      9150       9151       9162       9161       9271       9272       9283       9282  
      9151       9152       9163       9162       9272       9273       9284       9283  
      9153       9154       9165       9164       9274       9275       9286       9285  
      9154       9155       9166       9165       9275       9276       9287       9286  
      9155       9156       9167       9166       9276       9277       9288       9287  
      9156       9157       9168       9167       9277       9278       9289       9288  
      9157       9158       9169       9168       9278       9279       9290       9289  
      9158       9159       9170       9169       9279       9280       9291       9290  
      9159       9160       9171       9170       9280       9281       9292       9291  
      9160       9161       9172       9171       9281       9282       9293       9292  
      9161       9162       9173       9172       9282       9283       9294       9293  
      9162       9163       9174       9173       9283       9284       9295       9294  
      9164       9165       9176       9175       9285       9286       9297       9296  
      9165       9166       9177       9176       9286       9287       9298       9297  
      9166       9167       9178       9177       9287       9288       9299       9298  
      9167       9168       9179       9178       9288       9289       9300       9299  
      9168       9169       9180       9179       9289       9290       9301       9300  
      9169       9170       9181       9180       9290       9291       9302       9301  
      9170       9171       9182       9181       9291       9292       9303       9302  
      9171       9172       9183       9182       9292       9293       9304       9303  
      9172       9173       9184       9183       9293       9294       9305       9304  
      9173       9174       9185       9184       9294       9295       9306       9305  
      9175       9176       9187       9186       9296       9297       9308       9307  
      9176       9177       9188       9187       9297       9298       9309       9308  
      9177       9178       9189       9188       9298       9299       9310       9309  
      9178       9179       9190       9189       9299       9300       9311       9310  
      9179       9180       9191       9190       9300       9301       9312       9311  
      9180       9181       9192       9191       9301       9302       9313       9312  
      9181       9182       9193       9192       9302       9303       9314       9313  
      9182       9183       9194       9193       9303       9304       9315       9314  
      9183       9184       9195       9194       9304       9305       9316       9315  
      9184       9185       9196       9195       9305       9306       9317       9316  
      9197       9198       9209       9208       9318       9319       9330       9329  
      9198       9199       9210       9209       9319       9320       9331       9330  
      9199       9200       9211       9210       9320       9321       9332       9331  
      9200       9201       9212       9211       9321       9322       9333       9332  
      9201       9202       9213       9212       9322       9323       9334       9333  
      9202       9203       9214       9213       9323       9324       9335       9334  
      9203       9204       9215       9214       9324       9325       9336       9335  
      9204       9205       9216       9215       9325       9326       9337       9336  
      9205       9206       9217       9216       9326       9327       9338       9337  
      9206       9207       9218       9217       9327       9328       9339       9338  
      9208       9209       9220       9219       9329       9330       9341       9340  
      9209       9210       9221       9220       9330       9331       9342       9341  
      9210       9211       9222       9221       9331       9332       9343       9342  
      9211       9212       9223       9222       9332       9333       9344       9343  
      9212       9213       9224       9223       9333       9334       9345       9344  
      9213       9214       9225       9224       9334       9335       9346       9345  
      9214       9215       9226       9225       9335       9336       9347       9346  
      9215       9216       9227       9226       9336       9337       9348       9347  
      9216       9217       9228       9227       9337       9338       9349       9348  
      9217       9218       9229       9228       9338       9339       9350       9349  
      9219       9220       9231       9230       9340       9341       9352       9351  
      9220       9221       9232       9231       9341       9342       9353       9352  
      9221       9222       9233       9232       9342       9343       9354       9353  
      9222       9223       9234       9233       9343       9344       9355       9354  
      9223       9224       9235       9234       9344       9345       9356       9355  
      9224       9225       9236       9235       9345       9346       9357       9356  
      9225       9226       9237       9236       9346       9347       9358       9357  
      9226       9227       9238       9237       9347       9348       9359       9358  
      9227       9228       9239       9238       9348       9349       9360       9359  
      9228       9229       9240       9239       9349       9350       9361       9360  
      9230       9231       9242       9241       9351       9352       9363       9362  
      9231       9232       9243       9242       9352       9353       9364       9363  
      9232       9233       9244       9243       9353       9354       9365       9364  
      9233       9234       9245       9244       9354       9355       9366       9365  
      9234       9235       9246       9245       9355       9356       9367       9366  
      9235       9236       9247       9246       9356       9357       9368       9367  
      9236       9237       9248       9247       9357       9358       9369       9368  
      9237       9238       9249       9248       9358       9359       9370       9369  
      9238       9239       9250       9249       9359       9360       9371       9370  
      9239       9240       9251       9250       9360       9361       9372       9371  
      9241       9242       9253       9252       9362       9363       9374       9373  
      9242       9243       9254       9253       9363       9364       9375       9374  
      9243       9244       9255       9254       9364       9365       9376       9375  
      9244       9245       9256       9255       9365       9366       9377       9376  
      9245       9246       9257       9256       9366       9367       9378       9377  
      9246       9247       9258       9257       9367       9368       9379       9378  
      9247       9248       9259       9258       9368       9369       9380       9379  
      9248       9249       9260       9259       9369       9370       9381       9380  
      9249       9250       9261       9260       9370       9371       9382       9381  
      9250       9251       9262       9261       9371       9372       9383       9382  
      9252       9253       9264       9263       9373       9374       9385       9384  
      9253       9254       9265       9264       9374       9375       9386       9385  
      9254       9255       9266       9265       9375       9376       9387       9386  
      9255       9256       9267       9266       9376       9377       9388       9387  
      9256       9257       9268       9267       9377       9378       9389       9388  
      9257       9258       9269       9268       9378       9379       9390       9389  
      9258       9259       9270       9269       9379       9380       9391       9390  
      9259       9260       9271       9270       9380       9381       9392       9391  
      9260       9261       9272       9271       9381       9382       9393       9392  
      9261       9262       9273       9272       9382       9383       9394       9393  
      9263       9264       9275       9274       9384       9385       9396       9395  
      9264       9265       9276       9275       9385       9386       9397       9396  
      9265       9266       9277       9276       9386       9387       9398       9397  
      9266       9267       9278       9277       9387       9388       9399       9398  
      9267       9268       9279       9278       9388       9389       9400       9399  
      9268       9269       9280       9279       9389       9390       9401       9400  
      9269       9270       9281       9280       9390       9391       9402       9401  
      9270       9271       9282       9281       9391       9392       9403       9402  
      9271       9272       9283       9282       9392       9393       9404       9403  
      9272       9273       9284       9283       9393       9394       9405       9404  
      9274       9275       9286       9285       9395       9396       9407       9406  
      9275       9276       9287       9286       9396       9397       9408       9407  
      9276       9277       9288       9287       9397       9398       9409       9408  
      9277       9278       9289       9288       9398       9399       9410       9409  
      9278       9279       9290       9289       9399       9400       9411       9410  
      9279       9280       9291       9290       9400       9401       9412       9411  
      9280       9281       9292       9291       9401       9402       9413       9412  
      9281       9282       9293       9292       9402       9403       9414       9413  
      9282       9283       9294       9293       9403       9404       9415       9414  
      9283       9284       9295       9294       9404       9405       9416       9415  
      9285       9286       9297       9296       9406       9407       9418       9417  
      9286       9287       9298       9297       9407       9408       9419       9418  
      9287       9288       9299       9298       9408       9409       9420       9419  
      9288       9289       9300       9299       9409       9410       9421       9420  
      9289       9290       9301       9300       9410       9411       9422       9421  
      9290       9291       9302       9301       9411       9412       9423       9422  
      9291       9292       9303       9302       9412       9413       9424       9423  
      9292       9293       9304       9303       9413       9414       9425       9424  
      9293       9294       9305       9304       9414       9415       9426       9425  
      9294       9295       9306       9305       9415       9416       9427       9426  
      9296       9297       9308       9307       9417       9418       9429       9428  
      9297       9298       9309       9308       9418       9419       9430       9429  
      9298       9299       9310       9309       9419       9420       9431       9430  
      9299       9300       9311       9310       9420       9421       9432       9431  
      9300       9301       9312       9311       9421       9422       9433       9432  
      9301       9302       9313       9312       9422       9423       9434       9433  
      9302       9303       9314       9313       9423       9424       9435       9434  
      9303       9304       9315       9314       9424       9425       9436       9435  
      9304       9305       9316       9315       9425       9426       9437       9436  
      9305       9306       9317       9316       9426       9427       9438       9437  
      9318       9319       9330       9329       9439       9440       9451       9450  
      9319       9320       9331       9330       9440       9441       9452       9451  
      9320       9321       9332       9331       9441       9442       9453       9452  
      9321       9322       9333       9332       9442       9443       9454       9453  
      9322       9323       9334       9333       9443       9444       9455       9454  
      9323       9324       9335       9334       9444       9445       9456       9455  
      9324       9325       9336       9335       9445       9446       9457       9456  
      9325       9326       9337       9336       9446       9447       9458       9457  
      9326       9327       9338       9337       9447       9448       9459       9458  
      9327       9328       9339       9338       9448       9449       9460       9459  
      9329       9330       9341       9340       9450       9451       9462       9461  
      9330       9331       9342       9341       9451       9452       9463       9462  
      9331       9332       9343       9342       9452       9453       9464       9463  
      9332       9333       9344       9343       9453       9454       9465       9464  
      9333       9334       9345       9344       9454       9455       9466       9465  
      9334       9335       9346       9345       9455       9456       9467       9466  
      9335       9336       9347       9346       9456       9457       9468       9467  
      9336       9337       9348       9347       9457       9458       9469       9468  
      9337       9338       9349       9348       9458       9459       9470       9469  
      9338       9339       9350       9349       9459       9460       9471       9470  
      9340       9341       9352       9351       9461       9462       9473       9472  
      9341       9342       9353       9352       9462       9463       9474       9473  
      9342       9343       9354       9353       9463       9464       9475       9474  
      9343       9344       9355       9354       9464       9465       9476       9475  
      9344       9345       9356       9355       9465       9466       9477       9476  
      9345       9346       9357       9356       9466       9467       9478       9477  
      9346       9347       9358       9357       9467       9468       9479       9478  
      9347       9348       9359       9358       9468       9469       9480       9479  
      9348       9349       9360       9359       9469       9470       9481       9480  
      9349       9350       9361       9360       9470       9471       9482       9481  
      9351       9352       9363       9362       9472       9473       9484       9483  
      9352       9353       9364       9363       9473       9474       9485       9484  
      9353       9354       9365       9364       9474       9475       9486       9485  
      9354       9355       9366       9365       9475       9476       9487       9486  
      9355       9356       9367       9366       9476       9477       9488       9487  
      9356       9357       9368       9367       9477       9478       9489       9488  
      9357       9358       9369       9368       9478       9479       9490       9489  
      9358       9359       9370       9369       9479       9480       9491       9490  
      9359       9360       9371       9370       9480       9481       9492       9491  
      9360       9361       9372       9371       9481       9482       9493       9492  
      9362       9363       9374       9373       9483       9484       9495       9494  
      9363       9364       9375       9374       9484       9485       9496       9495  
      9364       9365       9376       9375       9485       9486       9497       9496  
      9365       9366       9377       9376       9486       9487       9498       9497  
      9366       9367       9378       9377       9487       9488       9499       9498  
      9367       9368       9379       9378       9488       9489       9500       9499  
      9368       9369       9380       9379       9489       9490       9501       9500  
      9369       9370       9381       9380       9490       9491       9502       9501  
      9370       9371       9382       9381       9491       9492       9503       9502  
      9371       9372       9383       9382       9492       9493       9504       9503  
      9373       9374       9385       9384       9494       9495       9506       9505  
      9374       9375       9386       9385       9495       9496       9507       9506  
      9375       9376       9387       9386       9496       9497       9508       9507  
      9376       9377       9388       9387       9497       9498       9509       9508  
      9377       9378       9389       9388       9498       9499       9510       9509  
      9378       9379       9390       9389       9499       9500       9511       9510  
      9379       9380       9391       9390       9500       9501       9512       9511  
      9380       9381       9392       9391       9501       9502       9513       9512  
      9381       9382       9393       9392       9502       9503       9514       9513  
      9382       9383       9394       9393       9503       9504       9515       9514  
      9384       9385       9396       9395       9505       9506       9517       9516  
      9385       9386       9397       9396       9506       9507       9518       9517  
      9386       9387       9398       9397       9507       9508       9519       9518  
      9387       9388       9399       9398       9508       9509       9520       9519  
      9388       9389       9400       9399       9509       9510       9521       9520  
      9389       9390       9401       9400       9510       9511       9522       9521  
      9390       9391       9402       9401       9511       9512       9523       9522  
      9391       9392       9403       9402       9512       9513       9524       9523  
      9392       9393       9404       9403       9513       9514       9525       9524  
      9393       9394       9405       9404       9514       9515       9526       9525  
      9395       9396       9407       9406       9516       9517       9528       9527  
      9396       9397       9408       9407       9517       9518       9529       9528  
      9397       9398       9409       9408       9518       9519       9530       9529  
      9398       9399       9410       9409       9519       9520       9531       9530  
      9399       9400       9411       9410       9520       9521       9532       9531  
      9400       9401       9412       9411       9521       9522       9533       9532  
      9401       9402       9413       9412       9522       9523       9534       9533  
      9402       9403       9414       9413       9523       9524       9535       9534  
      9403       9404       9415       9414       9524       9525       9536       9535  
      9404       9405       9416       9415       9525       9526       9537       9536  
      9406       9407       9418       9417       9527       9528       9539       9538  
      9407       9408       9419       9418       9528       9529       9540       9539  
      9408       9409       9420       9419       9529       9530       9541       9540  
      9409       9410       9421       9420       9530       9531       9542       9541  
      9410       9411       9422       9421       9531       9532       9543       9542  
      9411       9412       9423       9422       9532       9533       9544       9543  
      9412       9413       9424       9423       9533       9534       9545       9544  
      9413       9414       9425       9424       9534       9535       9546       9545  
      9414       9415       9426       9425       9535       9536       9547       9546  
      9415       9416       9427       9426       9536       9537       9548       9547  
      9417       9418       9429       9428       9538       9539       9550       9549  
      9418       9419       9430       9429       9539       9540       9551       9550  
      9419       9420       9431       9430       9540       9541       9552       9551  
      9420       9421       9432       9431       9541       9542       9553       9552  
      9421       9422       9433       9432       9542       9543       9554       9553  
      9422       9423       9434       9433       9543       9544       9555       9554  
      9423       9424       9435       9434       9544       9545       9556       9555  
      9424       9425       9436       9435       9545       9546       9557       9556  
      9425       9426       9437       9436       9546       9547       9558       9557  
      9426       9427       9438       9437       9547       9548       9559       9558  
      9439       9440       9451       9450       9560       9561       9572       9571  
      9440       9441       9452       9451       9561       9562       9573       9572  
      9441       9442       9453       9452       9562       9563       9574       9573  
      9442       9443       9454       9453       9563       9564       9575       9574  
      9443       9444       9455       9454       9564       9565       9576       9575  
      9444       9445       9456       9455       9565       9566       9577       9576  
      9445       9446       9457       9456       9566       9567       9578       9577  
      9446       9447       9458       9457       9567       9568       9579       9578  
      9447       9448       9459       9458       9568       9569       9580       9579  
      9448       9449       9460       9459       9569       9570       9581       9580  
      9450       9451       9462       9461       9571       9572       9583       9582  
      9451       9452       9463       9462       9572       9573       9584       9583  
      9452       9453       9464       9463       9573       9574       9585       9584  
      9453       9454       9465       9464       9574       9575       9586       9585  
      9454       9455       9466       9465       9575       9576       9587       9586  
      9455       9456       9467       9466       9576       9577       9588       9587  
      9456       9457       9468       9467       9577       9578       9589       9588  
      9457       9458       9469       9468       9578       9579       9590       9589  
      9458       9459       9470       9469       9579       9580       9591       9590  
      9459       9460       9471       9470       9580       9581       9592       9591  
      9461       9462       9473       9472       9582       9583       9594       9593  
      9462       9463       9474       9473       9583       9584       9595       9594  
      9463       9464       9475       9474       9584       9585       9596       9595  
      9464       9465       9476       9475       9585       9586       9597       9596  
      9465       9466       9477       9476       9586       9587       9598       9597  
      9466       9467       9478       9477       9587       9588       9599       9598  
      9467       9468       9479       9478       9588       9589       9600       9599  
      9468       9469       9480       9479       9589       9590       9601       9600  
      9469       9470       9481       9480       9590       9591       9602       9601  
      9470       9471       9482       9481       9591       9592       9603       9602  
      9472       9473       9484       9483       9593       9594       9605       9604  
      9473       9474       9485       9484       9594       9595       9606       9605  
      9474       9475       9486       9485       9595       9596       9607       9606  
      9475       9476       9487       9486       9596       9597       9608       9607  
      9476       9477       9488       9487       9597       9598       9609       9608  
      9477       9478       9489       9488       9598       9599       9610       9609  
      9478       9479       9490       9489       9599       9600       9611       9610  
      9479       9480       9491       9490       9600       9601       9612       9611  
      9480       9481       9492       9491       9601       9602       9613       9612  
      9481       9482       9493       9492       9602       9603       9614       9613  
      9483       9484       9495       9494       9604       9605       9616       9615  
      9484       9485       9496       9495       9605       9606       9617       9616  
      9485       9486       9497       9496       9606       9607       9618       9617  
      9486       9487       9498       9497       9607       9608       9619       9618  
      9487       9488       9499       9498       9608       9609       9620       9619  
      9488       9489       9500       9499       9609       9610       9621       9620  
      9489       9490       9501       9500       9610       9611       9622       9621  
      9490       9491       9502       9501       9611       9612       9623       9622  
      9491       9492       9503       9502       9612       9613       9624       9623  
      9492       9493       9504       9503       9613       9614       9625       9624  
      9494       9495       9506       9505       9615       9616       9627       9626  
      9495       9496       9507       9506       9616       9617       9628       9627  
      9496       9497       9508       9507       9617       9618       9629       9628  
      9497       9498       9509       9508       9618       9619       9630       9629  
      9498       9499       9510       9509       9619       9620       9631       9630  
      9499       9500       9511       9510       9620       9621       9632       9631  
      9500       9501       9512       9511       9621       9622       9633       9632  
      9501       9502       9513       9512       9622       9623       9634       9633  
      9502       9503       9514       9513       9623       9624       9635       9634  
      9503       9504       9515       9514       9624       9625       9636       9635  
      9505       9506       9517       9516       9626       9627       9638       9637  
      9506       9507       9518       9517       9627       9628       9639       9638  
      9507       9508       9519       9518       9628       9629       9640       9639  
      9508       9509       9520       9519       9629       9630       9641       9640  
      9509       9510       9521       9520       9630       9631       9642       9641  
      9510       9511       9522       9521       9631       9632       9643       9642  
      9511       9512       9523       9522       9632       9633       9644       9643  
      9512       9513       9524       9523       9633       9634       9645       9644  
      9513       9514       9525       9524       9634       9635       9646       9645  
      9514       9515       9526       9525       9635       9636       9647       9646  
      9516       9517       9528       9527       9637       9638       9649       9648  
      9517       9518       9529       9528       9638       9639       9650       9649  
      9518       9519       9530       9529       9639       9640       9651       9650  
      9519       9520       9531       9530       9640       9641       9652       9651  
      9520       9521       9532       9531       9641       9642       9653       9652  
      9521       9522       9533       9532       9642       9643       9654       9653  
      9522       9523       9534       9533       9643       9644       9655       9654  
      9523       9524       9535       9534       9644       9645       9656       9655  
      9524       9525       9536       9535       9645       9646       9657       9656  
      9525       9526       9537       9536       9646       9647       9658       9657  
      9527       9528       9539       9538       9648       9649       9660       9659  
      9528       9529       9540       9539       9649       9650       9661       9660  
      9529       9530       9541       9540       9650       9651       9662       9661  
      9530       9531       9542       9541       9651       9652       9663       9662  
      9531       9532       9543       9542       9652       9653       9664       9663  
      9532       9533       9544       9543       9653       9654       9665       9664  
      9533       9534       9545       9544       9654       9655       9666       9665  
      9534       9535       9546       9545       9655       9656       9667       9666  
      9535       9536       9547       9546       9656       9657       9668       9667  
      9536       9537       9548       9547       9657       9658       9669       9668  
      9538       9539       9550       9549       9659       9660       9671       9670  
      9539       9540       9551       9550       9660       9661       9672       9671  
      9540       9541       9552       9551       9661       9662       9673       9672  
      9541       9542       9553       9552       9662       9663       9674       9673  
      9542       9543       9554       9553       9663       9664       9675       9674  
      9543       9544       9555       9554       9664       9665       9676       9675  
      9544       9545       9556       9555       9665       9666       9677       9676  
      9545       9546       9557       9556       9666       9667       9678       9677  
      9546       9547       9558       9557       9667       9668       9679       9678  
      9547       9548       9559       9558       9668       9669       9680       9679  
      9560       9561       9572       9571       9681       9682       9693       9692  
      9561       9562       9573       9572       9682       9683       9694       9693  
      9562       9563       9574       9573       9683       9684       9695       9694  
      9563       9564       9575       9574       9684       9685       9696       9695  
      9564       9565       9576       9575       9685       9686       9697       9696  
      9565       9566       9577       9576       9686       9687       9698       9697  
      9566       9567       9578       9577       9687       9688       9699       9698  
      9567       9568       9579       9578       9688       9689       9700       9699  
      9568       9569       9580       9579       9689       9690       9701       9700  
      9569       9570       9581       9580       9690       9691       9702       9701  
      9571       9572       9583       9582       9692       9693       9704       9703  
      9572       9573       9584       9583       9693       9694       9705       9704  
      9573       9574       9585       9584       9694       9695       9706       9705  
      9574       9575       9586       9585       9695       9696       9707       9706  
      9575       9576       9587       9586       9696       9697       9708       9707  
      9576       9577       9588       9587       9697       9698       9709       9708  
      9577       9578       9589       9588       9698       9699       9710       9709  
      9578       9579       9590       9589       9699       9700       9711       9710  
      9579       9580       9591       9590       9700       9701       9712       9711  
      9580       9581       9592       9591       9701       9702       9713       9712  
      9582       9583       9594       9593       9703       9704       9715       9714  
      9583       9584       9595       9594       9704       9705       9716       9715  
      9584       9585       9596       9595       9705       9706       9717       9716  
      9585       9586       9597       9596       9706       9707       9718       9717  
      9586       9587       9598       9597       9707       9708       9719       9718  
      9587       9588       9599       9598       9708       9709       9720       9719  
      9588       9589       9600       9599       9709       9710       9721       9720  
      9589       9590       9601       9600       9710       9711       9722       9721  
      9590       9591       9602       9601       9711       9712       9723       9722  
      9591       9592       9603       9602       9712       9713       9724       9723  
      9593       9594       9605       9604       9714       9715       9726       9725  
      9594       9595       9606       9605       9715       9716       9727       9726  
      9595       9596       9607       9606       9716       9717       9728       9727  
      9596       9597       9608       9607       9717       9718       9729       9728  
      9597       9598       9609       9608       9718       9719       9730       9729  
      9598       9599       9610       9609       9719       9720       9731       9730  
      9599       9600       9611       9610       9720       9721       9732       9731  
      9600       9601       9612       9611       9721       9722       9733       9732  
      9601       9602       9613       9612       9722       9723       9734       9733  
      9602       9603       9614       9613       9723       9724       9735       9734  
      9604       9605       9616       9615       9725       9726       9737       9736  
      9605       9606       9617       9616       9726       9727       9738       9737  
      9606       9607       9618       9617       9727       9728       9739       9738  
      9607       9608       9619       9618       9728       9729       9740       9739  
      9608       9609       9620       9619       9729       9730       9741       9740  
      9609       9610       9621       9620       9730       9731       9742       9741  
      9610       9611       9622       9621       9731       9732       9743       9742  
      9611       9612       9623       9622       9732       9733       9744       9743  
      9612       9613       9624       9623       9733       9734       9745       9744  
      9613       9614       9625       9624       9734       9735       9746       9745  
      9615       9616       9627       9626       9736       9737       9748       9747  
      9616       9617       9628       9627       9737       9738       9749       9748  
      9617       9618       9629       9628       9738       9739       9750       9749  
      9618       9619       9630       9629       9739       9740       9751       9750  
      9619       9620       9631       9630       9740       9741       9752       9751  
      9620       9621       9632       9631       9741       9742       9753       9752  
      9621       9622       9633       9632       9742       9743       9754       9753  
      9622       9623       9634       9633       9743       9744       9755       9754  
      9623       9624       9635       9634       9744       9745       9756       9755  
      9624       9625       9636       9635       9745       9746       9757       9756  
      9626       9627       9638       9637       9747       9748       9759       9758  
      9627       9628       9639       9638       9748       9749       9760       9759  
      9628       9629       9640       9639       9749       9750       9761       9760  
      9629       9630       9641       9640       9750       9751       9762       9761  
      9630       9631       9642       9641       9751       9752       9763       9762  
      9631       9632       9643       9642       9752       9753       9764       9763  
      9632       9633       9644       9643       9753       9754       9765       9764  
      9633       9634       9645       9644       9754       9755       9766       9765  
      9634       9635       9646       9645       9755       9756       9767       9766  
      9635       9636       9647       9646       9756       9757       9768       9767  
      9637       9638       9649       9648       9758       9759       9770       9769  
      9638       9639       9650       9649       9759       9760       9771       9770  
      9639       9640       9651       9650       9760       9761       9772       9771  
      9640       9641       9652       9651       9761       9762       9773       9772  
      9641       9642       9653       9652       9762       9763       9774       9773  
      9642       9643       9654       9653       9763       9764       9775       9774  
      9643       9644       9655       9654       9764       9765       9776       9775  
      9644       9645       9656       9655       9765       9766       9777       9776  
      9645       9646       9657       9656       9766       9767       9778       9777  
      9646       9647       9658       9657       9767       9768       9779       9778  
      9648       9649       9660       9659       9769       9770       9781       9780  
      9649       9650       9661       9660       9770       9771       9782       9781  
      9650       9651       9662       9661       9771       9772       9783       9782  
      9651       9652       9663       9662       9772       9773       9784       9783  
      9652       9653       9664       9663       9773       9774       9785       9784  
      9653       9654       9665       9664       9774       9775       9786       9785  
      9654       9655       9666       9665       9775       9776       9787       9786  
      9655       9656       9667       9666       9776       9777       9788       9787  
      9656       9657       9668       9667       9777       9778       9789       9788  
      9657       9658       9669       9668       9778       9779       9790       9789  
      9659       9660       9671       9670       9780       9781       9792       9791  
      9660       9661       9672       9671       9781       9782       9793       9792  
      9661       9662       9673       9672       9782       9783       9794       9793  
      9662       9663       9674       9673       9783       9784       9795       9794  
      9663       9664       9675       9674       9784       9785       9796       9795  
      9664       9665       9676       9675       9785       9786       9797       9796  
      9665       9666       9677       9676       9786       9787       9798       9797  
      9666       9667       9678       9677       9787       9788       9799       9798  
      9667       9668       9679       9678       9788       9789       9800       9799  
      9668       9669       9680       9679       9789       9790       9801       9800  
      9681       9682       9693       9692       9802       9803       9814       9813  
      9682       9683       9694       9693       9803       9804       9815       9814  
      9683       9684       9695       9694       9804       9805       9816       9815  
      9684       9685       9696       9695       9805       9806       9817       9816  
      9685       9686       9697       9696       9806       9807       9818       9817  
      9686       9687       9698       9697       9807       9808       9819       9818  
      9687       9688       9699       9698       9808       9809       9820       9819  
      9688       9689       9700       9699       9809       9810       9821       9820  
      9689       9690       9701       9700       9810       9811       9822       9821  
      9690       9691       9702       9701       9811       9812       9823       9822  
      9692       9693       9704       9703       9813       9814       9825       9824  
      9693       9694       9705       9704       9814       9815       9826       9825  
      9694       9695       9706       9705       9815       9816       9827       9826  
      9695       9696       9707       9706       9816       9817       9828       9827  
      9696       9697       9708       9707       9817       9818       9829       9828  
      9697       9698       9709       9708       9818       9819       9830       9829  
      9698       9699       9710       9709       9819       9820       9831       9830  
      9699       9700       9711       9710       9820       9821       9832       9831  
      9700       9701       9712       9711       9821       9822       9833       9832  
      9701       9702       9713       9712       9822       9823       9834       9833  
      9703       9704       9715       9714       9824       9825       9836       9835  
      9704       9705       9716       9715       9825       9826       9837       9836  
      9705       9706       9717       9716       9826       9827       9838       9837  
      9706       9707       9718       9717       9827       9828       9839       9838  
      9707       9708       9719       9718       9828       9829       9840       9839  
      9708       9709       9720       9719       9829       9830       9841       9840  
      9709       9710       9721       9720       9830       9831       9842       9841  
      9710       9711       9722       9721       9831       9832       9843       9842  
      9711       9712       9723       9722       9832       9833       9844       9843  
      9712       9713       9724       9723       9833       9834       9845       9844  
      9714       9715       9726       9725       9835       9836       9847       9846  
      9715       9716       9727       9726       9836       9837       9848       9847  
      9716       9717       9728       9727       9837       9838       9849       9848  
      9717       9718       9729       9728       9838       9839       9850       9849  
      9718       9719       9730       9729       9839       9840       9851       9850  
      9719       9720       9731       9730       9840       9841       9852       9851  
      9720       9721       9732       9731       9841       9842       9853       9852  
      9721       9722       9733       9732       9842       9843       9854       9853  
      9722       9723       9734       9733       9843       9844       9855       9854  
      9723       9724       9735       9734       9844       9845       9856       9855  
      9725       9726       9737       9736       9846       9847       9858       9857  
      9726       9727       9738       9737       9847       9848       9859       9858  
      9727       9728       9739       9738       9848       9849       9860       9859  
      9728       9729       9740       9739       9849       9850       9861       9860  
      9729       9730       9741       9740       9850       9851       9862       9861  
      9730       9731       9742       9741       9851       9852       9863       9862  
      9731       9732       9743       9742       9852       9853       9864       9863  
      9732       9733       9744       9743       9853       9854       9865       9864  
      9733       9734       9745       9744       9854       9855       9866       9865  
      9734       9735       9746       9745       9855       9856       9867       9866  
      9736       9737       9748       9747       9857       9858       9869       9868  
      9737       9738       9749       9748       9858       9859       9870       9869  
      9738       9739       9750       9749       9859       9860       9871       9870  
      9739       9740       9751       9750       9860       9861       9872       9871  
      9740       9741       9752       9751       9861       9862       9873       9872  
      9741       9742       9753       9752       9862       9863       9874       9873  
      9742       9743       9754       9753       9863       9864       9875       9874  
      9743       9744       9755       9754       9864       9865       9876       9875  
      9744       9745       9756       9755       9865       9866       9877       9876  
      9745       9746       9757       9756       9866       9867       9878       9877  
      9747       9748       9759       9758       9868       9869       9880       9879  
      9748       9749       9760       9759       9869       9870       9881       9880  
      9749       9750       9761       9760       9870       9871       9882       9881  
      9750       9751       9762       9761       9871       9872       9883       9882  
      9751       9752       9763       9762       9872       9873       9884       9883  
      9752       9753       9764       9763       9873       9874       9885       9884  
      9753       9754       9765       9764       9874       9875       9886       9885  
      9754       9755       9766       9765       9875       9876       9887       9886  
      9755       9756       9767       9766       9876       9877       9888       9887  
      9756       9757       9768       9767       9877       9878       9889       9888  
      9758       9759       9770       9769       9879       9880       9891       9890  
      9759       9760       9771       9770       9880       9881       9892       9891  
      9760       9761       9772       9771       9881       9882       9893       9892  
      9761       9762       9773       9772       9882       9883       9894       9893  
      9762       9763       9774       9773       9883       9884       9895       9894  
      9763       9764       9775       9774       9884       9885       9896       9895  
      9764       9765       9776       9775       9885       9886       9897       9896  
      9765       9766       9777       9776       9886       9887       9898       9897  
      9766       9767       9778       9777       9887       9888       9899       9898  
      9767       9768       9779       9778       9888       9889       9900       9899  
      9769       9770       9781       9780       9890       9891       9902       9901  
      9770       9771       9782       9781       9891       9892       9903       9902  
      9771       9772       9783       9782       9892       9893       9904       9903  
      9772       9773       9784       9783       9893       9894       9905       9904  
      9773       9774       9785       9784       9894       9895       9906       9905  
      9774       9775       9786       9785       9895       9896       9907       9906  
      9775       9776       9787       9786       9896       9897       9908       9907  
      9776       9777       9788       9787       9897       9898       9909       9908  
      9777       9778       9789       9788       9898       9899       9910       9909  
      9778       9779       9790       9789       9899       9900       9911       9910  
      9780       9781       9792       9791       9901       9902       9913       9912  
      9781       9782       9793       9792       9902       9903       9914       9913  
      9782       9783       9794       9793       9903       9904       9915       9914  
      9783       9784       9795       9794       9904       9905       9916       9915  
      9784       9785       9796       9795       9905       9906       9917       9916  
      9785       9786       9797       9796       9906       9907       9918       9917  
      9786       9787       9798       9797       9907       9908       9919       9918  
      9787       9788       9799       9798       9908       9909       9920       9919  
      9788       9789       9800       9799       9909       9910       9921       9920  
      9789       9790       9801       9800       9910       9911       9922       9921  
      9802       9803       9814       9813       9923       9924       9935       9934  
      9803       9804       9815       9814       9924       9925       9936       9935  
      9804       9805       9816       9815       9925       9926       9937       9936  
      9805       9806       9817       9816       9926       9927       9938       9937  
      9806       9807       9818       9817       9927       9928       9939       9938  
      9807       9808       9819       9818       9928       9929       9940       9939  
      9808       9809       9820       9819       9929       9930       9941       9940  
      9809       9810       9821       9820       9930       9931       9942       9941  
      9810       9811       9822       9821       9931       9932       9943       9942  
      9811       9812       9823       9822       9932       9933       9944       9943  
      9813       9814       9825       9824       9934       9935       9946       9945  
      9814       9815       9826       9825       9935       9936       9947       9946  
      9815       9816       9827       9826       9936       9937       9948       9947  
      9816       9817       9828       9827       9937       9938       9949       9948  
      9817       9818       9829       9828       9938       9939       9950       9949  
      9818       9819       9830       9829       9939       9940       9951       9950  
      9819       9820       9831       9830       9940       9941       9952       9951  
      9820       9821       9832       9831       9941       9942       9953       9952  
      9821       9822       9833       9832       9942       9943       9954       9953  
      9822       9823       9834       9833       9943       9944       9955       9954  
      9824       9825       9836       9835       9945       9946       9957       9956  
      9825       9826       9837       9836       9946       9947       9958       9957  
      9826       9827       9838       9837       9947       9948       9959       9958  
      9827       9828       9839       9838       9948       9949       9960       9959  
      9828       9829       9840       9839       9949       9950       9961       9960  
      9829       9830       9841       9840       9950       9951       9962       9961  
      9830       9831       9842       9841       9951       9952       9963       9962  
      9831       9832       9843       9842       9952       9953       9964       9963  
      9832       9833       9844       9843       9953       9954       9965       9964  
      9833       9834       9845       9844       9954       9955       9966       9965  
      9835       9836       9847       9846       9956       9957       9968       9967  
      9836       9837       9848       9847       9957       9958       9969       9968  
      9837       9838       9849       9848       9958       9959       9970       9969  
      9838       9839       9850       9849       9959       9960       9971       9970  
      9839       9840       9851       9850       9960       9961       9972       9971  
      9840       9841       9852       9851       9961       9962       9973       9972  
      9841       9842       9853       9852       9962       9963       9974       9973  
      9842       9843       9854       9853       9963       9964       9975       9974  
      9843       9844       9855       9854       9964       9965       9976       9975  
      9844       9845       9856       9855       9965       9966       9977       9976  
      9846       9847       9858       9857       9967       9968       9979       9978  
      9847       9848       9859       9858       9968       9969       9980       9979  
      9848       9849       9860       9859       9969       9970       9981       9980  
      9849       9850       9861       9860       9970       9971       9982       9981  
      9850       9851       9862       9861       9971       9972       9983       9982  
      9851       9852       9863       9862       9972       9973       9984       9983  
      9852       9853       9864       9863       9973       9974       9985       9984  
      9853       9854       9865       9864       9974       9975       9986       9985  
      9854       9855       9866       9865       9975       9976       9987       9986  
      9855       9856       9867       9866       9976       9977       9988       9987  
      9857       9858       9869       9868       9978       9979       9990       9989  
      9858       9859       9870       9869       9979       9980       9991       9990  
      9859       9860       9871       9870       9980       9981       9992       9991  
      9860       9861       9872       9871       9981       9982       9993       9992  
      9861       9862       9873       9872       9982       9983       9994       9993  
      9862       9863       9874       9873       9983       9984       9995       9994  
      9863       9864       9875       9874       9984       9985       9996       9995  
      9864       9865       9876       9875       9985       9986       9997       9996  
      9865       9866       9877       9876       9986       9987       9998       9997  
      9866       9867       9878       9877       9987       9988       9999       9998  
      9868       9869       9880       9879       9989       9990      10001      10000  
      9869       9870       9881       9880       9990       9991      10002      10001  
      9870       9871       9882       9881       9991       9992      10003      10002  
      9871       9872       9883       9882       9992       9993      10004      10003  
      9872       9873       9884       9883       9993       9994      10005      10004  
      9873       9874       9885       9884       9994       9995      10006      10005  
      9874       9875       9886       9885       9995       9996      10007      10006  
      9875       9876       9887       9886       9996       9997      10008      10007  
      9876       9877       9888       9887       9997       9998      10009      10008  
      9877       9878       9889       9888       9998       9999      10010      10009  
      9879       9880       9891       9890      10000      10001      10012      10011  
      9880       9881       9892       9891      10001      10002      10013      10012  
      9881       9882       9893       9892      10002      10003      10014      10013  
      9882       9883       9894       9893      10003      10004      10015      10014  
      9883       9884       9895       9894      10004      10005      10016      10015  
      9884       9885       9896       9895      10005      10006      10017      10016  
      9885       9886       9897       9896      10006      10007      10018      10017  
      9886       9887       9898       9897      10007      10008      10019      10018  
      9887       9888       9899       9898      10008      10009      10020      10019  
      9888       9889       9900       9899      10009      10010      10021      10020  
      9890       9891       9902       9901      10011      10012      10023      10022  
      9891       9892       9903       9902      10012      10013      10024      10023  
      9892       9893       9904       9903      10013      10014      10025      10024  
      9893       9894       9905       9904      10014      10015      10026      10025  
      9894       9895       9906       9905      10015      10016      10027      10026  
      9895       9896       9907       9906      10016      10017      10028      10027  
      9896       9897       9908       9907      10017      10018      10029      10028  
      9897       9898       9909       9908      10018      10019      10030      10029  
      9898       9899       9910       9909      10019      10020      10031      10030  
      9899       9900       9911       9910      10020      10021      10032      10031  
      9901       9902       9913       9912      10022      10023      10034      10033  
      9902       9903       9914       9913      10023      10024      10035      10034  
      9903       9904       9915       9914      10024      10025      10036      10035  
      9904       9905       9916       9915      10025      10026      10037      10036  
      9905       9906       9917       9916      10026      10027      10038      10037  
      9906       9907       9918       9917      10027      10028      10039      10038  
      9907       9908       9919       9918      10028      10029      10040      10039  
      9908       9909       9920       9919      10029      10030      10041      10040  
      9909       9910       9921       9920      10030      10031      10042      10041  
      9910       9911       9922       9921      10031      10032      10043      10042  
      9923       9924       9935       9934      10044      10045      10056      10055  
      9924       9925       9936       9935      10045      10046      10057      10056  
      9925       9926       9937       9936      10046      10047      10058      10057  
      9926       9927       9938       9937      10047      10048      10059      10058  
      9927       9928       9939       9938      10048      10049      10060      10059  
      9928       9929       9940       9939      10049      10050      10061      10060  
      9929       9930       9941       9940      10050      10051      10062      10061  
      9930       9931       9942       9941      10051      10052      10063      10062  
      9931       9932       9943       9942      10052      10053      10064      10063  
      9932       9933       9944       9943      10053      10054      10065      10064  
      9934       9935       9946       9945      10055      10056      10067      10066  
      9935       9936       9947       9946      10056      10057      10068      10067  
      9936       9937       9948       9947      10057      10058      10069      10068  
      9937       9938       9949       9948      10058      10059      10070      10069  
      9938       9939       9950       9949      10059      10060      10071      10070  
      9939       9940       9951       9950      10060      10061      10072      10071  
      9940       9941       9952       9951      10061      10062      10073      10072  
      9941       9942       9953       9952      10062      10063      10074      10073  
      9942       9943       9954       9953      10063      10064      10075      10074  
      9943       9944       9955       9954      10064      10065      10076      10075  
      9945       9946       9957       9956      10066      10067      10078      10077  
      9946       9947       9958       9957      10067      10068      10079      10078  
      9947       9948       9959       9958      10068      10069      10080      10079  
      9948       9949       9960       9959      10069      10070      10081      10080  
      9949       9950       9961       9960      10070      10071      10082      10081  
      9950       9951       9962       9961      10071      10072      10083      10082  
      9951       9952       9963       9962      10072      10073      10084      10083  
      9952       9953       9964       9963      10073      10074      10085      10084  
      9953       9954       9965       9964      10074      10075      10086      10085  
      9954       9955       9966       9965      10075      10076      10087      10086  
      9956       9957       9968       9967      10077      10078      10089      10088  
      9957       9958       9969       9968      10078      10079      10090      10089  
      9958       9959       9970       9969      10079      10080      10091      10090  
      9959       9960       9971       9970      10080      10081      10092      10091  
      9960       9961       9972       9971      10081      10082      10093      10092  
      9961       9962       9973       9972      10082      10083      10094      10093  
      9962       9963       9974       9973      10083      10084      10095      10094  
      9963       9964       9975       9974      10084      10085      10096      10095  
      9964       9965       9976       9975      10085      10086      10097      10096  
      9965       9966       9977       9976      10086      10087      10098      10097  
      9967       9968       9979       9978      10088      10089      10100      10099  
      9968       9969       9980       9979      10089      10090      10101      10100  
      9969       9970       9981       9980      10090      10091      10102      10101  
      9970       9971       9982       9981      10091      10092      10103      10102  
      9971       9972       9983       9982      10092      10093      10104      10103  
      9972       9973       9984       9983      10093      10094      10105      10104  
      9973       9974       9985       9984      10094      10095      10106      10105  
      9974       9975       9986       9985      10095      10096      10107      10106  
      9975       9976       9987       9986      10096      10097      10108      10107  
      9976       9977       9988       9987      10097      10098      10109      10108  
      9978       9979       9990       9989      10099      10100      10111      10110  
      9979       9980       9991       9990      10100      10101      10112      10111  
      9980       9981       9992       9991      10101      10102      10113      10112  
      9981       9982       9993       9992      10102      10103      10114      10113  
      9982       9983       9994       9993      10103      10104      10115      10114  
      9983       9984       9995       9994      10104      10105      10116      10115  
      9984       9985       9996       9995      10105      10106      10117      10116  
      9985       9986       9997       9996      10106      10107      10118      10117  
      9986       9987       9998       9997      10107      10108      10119      10118  
      9987       9988       9999       9998      10108      10109      10120      10119  
      9989       9990      10001      10000      10110      10111      10122      10121  
      9990       9991      10002      10001      10111      10112      10123      10122  
      9991       9992      10003      10002      10112      10113      10124      10123  
      9992       9993      10004      10003      10113      10114      10125      10124  
      9993       9994      10005      10004      10114      10115      10126      10125  
      9994       9995      10006      10005      10115      10116      10127      10126  
      9995       9996      10007      10006      10116      10117      10128      10127  
      9996       9997      10008      10007      10117      10118      10129      10128  
      9997       9998      10009      10008      10118      10119      10130      10129  
      9998       9999      10010      10009      10119      10120      10131      10130  
     10000      10001      10012      10011      10121      10122      10133      10132  
     10001      10002      10013      10012      10122      10123      10134      10133  
     10002      10003      10014      10013      10123      10124      10135      10134  
     10003      10004      10015      10014      10124      10125      10136      10135  
     10004      10005      10016      10015      10125      10126      10137      10136  
     10005      10006      10017      10016      10126      10127      10138      10137  
     10006      10007      10018      10017      10127      10128      10139      10138  
     10007      10008      10019      10018      10128      10129      10140      10139  
     10008      10009      10020      10019      10129      10130      10141      10140  
     10009      10010      10021      10020      10130      10131      10142      10141  
     10011      10012      10023      10022      10132      10133      10144      10143  
     10012      10013      10024      10023      10133      10134      10145      10144  
     10013      10014      10025      10024      10134      10135      10146      10145  
     10014      10015      10026      10025      10135      10136      10147      10146  
     10015      10016      10027      10026      10136      10137      10148      10147  
     10016      10017      10028      10027      10137      10138      10149      10148  
     10017      10018      10029      10028      10138      10139      10150      10149  
     10018      10019      10030      10029      10139      10140      10151      10150  
     10019      10020      10031      10030      10140      10141      10152      10151  
     10020      10021      10032      10031      10141      10142      10153      10152  
     10022      10023      10034      10033      10143      10144      10155      10154  
     10023      10024      10035      10034      10144      10145      10156      10155  
     10024      10025      10036      10035      10145      10146      10157      10156  
     10025      10026      10037      10036      10146      10147      10158      10157  
     10026      10027      10038      10037      10147      10148      10159      10158  
     10027      10028      10039      10038      10148      10149      10160      10159  
     10028      10029      10040      10039      10149      10150      10161      10160  
     10029      10030      10041      10040      10150      10151      10162      10161  
     10030      10031      10042      10041      10151      10152      10163      10162  
     10031      10032      10043      10042      10152      10153      10164      10163  
     10044      10045      10056      10055      10165      10166      10177      10176  
     10045      10046      10057      10056      10166      10167      10178      10177  
     10046      10047      10058      10057      10167      10168      10179      10178  
     10047      10048      10059      10058      10168      10169      10180      10179  
     10048      10049      10060      10059      10169      10170      10181      10180  
     10049      10050      10061      10060      10170      10171      10182      10181  
     10050      10051      10062      10061      10171      10172      10183      10182  
     10051      10052      10063      10062      10172      10173      10184      10183  
     10052      10053      10064      10063      10173      10174      10185      10184  
     10053      10054      10065      10064      10174      10175      10186      10185  
     10055      10056      10067      10066      10176      10177      10188      10187  
     10056      10057      10068      10067      10177      10178      10189      10188  
     10057      10058      10069      10068      10178      10179      10190      10189  
     10058      10059      10070      10069      10179      10180      10191      10190  
     10059      10060      10071      10070      10180      10181      10192      10191  
     10060      10061      10072      10071      10181      10182      10193      10192  
     10061      10062      10073      10072      10182      10183      10194      10193  
     10062      10063      10074      10073      10183      10184      10195      10194  
     10063      10064      10075      10074      10184      10185      10196      10195  
     10064      10065      10076      10075      10185      10186      10197      10196  
     10066      10067      10078      10077      10187      10188      10199      10198  
     10067      10068      10079      10078      10188      10189      10200      10199  
     10068      10069      10080      10079      10189      10190      10201      10200  
     10069      10070      10081      10080      10190      10191      10202      10201  
     10070      10071      10082      10081      10191      10192      10203      10202  
     10071      10072      10083      10082      10192      10193      10204      10203  
     10072      10073      10084      10083      10193      10194      10205      10204  
     10073      10074      10085      10084      10194      10195      10206      10205  
     10074      10075      10086      10085      10195      10196      10207      10206  
     10075      10076      10087      10086      10196      10197      10208      10207  
     10077      10078      10089      10088      10198      10199      10210      10209  
     10078      10079      10090      10089      10199      10200      10211      10210  
     10079      10080      10091      10090      10200      10201      10212      10211  
     10080      10081      10092      10091      10201      10202      10213      10212  
     10081      10082      10093      10092      10202      10203      10214      10213  
     10082      10083      10094      10093      10203      10204      10215      10214  
     10083      10084      10095      10094      10204      10205      10216      10215  
     10084      10085      10096      10095      10205      10206      10217      10216  
     10085      10086      10097      10096      10206      10207      10218      10217  
     10086      10087      10098      10097      10207      10208      10219      10218  
     10088      10089      10100      10099      10209      10210      10221      10220  
     10089      10090      10101      10100      10210      10211      10222      10221  
     10090      10091      10102      10101      10211      10212      10223      10222  
     10091      10092      10103      10102      10212      10213      10224      10223  
     10092      10093      10104      10103      10213      10214      10225      10224  
     10093      10094      10105      10104      10214      10215      10226      10225  
     10094      10095      10106      10105      10215      10216      10227      10226  
     10095      10096      10107      10106      10216      10217      10228      10227  
     10096      10097      10108      10107      10217      10218      10229      10228  
     10097      10098      10109      10108      10218      10219      10230      10229  
     10099      10100      10111      10110      10220      10221      10232      10231  
     10100      10101      10112      10111      10221      10222      10233      10232  
     10101      10102      10113      10112      10222      10223      10234      10233  
     10102      10103      10114      10113      10223      10224      10235      10234  
     10103      10104      10115      10114      10224      10225      10236      10235  
     10104      10105      10116      10115      10225      10226      10237      10236  
     10105      10106      10117      10116      10226      10227      10238      10237  
     10106      10107      10118      10117      10227      10228      10239      10238  
     10107      10108      10119      10118      10228      10229      10240      10239  
     10108      10109      10120      10119      10229      10230      10241      10240  
     10110      10111      10122      10121      10231      10232      10243      10242  
     10111      10112      10123      10122      10232      10233      10244      10243  
     10112      10113      10124      10123      10233      10234      10245      10244  
     10113      10114      10125      10124      10234      10235      10246      10245  
     10114      10115      10126      10125      10235      10236      10247      10246  
     10115      10116      10127      10126      10236      10237      10248      10247  
     10116      10117      10128      10127      10237      10238      10249      10248  
     10117      10118      10129      10128      10238      10239      10250      10249  
     10118      10119      10130      10129      10239      10240      10251      10250  
     10119      10120      10131      10130      10240      10241      10252      10251  
     10121      10122      10133      10132      10242      10243      10254      10253  
     10122      10123      10134      10133      10243      10244      10255      10254  
     10123      10124      10135      10134      10244      10245      10256      10255  
     10124      10125      10136      10135      10245      10246      10257      10256  
     10125      10126      10137      10136      10246      10247      10258      10257  
     10126      10127      10138      10137      10247      10248      10259      10258  
     10127      10128      10139      10138      10248      10249      10260      10259  
     10128      10129      10140      10139      10249      10250      10261      10260  
     10129      10130      10141      10140      10250      10251      10262      10261  
     10130      10131      10142      10141      10251      10252      10263      10262  
     10132      10133      10144      10143      10253      10254      10265      10264  
     10133      10134      10145      10144      10254      10255      10266      10265  
     10134      10135      10146      10145      10255      10256      10267      10266  
     10135      10136      10147      10146      10256      10257      10268      10267  
     10136      10137      10148      10147      10257      10258      10269      10268  
     10137      10138      10149      10148      10258      10259      10270      10269  
     10138      10139      10150      10149      10259      10260      10271      10270  
     10139      10140      10151      10150      10260      10261      10272      10271  
     10140      10141      10152      10151      10261      10262      10273      10272  
     10141      10142      10153      10152      10262      10263      10274      10273  
     10143      10144      10155      10154      10264      10265      10276      10275  
     10144      10145      10156      10155      10265      10266      10277      10276  
     10145      10146      10157      10156      10266      10267      10278      10277  
     10146      10147      10158      10157      10267      10268      10279      10278  
     10147      10148      10159      10158      10268      10269      10280      10279  
     10148      10149      10160      10159      10269      10270      10281      10280  
     10149      10150      10161      10160      10270      10271      10282      10281  
     10150      10151      10162      10161      10271      10272      10283      10282  
     10151      10152      10163      10162      10272      10273      10284      10283  
     10152      10153      10164      10163      10273      10274      10285      10284  
     10165      10166      10177      10176      10286      10287      10298      10297  
     10166      10167      10178      10177      10287      10288      10299      10298  
     10167      10168      10179      10178      10288      10289      10300      10299  
     10168      10169      10180      10179      10289      10290      10301      10300  
     10169      10170      10181      10180      10290      10291      10302      10301  
     10170      10171      10182      10181      10291      10292      10303      10302  
     10171      10172      10183      10182      10292      10293      10304      10303  
     10172      10173      10184      10183      10293      10294      10305      10304  
     10173      10174      10185      10184      10294      10295      10306      10305  
     10174      10175      10186      10185      10295      10296      10307      10306  
     10176      10177      10188      10187      10297      10298      10309      10308  
     10177      10178      10189      10188      10298      10299      10310      10309  
     10178      10179      10190      10189      10299      10300      10311      10310  
     10179      10180      10191      10190      10300      10301      10312      10311  
     10180      10181      10192      10191      10301      10302      10313      10312  
     10181      10182      10193      10192      10302      10303      10314      10313  
     10182      10183      10194      10193      10303      10304      10315      10314  
     10183      10184      10195      10194      10304      10305      10316      10315  
     10184      10185      10196      10195      10305      10306      10317      10316  
     10185      10186      10197      10196      10306      10307      10318      10317  
     10187      10188      10199      10198      10308      10309      10320      10319  
     10188      10189      10200      10199      10309      10310      10321      10320  
     10189      10190      10201      10200      10310      10311      10322      10321  
     10190      10191      10202      10201      10311      10312      10323      10322  
     10191      10192      10203      10202      10312      10313      10324      10323  
     10192      10193      10204      10203      10313      10314      10325      10324  
     10193      10194      10205      10204      10314      10315      10326      10325  
     10194      10195      10206      10205      10315      10316      10327      10326  
     10195      10196      10207      10206      10316      10317      10328      10327  
     10196      10197      10208      10207      10317      10318      10329      10328  
     10198      10199      10210      10209      10319      10320      10331      10330  
     10199      10200      10211      10210      10320      10321      10332      10331  
     10200      10201      10212      10211      10321      10322      10333      10332  
     10201      10202      10213      10212      10322      10323      10334      10333  
     10202      10203      10214      10213      10323      10324      10335      10334  
     10203      10204      10215      10214      10324      10325      10336      10335  
     10204      10205      10216      10215      10325      10326      10337      10336  
     10205      10206      10217      10216      10326      10327      10338      10337  
     10206      10207      10218      10217      10327      10328      10339      10338  
     10207      10208      10219      10218      10328      10329      10340      10339  
     10209      10210      10221      10220      10330      10331      10342      10341  
     10210      10211      10222      10221      10331      10332      10343      10342  
     10211      10212      10223      10222      10332      10333      10344      10343  
     10212      10213      10224      10223      10333      10334      10345      10344  
     10213      10214      10225      10224      10334      10335      10346      10345  
     10214      10215      10226      10225      10335      10336      10347      10346  
     10215      10216      10227      10226      10336      10337      10348      10347  
     10216      10217      10228      10227      10337      10338      10349      10348  
     10217      10218      10229      10228      10338      10339      10350      10349  
     10218      10219      10230      10229      10339      10340      10351      10350  
     10220      10221      10232      10231      10341      10342      10353      10352  
     10221      10222      10233      10232      10342      10343      10354      10353  
     10222      10223      10234      10233      10343      10344      10355      10354  
     10223      10224      10235      10234      10344      10345      10356      10355  
     10224      10225      10236      10235      10345      10346      10357      10356  
     10225      10226      10237      10236      10346      10347      10358      10357  
     10226      10227      10238      10237      10347      10348      10359      10358  
     10227      10228      10239      10238      10348      10349      10360      10359  
     10228      10229      10240      10239      10349      10350      10361      10360  
     10229      10230      10241      10240      10350      10351      10362      10361  
     10231      10232      10243      10242      10352      10353      10364      10363  
     10232      10233      10244      10243      10353      10354      10365      10364  
     10233      10234      10245      10244      10354      10355      10366      10365  
     10234      10235      10246      10245      10355      10356      10367      10366  
     10235      10236      10247      10246      10356      10357      10368      10367  
     10236      10237      10248      10247      10357      10358      10369      10368  
     10237      10238      10249      10248      10358      10359      10370      10369  
     10238      10239      10250      10249      10359      10360      10371      10370  
     10239      10240      10251      10250      10360      10361      10372      10371  
     10240      10241      10252      10251      10361      10362      10373      10372  
     10242      10243      10254      10253      10363      10364      10375      10374  
     10243      10244      10255      10254      10364      10365      10376      10375  
     10244      10245      10256      10255      10365      10366      10377      10376  
     10245      10246      10257      10256      10366      10367      10378      10377  
     10246      10247      10258      10257      10367      10368      10379      10378  
     10247      10248      10259      10258      10368      10369      10380      10379  
     10248      10249      10260      10259      10369      10370      10381      10380  
     10249      10250      10261      10260      10370      10371      10382      10381  
     10250      10251      10262      10261      10371      10372      10383      10382  
     10251      10252      10263      10262      10372      10373      10384      10383  
     10253      10254      10265      10264      10374      10375      10386      10385  
     10254      10255      10266      10265      10375      10376      10387      10386  
     10255      10256      10267      10266      10376      10377      10388      10387  
     10256      10257      10268      10267      10377      10378      10389      10388  
     10257      10258      10269      10268      10378      10379      10390      10389  
     10258      10259      10270      10269      10379      10380      10391      10390  
     10259      10260      10271      10270      10380      10381      10392      10391  
     10260      10261      10272      10271      10381      10382      10393      10392  
     10261      10262      10273      10272      10382      10383      10394      10393  
     10262      10263      10274      10273      10383      10384      10395      10394  
     10264      10265      10276      10275      10385      10386      10397      10396  
     10265      10266      10277      10276      10386      10387      10398      10397  
     10266      10267      10278      10277      10387      10388      10399      10398  
     10267      10268      10279      10278      10388      10389      10400      10399  
     10268      10269      10280      10279      10389      10390      10401      10400  
     10269      10270      10281      10280      10390      10391      10402      10401  
     10270      10271      10282      10281      10391      10392      10403      10402  
     10271      10272      10283      10282      10392      10393      10404      10403  
     10272      10273      10284      10283      10393      10394      10405      10404  
     10273      10274      10285      10284      10394      10395      10406      10405  
     10286      10287      10298      10297      10407      10408      10419      10418  
     10287      10288      10299      10298      10408      10409      10420      10419  
     10288      10289      10300      10299      10409      10410      10421      10420  
     10289      10290      10301      10300      10410      10411      10422      10421  
     10290      10291      10302      10301      10411      10412      10423      10422  
     10291      10292      10303      10302      10412      10413      10424      10423  
     10292      10293      10304      10303      10413      10414      10425      10424  
     10293      10294      10305      10304      10414      10415      10426      10425  
     10294      10295      10306      10305      10415      10416      10427      10426  
     10295      10296      10307      10306      10416      10417      10428      10427  
     10297      10298      10309      10308      10418      10419      10430      10429  
     10298      10299      10310      10309      10419      10420      10431      10430  
     10299      10300      10311      10310      10420      10421      10432      10431  
     10300      10301      10312      10311      10421      10422      10433      10432  
     10301      10302      10313      10312      10422      10423      10434      10433  
     10302      10303      10314      10313      10423      10424      10435      10434  
     10303      10304      10315      10314      10424      10425      10436      10435  
     10304      10305      10316      10315      10425      10426      10437      10436  
     10305      10306      10317      10316      10426      10427      10438      10437  
     10306      10307      10318      10317      10427      10428      10439      10438  
     10308      10309      10320      10319      10429      10430      10441      10440  
     10309      10310      10321      10320      10430      10431      10442      10441  
     10310      10311      10322      10321      10431      10432      10443      10442  
     10311      10312      10323      10322      10432      10433      10444      10443  
     10312      10313      10324      10323      10433      10434      10445      10444  
     10313      10314      10325      10324      10434      10435      10446      10445  
     10314      10315      10326      10325      10435      10436      10447      10446  
     10315      10316      10327      10326      10436      10437      10448      10447  
     10316      10317      10328      10327      10437      10438      10449      10448  
     10317      10318      10329      10328      10438      10439      10450      10449  
     10319      10320      10331      10330      10440      10441      10452      10451  
     10320      10321      10332      10331      10441      10442      10453      10452  
     10321      10322      10333      10332      10442      10443      10454      10453  
     10322      10323      10334      10333      10443      10444      10455      10454  
     10323      10324      10335      10334      10444      10445      10456      10455  
     10324      10325      10336      10335      10445      10446      10457      10456  
     10325      10326      10337      10336      10446      10447      10458      10457  
     10326      10327      10338      10337      10447      10448      10459      10458  
     10327      10328      10339      10338      10448      10449      10460      10459  
     10328      10329      10340      10339      10449      10450      10461      10460  
     10330      10331      10342      10341      10451      10452      10463      10462  
     10331      10332      10343      10342      10452      10453      10464      10463  
     10332      10333      10344      10343      10453      10454      10465      10464  
     10333      10334      10345      10344      10454      10455      10466      10465  
     10334      10335      10346      10345      10455      10456      10467      10466  
     10335      10336      10347      10346      10456      10457      10468      10467  
     10336      10337      10348      10347      10457      10458      10469      10468  
     10337      10338      10349      10348      10458      10459      10470      10469  
     10338      10339      10350      10349      10459      10460      10471      10470  
     10339      10340      10351      10350      10460      10461      10472      10471  
     10341      10342      10353      10352      10462      10463      10474      10473  
     10342      10343      10354      10353      10463      10464      10475      10474  
     10343      10344      10355      10354      10464      10465      10476      10475  
     10344      10345      10356      10355      10465      10466      10477      10476  
     10345      10346      10357      10356      10466      10467      10478      10477  
     10346      10347      10358      10357      10467      10468      10479      10478  
     10347      10348      10359      10358      10468      10469      10480      10479  
     10348      10349      10360      10359      10469      10470      10481      10480  
     10349      10350      10361      10360      10470      10471      10482      10481  
     10350      10351      10362      10361      10471      10472      10483      10482  
     10352      10353      10364      10363      10473      10474      10485      10484  
     10353      10354      10365      10364      10474      10475      10486      10485  
     10354      10355      10366      10365      10475      10476      10487      10486  
     10355      10356      10367      10366      10476      10477      10488      10487  
     10356      10357      10368      10367      10477      10478      10489      10488  
     10357      10358      10369      10368      10478      10479      10490      10489  
     10358      10359      10370      10369      10479      10480      10491      10490  
     10359      10360      10371      10370      10480      10481      10492      10491  
     10360      10361      10372      10371      10481      10482      10493      10492  
     10361      10362      10373      10372      10482      10483      10494      10493  
     10363      10364      10375      10374      10484      10485      10496      10495  
     10364      10365      10376      10375      10485      10486      10497      10496  
     10365      10366      10377      10376      10486      10487      10498      10497  
     10366      10367      10378      10377      10487      10488      10499      10498  
     10367      10368      10379      10378      10488      10489      10500      10499  
     10368      10369      10380      10379      10489      10490      10501      10500  
     10369      10370      10381      10380      10490      10491      10502      10501  
     10370      10371      10382      10381      10491      10492      10503      10502  
     10371      10372      10383      10382      10492      10493      10504      10503  
     10372      10373      10384      10383      10493      10494      10505      10504  
     10374      10375      10386      10385      10495      10496      10507      10506  
     10375      10376      10387      10386      10496      10497      10508      10507  
     10376      10377      10388      10387      10497      10498      10509      10508  
     10377      10378      10389      10388      10498      10499      10510      10509  
     10378      10379      10390      10389      10499      10500      10511      10510  
     10379      10380      10391      10390      10500      10501      10512      10511  
     10380      10381      10392      10391      10501      10502      10513      10512  
     10381      10382      10393      10392      10502      10503      10514      10513  
     10382      10383      10394      10393      10503      10504      10515      10514  
     10383      10384      10395      10394      10504      10505      10516      10515  
     10385      10386      10397      10396      10506      10507      10518      10517  
     10386      10387      10398      10397      10507      10508      10519      10518  
     10387      10388      10399      10398      10508      10509      10520      10519  
     10388      10389      10400      10399      10509      10510      10521      10520  
     10389      10390      10401      10400      10510      10511      10522      10521  
     10390      10391      10402      10401      10511      10512      10523      10522  
     10391      10392      10403      10402      10512      10513      10524      10523  
     10392      10393      10404      10403      10513      10514      10525      10524  
     10393      10394      10405      10404      10514      10515      10526      10525  
     10394      10395      10406      10405      10515      10516      10527      10526  
     10407      10408      10419      10418      10528      10529      10540      10539  
     10408      10409      10420      10419      10529      10530      10541      10540  
     10409      10410      10421      10420      10530      10531      10542      10541  
     10410      10411      10422      10421      10531      10532      10543      10542  
     10411      10412      10423      10422      10532      10533      10544      10543  
     10412      10413      10424      10423      10533      10534      10545      10544  
     10413      10414      10425      10424      10534      10535      10546      10545  
     10414      10415      10426      10425      10535      10536      10547      10546  
     10415      10416      10427      10426      10536      10537      10548      10547  
     10416      10417      10428      10427      10537      10538      10549      10548  
     10418      10419      10430      10429      10539      10540      10551      10550  
     10419      10420      10431      10430      10540      10541      10552      10551  
     10420      10421      10432      10431      10541      10542      10553      10552  
     10421      10422      10433      10432      10542      10543      10554      10553  
     10422      10423      10434      10433      10543      10544      10555      10554  
     10423      10424      10435      10434      10544      10545      10556      10555  
     10424      10425      10436      10435      10545      10546      10557      10556  
     10425      10426      10437      10436      10546      10547      10558      10557  
     10426      10427      10438      10437      10547      10548      10559      10558  
     10427      10428      10439      10438      10548      10549      10560      10559  
     10429      10430      10441      10440      10550      10551      10562      10561  
     10430      10431      10442      10441      10551      10552      10563      10562  
     10431      10432      10443      10442      10552      10553      10564      10563  
     10432      10433      10444      10443      10553      10554      10565      10564  
     10433      10434      10445      10444      10554      10555      10566      10565  
     10434      10435      10446      10445      10555      10556      10567      10566  
     10435      10436      10447      10446      10556      10557      10568      10567  
     10436      10437      10448      10447      10557      10558      10569      10568  
     10437      10438      10449      10448      10558      10559      10570      10569  
     10438      10439      10450      10449      10559      10560      10571      10570  
     10440      10441      10452      10451      10561      10562      10573      10572  
     10441      10442      10453      10452      10562      10563      10574      10573  
     10442      10443      10454      10453      10563      10564      10575      10574  
     10443      10444      10455      10454      10564      10565      10576      10575  
     10444      10445      10456      10455      10565      10566      10577      10576  
     10445      10446      10457      10456      10566      10567      10578      10577  
     10446      10447      10458      10457      10567      10568      10579      10578  
     10447      10448      10459      10458      10568      10569      10580      10579  
     10448      10449      10460      10459      10569      10570      10581      10580  
     10449      10450      10461      10460      10570      10571      10582      10581  
     10451      10452      10463      10462      10572      10573      10584      10583  
     10452      10453      10464      10463      10573      10574      10585      10584  
     10453      10454      10465      10464      10574      10575      10586      10585  
     10454      10455      10466      10465      10575      10576      10587      10586  
     10455      10456      10467      10466      10576      10577      10588      10587  
     10456      10457      10468      10467      10577      10578      10589      10588  
     10457      10458      10469      10468      10578      10579      10590      10589  
     10458      10459      10470      10469      10579      10580      10591      10590  
     10459      10460      10471      10470      10580      10581      10592      10591  
     10460      10461      10472      10471      10581      10582      10593      10592  
     10462      10463      10474      10473      10583      10584      10595      10594  
     10463      10464      10475      10474      10584      10585      10596      10595  
     10464      10465      10476      10475      10585      10586      10597      10596  
     10465      10466      10477      10476      10586      10587      10598      10597  
     10466      10467      10478      10477      10587      10588      10599      10598  
     10467      10468      10479      10478      10588      10589      10600      10599  
     10468      10469      10480      10479      10589      10590      10601      10600  
     10469      10470      10481      10480      10590      10591      10602      10601  
     10470      10471      10482      10481      10591      10592      10603      10602  
     10471      10472      10483      10482      10592      10593      10604      10603  
     10473      10474      10485      10484      10594      10595      10606      10605  
     10474      10475      10486      10485      10595      10596      10607      10606  
     10475      10476      10487      10486      10596      10597      10608      10607  
     10476      10477      10488      10487      10597      10598      10609      10608  
     10477      10478      10489      10488      10598      10599      10610      10609  
     10478      10479      10490      10489      10599      10600      10611      10610  
     10479      10480      10491      10490      10600      10601      10612      10611  
     10480      10481      10492      10491      10601      10602      10613      10612  
     10481      10482      10493      10492      10602      10603      10614      10613  
     10482      10483      10494      10493      10603      10604      10615      10614  
     10484      10485      10496      10495      10605      10606      10617      10616  
     10485      10486      10497      10496      10606      10607      10618      10617  
     10486      10487      10498      10497      10607      10608      10619      10618  
     10487      10488      10499      10498      10608      10609      10620      10619  
     10488      10489      10500      10499      10609      10610      10621      10620  
     10489      10490      10501      10500      10610      10611      10622      10621  
     10490      10491      10502      10501      10611      10612      10623      10622  
     10491      10492      10503      10502      10612      10613      10624      10623  
     10492      10493      10504      10503      10613      10614      10625      10624  
     10493      10494      10505      10504      10614      10615      10626      10625  
     10495      10496      10507      10506      10616      10617      10628      10627  
     10496      10497      10508      10507      10617      10618      10629      10628  
     10497      10498      10509      10508      10618      10619      10630      10629  
     10498      10499      10510      10509      10619      10620      10631      10630  
     10499      10500      10511      10510      10620      10621      10632      10631  
     10500      10501      10512      10511      10621      10622      10633      10632  
     10501      10502      10513      10512      10622      10623      10634      10633  
     10502      10503      10514      10513      10623      10624      10635      10634  
     10503      10504      10515      10514      10624      10625      10636      10635  
     10504      10505      10516      10515      10625      10626      10637      10636  
     10506      10507      10518      10517      10627      10628      10639      10638  
     10507      10508      10519      10518      10628      10629      10640      10639  
     10508      10509      10520      10519      10629      10630      10641      10640  
     10509      10510      10521      10520      10630      10631      10642      10641  
     10510      10511      10522      10521      10631      10632      10643      10642  
     10511      10512      10523      10522      10632      10633      10644      10643  
     10512      10513      10524      10523      10633      10634      10645      10644  
     10513      10514      10525      10524      10634      10635      10646      10645  
     10514      10515      10526      10525      10635      10636      10647      10646  
     10515      10516      10527      10526      10636      10637      10648      10647  
     10528      10529      10540      10539      10649      10650      10661      10660  
     10529      10530      10541      10540      10650      10651      10662      10661  
     10530      10531      10542      10541      10651      10652      10663      10662  
     10531      10532      10543      10542      10652      10653      10664      10663  
     10532      10533      10544      10543      10653      10654      10665      10664  
     10533      10534      10545      10544      10654      10655      10666      10665  
     10534      10535      10546      10545      10655      10656      10667      10666  
     10535      10536      10547      10546      10656      10657      10668      10667  
     10536      10537      10548      10547      10657      10658      10669      10668  
     10537      10538      10549      10548      10658      10659      10670      10669  
     10539      10540      10551      10550      10660      10661      10672      10671  
     10540      10541      10552      10551      10661      10662      10673      10672  
     10541      10542      10553      10552      10662      10663      10674      10673  
     10542      10543      10554      10553      10663      10664      10675      10674  
     10543      10544      10555      10554      10664      10665      10676      10675  
     10544      10545      10556      10555      10665      10666      10677      10676  
     10545      10546      10557      10556      10666      10667      10678      10677  
     10546      10547      10558      10557      10667      10668      10679      10678  
     10547      10548      10559      10558      10668      10669      10680      10679  
     10548      10549      10560      10559      10669      10670      10681      10680  
     10550      10551      10562      10561      10671      10672      10683      10682  
     10551      10552      10563      10562      10672      10673      10684      10683  
     10552      10553      10564      10563      10673      10674      10685      10684  
     10553      10554      10565      10564      10674      10675      10686      10685  
     10554      10555      10566      10565      10675      10676      10687      10686  
     10555      10556      10567      10566      10676      10677      10688      10687  
     10556      10557      10568      10567      10677      10678      10689      10688  
     10557      10558      10569      10568      10678      10679      10690      10689  
     10558      10559      10570      10569      10679      10680      10691      10690  
     10559      10560      10571      10570      10680      10681      10692      10691  
     10561      10562      10573      10572      10682      10683      10694      10693  
     10562      10563      10574      10573      10683      10684      10695      10694  
     10563      10564      10575      10574      10684      10685      10696      10695  
     10564      10565      10576      10575      10685      10686      10697      10696  
     10565      10566      10577      10576      10686      10687      10698      10697  
     10566      10567      10578      10577      10687      10688      10699      10698  
     10567      10568      10579      10578      10688      10689      10700      10699  
     10568      10569      10580      10579      10689      10690      10701      10700  
     10569      10570      10581      10580      10690      10691      10702      10701  
     10570      10571      10582      10581      10691      10692      10703      10702  
     10572      10573      10584      10583      10693      10694      10705      10704  
     10573      10574      10585      10584      10694      10695      10706      10705  
     10574      10575      10586      10585      10695      10696      10707      10706  
     10575      10576      10587      10586      10696      10697      10708      10707  
     10576      10577      10588      10587      10697      10698      10709      10708  
     10577      10578      10589      10588      10698      10699      10710      10709  
     10578      10579      10590      10589      10699      10700      10711      10710  
     10579      10580      10591      10590      10700      10701      10712      10711  
     10580      10581      10592      10591      10701      10702      10713      10712  
     10581      10582      10593      10592      10702      10703      10714      10713  
     10583      10584      10595      10594      10704      10705      10716      10715  
     10584      10585      10596      10595      10705      10706      10717      10716  
     10585      10586      10597      10596      10706      10707      10718      10717  
     10586      10587      10598      10597      10707      10708      10719      10718  
     10587      10588      10599      10598      10708      10709      10720      10719  
     10588      10589      10600      10599      10709      10710      10721      10720  
     10589      10590      10601      10600      10710      10711      10722      10721  
     10590      10591      10602      10601      10711      10712      10723      10722  
     10591      10592      10603      10602      10712      10713      10724      10723  
     10592      10593      10604      10603      10713      10714      10725      10724  
     10594      10595      10606      10605      10715      10716      10727      10726  
     10595      10596      10607      10606      10716      10717      10728      10727  
     10596      10597      10608      10607      10717      10718      10729      10728  
     10597      10598      10609      10608      10718      10719      10730      10729  
     10598      10599      10610      10609      10719      10720      10731      10730  
     10599      10600      10611      10610      10720      10721      10732      10731  
     10600      10601      10612      10611      10721      10722      10733      10732  
     10601      10602      10613      10612      10722      10723      10734      10733  
     10602      10603      10614      10613      10723      10724      10735      10734  
     10603      10604      10615      10614      10724      10725      10736      10735  
     10605      10606      10617      10616      10726      10727      10738      10737  
     10606      10607      10618      10617      10727      10728      10739      10738  
     10607      10608      10619      10618      10728      10729      10740      10739  
     10608      10609      10620      10619      10729      10730      10741      10740  
     10609      10610      10621      10620      10730      10731      10742      10741  
     10610      10611      10622      10621      10731      10732      10743      10742  
     10611      10612      10623      10622      10732      10733      10744      10743  
     10612      10613      10624      10623      10733      10734      10745      10744  
     10613      10614      10625      10624      10734      10735      10746      10745  
     10614      10615      10626      10625      10735      10736      10747      10746  
     10616      10617      10628      10627      10737      10738      10749      10748  
     10617      10618      10629      10628      10738      10739      10750      10749  
     10618      10619      10630      10629      10739      10740      10751      10750  
     10619      10620      10631      10630      10740      10741      10752      10751  
     10620      10621      10632      10631      10741      10742      10753      10752  
     10621      10622      10633      10632      10742      10743      10754      10753  
     10622      10623      10634      10633      10743      10744      10755      10754  
     10623      10624      10635      10634      10744      10745      10756      10755  
     10624      10625      10636      10635      10745      10746      10757      10756  
     10625      10626      10637      10636      10746      10747      10758      10757  
     10627      10628      10639      10638      10748      10749      10760      10759  
     10628      10629      10640      10639      10749      10750      10761      10760  
     10629      10630      10641      10640      10750      10751      10762      10761  
     10630      10631      10642      10641      10751      10752      10763      10762  
     10631      10632      10643      10642      10752      10753      10764      10763  
     10632      10633      10644      10643      10753      10754      10765      10764  
     10633      10634      10645      10644      10754      10755      10766      10765  
     10634      10635      10646      10645      10755      10756      10767      10766  
     10635      10636      10647      10646      10756      10757      10768      10767  
     10636      10637      10648      10647      10757      10758      10769      10768  
     10649      10650      10661      10660      10770      10771      10782      10781  
     10650      10651      10662      10661      10771      10772      10783      10782  
     10651      10652      10663      10662      10772      10773      10784      10783  
     10652      10653      10664      10663      10773      10774      10785      10784  
     10653      10654      10665      10664      10774      10775      10786      10785  
     10654      10655      10666      10665      10775      10776      10787      10786  
     10655      10656      10667      10666      10776      10777      10788      10787  
     10656      10657      10668      10667      10777      10778      10789      10788  
     10657      10658      10669      10668      10778      10779      10790      10789  
     10658      10659      10670      10669      10779      10780      10791      10790  
     10660      10661      10672      10671      10781      10782      10793      10792  
     10661      10662      10673      10672      10782      10783      10794      10793  
     10662      10663      10674      10673      10783      10784      10795      10794  
     10663      10664      10675      10674      10784      10785      10796      10795  
     10664      10665      10676      10675      10785      10786      10797      10796  
     10665      10666      10677      10676      10786      10787      10798      10797  
     10666      10667      10678      10677      10787      10788      10799      10798  
     10667      10668      10679      10678      10788      10789      10800      10799  
     10668      10669      10680      10679      10789      10790      10801      10800  
     10669      10670      10681      10680      10790      10791      10802      10801  
     10671      10672      10683      10682      10792      10793      10804      10803  
     10672      10673      10684      10683      10793      10794      10805      10804  
     10673      10674      10685      10684      10794      10795      10806      10805  
     10674      10675      10686      10685      10795      10796      10807      10806  
     10675      10676      10687      10686      10796      10797      10808      10807  
     10676      10677      10688      10687      10797      10798      10809      10808  
     10677      10678      10689      10688      10798      10799      10810      10809  
     10678      10679      10690      10689      10799      10800      10811      10810  
     10679      10680      10691      10690      10800      10801      10812      10811  
     10680      10681      10692      10691      10801      10802      10813      10812  
     10682      10683      10694      10693      10803      10804      10815      10814  
     10683      10684      10695      10694      10804      10805      10816      10815  
     10684      10685      10696      10695      10805      10806      10817      10816  
     10685      10686      10697      10696      10806      10807      10818      10817  
     10686      10687      10698      10697      10807      10808      10819      10818  
     10687      10688      10699      10698      10808      10809      10820      10819  
     10688      10689      10700      10699      10809      10810      10821      10820  
     10689      10690      10701      10700      10810      10811      10822      10821  
     10690      10691      10702      10701      10811      10812      10823      10822  
     10691      10692      10703      10702      10812      10813      10824      10823  
     10693      10694      10705      10704      10814      10815      10826      10825  
     10694      10695      10706      10705      10815      10816      10827      10826  
     10695      10696      10707      10706      10816      10817      10828      10827  
     10696      10697      10708      10707      10817      10818      10829      10828  
     10697      10698      10709      10708      10818      10819      10830      10829  
     10698      10699      10710      10709      10819      10820      10831      10830  
     10699      10700      10711      10710      10820      10821      10832      10831  
     10700      10701      10712      10711      10821      10822      10833      10832  
     10701      10702      10713      10712      10822      10823      10834      10833  
     10702      10703      10714      10713      10823      10824      10835      10834  
     10704      10705      10716      10715      10825      10826      10837      10836  
     10705      10706      10717      10716      10826      10827      10838      10837  
     10706      10707      10718      10717      10827      10828      10839      10838  
     10707      10708      10719      10718      10828      10829      10840      10839  
     10708      10709      10720      10719      10829      10830      10841      10840  
     10709      10710      10721      10720      10830      10831      10842      10841  
     10710      10711      10722      10721      10831      10832      10843      10842  
     10711      10712      10723      10722      10832      10833      10844      10843  
     10712      10713      10724      10723      10833      10834      10845      10844  
     10713      10714      10725      10724      10834      10835      10846      10845  
     10715      10716      10727      10726      10836      10837      10848      10847  
     10716      10717      10728      10727      10837      10838      10849      10848  
     10717      10718      10729      10728      10838      10839      10850      10849  
     10718      10719      10730      10729      10839      10840      10851      10850  
     10719      10720      10731      10730      10840      10841      10852      10851  
     10720      10721      10732      10731      10841      10842      10853      10852  
     10721      10722      10733      10732      10842      10843      10854      10853  
     10722      10723      10734      10733      10843      10844      10855      10854  
     10723      10724      10735      10734      10844      10845      10856      10855  
     10724      10725      10736      10735      10845      10846      10857      10856  
     10726      10727      10738      10737      10847      10848      10859      10858  
     10727      10728      10739      10738      10848      10849      10860      10859  
     10728      10729      10740      10739      10849      10850      10861      10860  
     10729      10730      10741      10740      10850      10851      10862      10861  
     10730      10731      10742      10741      10851      10852      10863      10862  
     10731      10732      10743      10742      10852      10853      10864      10863  
     10732      10733      10744      10743      10853      10854      10865      10864  
     10733      10734      10745      10744      10854      10855      10866      10865  
     10734      10735      10746      10745      10855      10856      10867      10866  
     10735      10736      10747      10746      10856      10857      10868      10867  
     10737      10738      10749      10748      10858      10859      10870      10869  
     10738      10739      10750      10749      10859      10860      10871      10870  
     10739      10740      10751      10750      10860      10861      10872      10871  
     10740      10741      10752      10751      10861      10862      10873      10872  
     10741      10742      10753      10752      10862      10863      10874      10873  
     10742      10743      10754      10753      10863      10864      10875      10874  
     10743      10744      10755      10754      10864      10865      10876      10875  
     10744      10745      10756      10755      10865      10866      10877      10876  
     10745      10746      10757      10756      10866      10867      10878      10877  
     10746      10747      10758      10757      10867      10868      10879      10878  
     10748      10749      10760      10759      10869      10870      10881      10880  
     10749      10750      10761      10760      10870      10871      10882      10881  
     10750      10751      10762      10761      10871      10872      10883      10882  
     10751      10752      10763      10762      10872      10873      10884      10883  
     10752      10753      10764      10763      10873      10874      10885      10884  
     10753      10754      10765      10764      10874      10875      10886      10885  
     10754      10755      10766      10765      10875      10876      10887      10886  
     10755      10756      10767      10766      10876      10877      10888      10887  
     10756      10757      10768      10767      10877      10878      10889      10888  
     10757      10758      10769      10768      10878      10879      10890      10889  
     10770      10771      10782      10781      10891      10892      10903      10902  
     10771      10772      10783      10782      10892      10893      10904      10903  
     10772      10773      10784      10783      10893      10894      10905      10904  
     10773      10774      10785      10784      10894      10895      10906      10905  
     10774      10775      10786      10785      10895      10896      10907      10906  
     10775      10776      10787      10786      10896      10897      10908      10907  
     10776      10777      10788      10787      10897      10898      10909      10908  
     10777      10778      10789      10788      10898      10899      10910      10909  
     10778      10779      10790      10789      10899      10900      10911      10910  
     10779      10780      10791      10790      10900      10901      10912      10911  
     10781      10782      10793      10792      10902      10903      10914      10913  
     10782      10783      10794      10793      10903      10904      10915      10914  
     10783      10784      10795      10794      10904      10905      10916      10915  
     10784      10785      10796      10795      10905      10906      10917      10916  
     10785      10786      10797      10796      10906      10907      10918      10917  
     10786      10787      10798      10797      10907      10908      10919      10918  
     10787      10788      10799      10798      10908      10909      10920      10919  
     10788      10789      10800      10799      10909      10910      10921      10920  
     10789      10790      10801      10800      10910      10911      10922      10921  
     10790      10791      10802      10801      10911      10912      10923      10922  
     10792      10793      10804      10803      10913      10914      10925      10924  
     10793      10794      10805      10804      10914      10915      10926      10925  
     10794      10795      10806      10805      10915      10916      10927      10926  
     10795      10796      10807      10806      10916      10917      10928      10927  
     10796      10797      10808      10807      10917      10918      10929      10928  
     10797      10798      10809      10808      10918      10919      10930      10929  
     10798      10799      10810      10809      10919      10920      10931      10930  
     10799      10800      10811      10810      10920      10921      10932      10931  
     10800      10801      10812      10811      10921      10922      10933      10932  
     10801      10802      10813      10812      10922      10923      10934      10933  
     10803      10804      10815      10814      10924      10925      10936      10935  
     10804      10805      10816      10815      10925      10926      10937      10936  
     10805      10806      10817      10816      10926      10927      10938      10937  
     10806      10807      10818      10817      10927      10928      10939      10938  
     10807      10808      10819      10818      10928      10929      10940      10939  
     10808      10809      10820      10819      10929      10930      10941      10940  
     10809      10810      10821      10820      10930      10931      10942      10941  
     10810      10811      10822      10821      10931      10932      10943      10942  
     10811      10812      10823      10822      10932      10933      10944      10943  
     10812      10813      10824      10823      10933      10934      10945      10944  
     10814      10815      10826      10825      10935      10936      10947      10946  
     10815      10816      10827      10826      10936      10937      10948      10947  
     10816      10817      10828      10827      10937      10938      10949      10948  
     10817      10818      10829      10828      10938      10939      10950      10949  
     10818      10819      10830      10829      10939      10940      10951      10950  
     10819      10820      10831      10830      10940      10941      10952      10951  
     10820      10821      10832      10831      10941      10942      10953      10952  
     10821      10822      10833      10832      10942      10943      10954      10953  
     10822      10823      10834      10833      10943      10944      10955      10954  
     10823      10824      10835      10834      10944      10945      10956      10955  
     10825      10826      10837      10836      10946      10947      10958      10957  
     10826      10827      10838      10837      10947      10948      10959      10958  
     10827      10828      10839      10838      10948      10949      10960      10959  
     10828      10829      10840      10839      10949      10950      10961      10960  
     10829      10830      10841      10840      10950      10951      10962      10961  
     10830      10831      10842      10841      10951      10952      10963      10962  
     10831      10832      10843      10842      10952      10953      10964      10963  
     10832      10833      10844      10843      10953      10954      10965      10964  
     10833      10834      10845      10844      10954      10955      10966      10965  
     10834      10835      10846      10845      10955      10956      10967      10966  
     10836      10837      10848      10847      10957      10958      10969      10968  
     10837      10838      10849      10848      10958      10959      10970      10969  
     10838      10839      10850      10849      10959      10960      10971      10970  
     10839      10840      10851      10850      10960      10961      10972      10971  
     10840      10841      10852      10851      10961      10962      10973      10972  
     10841      10842      10853      10852      10962      10963      10974      10973  
     10842      10843      10854      10853      10963      10964      10975      10974  
     10843      10844      10855      10854      10964      10965      10976      10975  
     10844      10845      10856      10855      10965      10966      10977      10976  
     10845      10846      10857      10856      10966      10967      10978      10977  
     10847      10848      10859      10858      10968      10969      10980      10979  
     10848      10849      10860      10859      10969      10970      10981      10980  
     10849      10850      10861      10860      10970      10971      10982      10981  
     10850      10851      10862      10861      10971      10972      10983      10982  
     10851      10852      10863      10862      10972      10973      10984      10983  
     10852      10853      10864      10863      10973      10974      10985      10984  
     10853      10854      10865      10864      10974      10975      10986      10985  
     10854      10855      10866      10865      10975      10976      10987      10986  
     10855      10856      10867      10866      10976      10977      10988      10987  
     10856      10857      10868      10867      10977      10978      10989      10988  
     10858      10859      10870      10869      10979      10980      10991      10990  
     10859      10860      10871      10870      10980      10981      10992      10991  
     10860      10861      10872      10871      10981      10982      10993      10992  
     10861      10862      10873      10872      10982      10983      10994      10993  
     10862      10863      10874      10873      10983      10984      10995      10994  
     10863      10864      10875      10874      10984      10985      10996      10995  
     10864      10865      10876      10875      10985      10986      10997      10996  
     10865      10866      10877      10876      10986      10987      10998      10997  
     10866      10867      10878      10877      10987      10988      10999      10998  
     10867      10868      10879      10878      10988      10989      11000      10999  
     10869      10870      10881      10880      10990      10991      11002      11001  
     10870      10871      10882      10881      10991      10992      11003      11002  
     10871      10872      10883      10882      10992      10993      11004      11003  
     10872      10873      10884      10883      10993      10994      11005      11004  
     10873      10874      10885      10884      10994      10995      11006      11005  
     10874      10875      10886      10885      10995      10996      11007      11006  
     10875      10876      10887      10886      10996      10997      11008      11007  
     10876      10877      10888      10887      10997      10998      11009      11008  
     10877      10878      10889      10888      10998      10999      11010      11009  
     10878      10879      10890      10889      10999      11000      11011      11010  
     10891      10892      10903      10902      11012      11013      11024      11023  
     10892      10893      10904      10903      11013      11014      11025      11024  
     10893      10894      10905      10904      11014      11015      11026      11025  
     10894      10895      10906      10905      11015      11016      11027      11026  
     10895      10896      10907      10906      11016      11017      11028      11027  
     10896      10897      10908      10907      11017      11018      11029      11028  
     10897      10898      10909      10908      11018      11019      11030      11029  
     10898      10899      10910      10909      11019      11020      11031      11030  
     10899      10900      10911      10910      11020      11021      11032      11031  
     10900      10901      10912      10911      11021      11022      11033      11032  
     10902      10903      10914      10913      11023      11024      11035      11034  
     10903      10904      10915      10914      11024      11025      11036      11035  
     10904      10905      10916      10915      11025      11026      11037      11036  
     10905      10906      10917      10916      11026      11027      11038      11037  
     10906      10907      10918      10917      11027      11028      11039      11038  
     10907      10908      10919      10918      11028      11029      11040      11039  
     10908      10909      10920      10919      11029      11030      11041      11040  
     10909      10910      10921      10920      11030      11031      11042      11041  
     10910      10911      10922      10921      11031      11032      11043      11042  
     10911      10912      10923      10922      11032      11033      11044      11043  
     10913      10914      10925      10924      11034      11035      11046      11045  
     10914      10915      10926      10925      11035      11036      11047      11046  
     10915      10916      10927      10926      11036      11037      11048      11047  
     10916      10917      10928      10927      11037      11038      11049      11048  
     10917      10918      10929      10928      11038      11039      11050      11049  
     10918      10919      10930      10929      11039      11040      11051      11050  
     10919      10920      10931      10930      11040      11041      11052      11051  
     10920      10921      10932      10931      11041      11042      11053      11052  
     10921      10922      10933      10932      11042      11043      11054      11053  
     10922      10923      10934      10933      11043      11044      11055      11054  
     10924      10925      10936      10935      11045      11046      11057      11056  
     10925      10926      10937      10936      11046      11047      11058      11057  
     10926      10927      10938      10937      11047      11048      11059      11058  
     10927      10928      10939      10938      11048      11049      11060      11059  
     10928      10929      10940      10939      11049      11050      11061      11060  
     10929      10930      10941      10940      11050      11051      11062      11061  
     10930      10931      10942      10941      11051      11052      11063      11062  
     10931      10932      10943      10942      11052      11053      11064      11063  
     10932      10933      10944      10943      11053      11054      11065      11064  
     10933      10934      10945      10944      11054      11055      11066      11065  
     10935      10936      10947      10946      11056      11057      11068      11067  
     10936      10937      10948      10947      11057      11058      11069      11068  
     10937      10938      10949      10948      11058      11059      11070      11069  
     10938      10939      10950      10949      11059      11060      11071      11070  
     10939      10940      10951      10950      11060      11061      11072      11071  
     10940      10941      10952      10951      11061      11062      11073      11072  
     10941      10942      10953      10952      11062      11063      11074      11073  
     10942      10943      10954      10953      11063      11064      11075      11074  
     10943      10944      10955      10954      11064      11065      11076      11075  
     10944      10945      10956      10955      11065      11066      11077      11076  
     10946      10947      10958      10957      11067      11068      11079      11078  
     10947      10948      10959      10958      11068      11069      11080      11079  
     10948      10949      10960      10959      11069      11070      11081      11080  
     10949      10950      10961      10960      11070      11071      11082      11081  
     10950      10951      10962      10961      11071      11072      11083      11082  
     10951      10952      10963      10962      11072      11073      11084      11083  
     10952      10953      10964      10963      11073      11074      11085      11084  
     10953      10954      10965      10964      11074      11075      11086      11085  
     10954      10955      10966      10965      11075      11076      11087      11086  
     10955      10956      10967      10966      11076      11077      11088      11087  
     10957      10958      10969      10968      11078      11079      11090      11089  
     10958      10959      10970      10969      11079      11080      11091      11090  
     10959      10960      10971      10970      11080      11081      11092      11091  
     10960      10961      10972      10971      11081      11082      11093      11092  
     10961      10962      10973      10972      11082      11083      11094      11093  
     10962      10963      10974      10973      11083      11084      11095      11094  
     10963      10964      10975      10974      11084      11085      11096      11095  
     10964      10965      10976      10975      11085      11086      11097      11096  
     10965      10966      10977      10976      11086      11087      11098      11097  
     10966      10967      10978      10977      11087      11088      11099      11098  
     10968      10969      10980      10979      11089      11090      11101      11100  
     10969      10970      10981      10980      11090      11091      11102      11101  
     10970      10971      10982      10981      11091      11092      11103      11102  
     10971      10972      10983      10982      11092      11093      11104      11103  
     10972      10973      10984      10983      11093      11094      11105      11104  
     10973      10974      10985      10984      11094      11095      11106      11105  
     10974      10975      10986      10985      11095      11096      11107      11106  
     10975      10976      10987      10986      11096      11097      11108      11107  
     10976      10977      10988      10987      11097      11098      11109      11108  
     10977      10978      10989      10988      11098      11099      11110      11109  
     10979      10980      10991      10990      11100      11101      11112      11111  
     10980      10981      10992      10991      11101      11102      11113      11112  
     10981      10982      10993      10992      11102      11103      11114      11113  
     10982      10983      10994      10993      11103      11104      11115      11114  
     10983      10984      10995      10994      11104      11105      11116      11115  
     10984      10985      10996      10995      11105      11106      11117      11116  
     10985      10986      10997      10996      11106      11107      11118      11117  
     10986      10987      10998      10997      11107      11108      11119      11118  
     10987      10988      10999      10998      11108      11109      11120      11119  
     10988      10989      11000      10999      11109      11110      11121      11120  
     10990      10991      11002      11001      11111      11112      11123      11122  
     10991      10992      11003      11002      11112      11113      11124      11123  
     10992      10993      11004      11003      11113      11114      11125      11124  
     10993      10994      11005      11004      11114      11115      11126      11125  
     10994      10995      11006      11005      11115      11116      11127      11126  
     10995      10996      11007      11006      11116      11117      11128      11127  
     10996      10997      11008      11007      11117      11118      11129      11128  
     10997      10998      11009      11008      11118      11119      11130      11129  
     10998      10999      11010      11009      11119      11120      11131      11130  
     10999      11000      11011      11010      11120      11121      11132      11131  
     11012      11013      11024      11023      11133      11134      11145      11144  
     11013      11014      11025      11024      11134      11135      11146      11145  
     11014      11015      11026      11025      11135      11136      11147      11146  
     11015      11016      11027      11026      11136      11137      11148      11147  
     11016      11017      11028      11027      11137      11138      11149      11148  
     11017      11018      11029      11028      11138      11139      11150      11149  
     11018      11019      11030      11029      11139      11140      11151      11150  
     11019      11020      11031      11030      11140      11141      11152      11151  
     11020      11021      11032      11031      11141      11142      11153      11152  
     11021      11022      11033      11032      11142      11143      11154      11153  
     11023      11024      11035      11034      11144      11145      11156      11155  
     11024      11025      11036      11035      11145      11146      11157      11156  
     11025      11026      11037      11036      11146      11147      11158      11157  
     11026      11027      11038      11037      11147      11148      11159      11158  
     11027      11028      11039      11038      11148      11149      11160      11159  
     11028      11029      11040      11039      11149      11150      11161      11160  
     11029      11030      11041      11040      11150      11151      11162      11161  
     11030      11031      11042      11041      11151      11152      11163      11162  
     11031      11032      11043      11042      11152      11153      11164      11163  
     11032      11033      11044      11043      11153      11154      11165      11164  
     11034      11035      11046      11045      11155      11156      11167      11166  
     11035      11036      11047      11046      11156      11157      11168      11167  
     11036      11037      11048      11047      11157      11158      11169      11168  
     11037      11038      11049      11048      11158      11159      11170      11169  
     11038      11039      11050      11049      11159      11160      11171      11170  
     11039      11040      11051      11050      11160      11161      11172      11171  
     11040      11041      11052      11051      11161      11162      11173      11172  
     11041      11042      11053      11052      11162      11163      11174      11173  
     11042      11043      11054      11053      11163      11164      11175      11174  
     11043      11044      11055      11054      11164      11165      11176      11175  
     11045      11046      11057      11056      11166      11167      11178      11177  
     11046      11047      11058      11057      11167      11168      11179      11178  
     11047      11048      11059      11058      11168      11169      11180      11179  
     11048      11049      11060      11059      11169      11170      11181      11180  
     11049      11050      11061      11060      11170      11171      11182      11181  
     11050      11051      11062      11061      11171      11172      11183      11182  
     11051      11052      11063      11062      11172      11173      11184      11183  
     11052      11053      11064      11063      11173      11174      11185      11184  
     11053      11054      11065      11064      11174      11175      11186      11185  
     11054      11055      11066      11065      11175      11176      11187      11186  
     11056      11057      11068      11067      11177      11178      11189      11188  
     11057      11058      11069      11068      11178      11179      11190      11189  
     11058      11059      11070      11069      11179      11180      11191      11190  
     11059      11060      11071      11070      11180      11181      11192      11191  
     11060      11061      11072      11071      11181      11182      11193      11192  
     11061      11062      11073      11072      11182      11183      11194      11193  
     11062      11063      11074      11073      11183      11184      11195      11194  
     11063      11064      11075      11074      11184      11185      11196      11195  
     11064      11065      11076      11075      11185      11186      11197      11196  
     11065      11066      11077      11076      11186      11187      11198      11197  
     11067      11068      11079      11078      11188      11189      11200      11199  
     11068      11069      11080      11079      11189      11190      11201      11200  
     11069      11070      11081      11080      11190      11191      11202      11201  
     11070      11071      11082      11081      11191      11192      11203      11202  
     11071      11072      11083      11082      11192      11193      11204      11203  
     11072      11073      11084      11083      11193      11194      11205      11204  
     11073      11074      11085      11084      11194      11195      11206      11205  
     11074      11075      11086      11085      11195      11196      11207      11206  
     11075      11076      11087      11086      11196      11197      11208      11207  
     11076      11077      11088      11087      11197      11198      11209      11208  
     11078      11079      11090      11089      11199      11200      11211      11210  
     11079      11080      11091      11090      11200      11201      11212      11211  
     11080      11081      11092      11091      11201      11202      11213      11212  
     11081      11082      11093      11092      11202      11203      11214      11213  
     11082      11083      11094      11093      11203      11204      11215      11214  
     11083      11084      11095      11094      11204      11205      11216      11215  
     11084      11085      11096      11095      11205      11206      11217      11216  
     11085      11086      11097      11096      11206      11207      11218      11217  
     11086      11087      11098      11097      11207      11208      11219      11218  
     11087      11088      11099      11098      11208      11209      11220      11219  
     11089      11090      11101      11100      11210      11211      11222      11221  
     11090      11091      11102      11101      11211      11212      11223      11222  
     11091      11092      11103      11102      11212      11213      11224      11223  
     11092      11093      11104      11103      11213      11214      11225      11224  
     11093      11094      11105      11104      11214      11215      11226      11225  
     11094      11095      11106      11105      11215      11216      11227      11226  
     11095      11096      11107      11106      11216      11217      11228      11227  
     11096      11097      11108      11107      11217      11218      11229      11228  
     11097      11098      11109      11108      11218      11219      11230      11229  
     11098      11099      11110      11109      11219      11220      11231      11230  
     11100      11101      11112      11111      11221      11222      11233      11232  
     11101      11102      11113      11112      11222      11223      11234      11233  
     11102      11103      11114      11113      11223      11224      11235      11234  
     11103      11104      11115      11114      11224      11225      11236      11235  
     11104      11105      11116      11115      11225      11226      11237      11236  
     11105      11106      11117      11116      11226      11227      11238      11237  
     11106      11107      11118      11117      11227      11228      11239      11238  
     11107      11108      11119      11118      11228      11229      11240      11239  
     11108      11109      11120      11119      11229      11230      11241      11240  
     11109      11110      11121      11120      11230      11231      11242      11241  
     11111      11112      11123      11122      11232      11233      11244      11243  
     11112      11113      11124      11123      11233      11234      11245      11244  
     11113      11114      11125      11124      11234      11235      11246      11245  
     11114      11115      11126      11125      11235      11236      11247      11246  
     11115      11116      11127      11126      11236      11237      11248      11247  
     11116      11117      11128      11127      11237      11238      11249      11248  
     11117      11118      11129      11128      11238      11239      11250      11249  
     11118      11119      11130      11129      11239      11240      11251      11250  
     11119      11120      11131      11130      11240      11241      11252      11251  
     11120      11121      11132      11131      11241      11242      11253      11252  
     11133      11134      11145      11144      11254      11255      11266      11265  
     11134      11135      11146      11145      11255      11256      11267      11266  
     11135      11136      11147      11146      11256      11257      11268      11267  
     11136      11137      11148      11147      11257      11258      11269      11268  
     11137      11138      11149      11148      11258      11259      11270      11269  
     11138      11139      11150      11149      11259      11260      11271      11270  
     11139      11140      11151      11150      11260      11261      11272      11271  
     11140      11141      11152      11151      11261      11262      11273      11272  
     11141      11142      11153      11152      11262      11263      11274      11273  
     11142      11143      11154      11153      11263      11264      11275      11274  
     11144      11145      11156      11155      11265      11266      11277      11276  
     11145      11146      11157      11156      11266      11267      11278      11277  
     11146      11147      11158      11157      11267      11268      11279      11278  
     11147      11148      11159      11158      11268      11269      11280      11279  
     11148      11149      11160      11159      11269      11270      11281      11280  
     11149      11150      11161      11160      11270      11271      11282      11281  
     11150      11151      11162      11161      11271      11272      11283      11282  
     11151      11152      11163      11162      11272      11273      11284      11283  
     11152      11153      11164      11163      11273      11274      11285      11284  
     11153      11154      11165      11164      11274      11275      11286      11285  
     11155      11156      11167      11166      11276      11277      11288      11287  
     11156      11157      11168      11167      11277      11278      11289      11288  
     11157      11158      11169      11168      11278      11279      11290      11289  
     11158      11159      11170      11169      11279      11280      11291      11290  
     11159      11160      11171      11170      11280      11281      11292      11291  
     11160      11161      11172      11171      11281      11282      11293      11292  
     11161      11162      11173      11172      11282      11283      11294      11293  
     11162      11163      11174      11173      11283      11284      11295      11294  
     11163      11164      11175      11174      11284      11285      11296      11295  
     11164      11165      11176      11175      11285      11286      11297      11296  
     11166      11167      11178      11177      11287      11288      11299      11298  
     11167      11168      11179      11178      11288      11289      11300      11299  
     11168      11169      11180      11179      11289      11290      11301      11300  
     11169      11170      11181      11180      11290      11291      11302      11301  
     11170      11171      11182      11181      11291      11292      11303      11302  
     11171      11172      11183      11182      11292      11293      11304      11303  
     11172      11173      11184      11183      11293      11294      11305      11304  
     11173      11174      11185      11184      11294      11295      11306      11305  
     11174      11175      11186      11185      11295      11296      11307      11306  
     11175      11176      11187      11186      11296      11297      11308      11307  
     11177      11178      11189      11188      11298      11299      11310      11309  
     11178      11179      11190      11189      11299      11300      11311      11310  
     11179      11180      11191      11190      11300      11301      11312      11311  
     11180      11181      11192      11191      11301      11302      11313      11312  
     11181      11182      11193      11192      11302      11303      11314      11313  
     11182      11183      11194      11193      11303      11304      11315      11314  
     11183      11184      11195      11194      11304      11305      11316      11315  
     11184      11185      11196      11195      11305      11306      11317      11316  
     11185      11186      11197      11196      11306      11307      11318      11317  
     11186      11187      11198      11197      11307      11308      11319      11318  
     11188      11189      11200      11199      11309      11310      11321      11320  
     11189      11190      11201      11200      11310      11311      11322      11321  
     11190      11191      11202      11201      11311      11312      11323      11322  
     11191      11192      11203      11202      11312      11313      11324      11323  
     11192      11193      11204      11203      11313      11314      11325      11324  
     11193      11194      11205      11204      11314      11315      11326      11325  
     11194      11195      11206      11205      11315      11316      11327      11326  
     11195      11196      11207      11206      11316      11317      11328      11327  
     11196      11197      11208      11207      11317      11318      11329      11328  
     11197      11198      11209      11208      11318      11319      11330      11329  
     11199      11200      11211      11210      11320      11321      11332      11331  
     11200      11201      11212      11211      11321      11322      11333      11332  
     11201      11202      11213      11212      11322      11323      11334      11333  
     11202      11203      11214      11213      11323      11324      11335      11334  
     11203      11204      11215      11214      11324      11325      11336      11335  
     11204      11205      11216      11215      11325      11326      11337      11336  
     11205      11206      11217      11216      11326      11327      11338      11337  
     11206      11207      11218      11217      11327      11328      11339      11338  
     11207      11208      11219      11218      11328      11329      11340      11339  
     11208      11209      11220      11219      11329      11330      11341      11340  
     11210      11211      11222      11221      11331      11332      11343      11342  
     11211      11212      11223      11222      11332      11333      11344      11343  
     11212      11213      11224      11223      11333      11334      11345      11344  
     11213      11214      11225      11224      11334      11335      11346      11345  
     11214      11215      11226      11225      11335      11336      11347      11346  
     11215      11216      11227      11226      11336      11337      11348      11347  
     11216      11217      11228      11227      11337      11338      11349      11348  
     11217      11218      11229      11228      11338      11339      11350      11349  
     11218      11219      11230      11229      11339      11340      11351      11350  
     11219      11220      11231      11230      11340      11341      11352      11351  
     11221      11222      11233      11232      11342      11343      11354      11353  
     11222      11223      11234      11233      11343      11344      11355      11354  
     11223      11224      11235      11234      11344      11345      11356      11355  
     11224      11225      11236      11235      11345      11346      11357      11356  
     11225      11226      11237      11236      11346      11347      11358      11357  
     11226      11227      11238      11237      11347      11348      11359      11358  
     11227      11228      11239      11238      11348      11349      11360      11359  
     11228      11229      11240      11239      11349      11350      11361      11360  
     11229      11230      11241      11240      11350      11351      11362      11361  
     11230      11231      11242      11241      11351      11352      11363      11362  
     11232      11233      11244      11243      11353      11354      11365      11364  
     11233      11234      11245      11244      11354      11355      11366      11365  
     11234      11235      11246      11245      11355      11356      11367      11366  
     11235      11236      11247      11246      11356      11357      11368      11367  
     11236      11237      11248      11247      11357      11358      11369      11368  
     11237      11238      11249      11248      11358      11359      11370      11369  
     11238      11239      11250      11249      11359      11360      11371      11370  
     11239      11240      11251      11250      11360      11361      11372      11371  
     11240      11241      11252      11251      11361      11362      11373      11372  
     11241      11242      11253      11252      11362      11363      11374      11373  
     11254      11255      11266      11265      11375      11376      11387      11386  
     11255      11256      11267      11266      11376      11377      11388      11387  
     11256      11257      11268      11267      11377      11378      11389      11388  
     11257      11258      11269      11268      11378      11379      11390      11389  
     11258      11259      11270      11269      11379      11380      11391      11390  
     11259      11260      11271      11270      11380      11381      11392      11391  
     11260      11261      11272      11271      11381      11382      11393      11392  
     11261      11262      11273      11272      11382      11383      11394      11393  
     11262      11263      11274      11273      11383      11384      11395      11394  
     11263      11264      11275      11274      11384      11385      11396      11395  
     11265      11266      11277      11276      11386      11387      11398      11397  
     11266      11267      11278      11277      11387      11388      11399      11398  
     11267      11268      11279      11278      11388      11389      11400      11399  
     11268      11269      11280      11279      11389      11390      11401      11400  
     11269      11270      11281      11280      11390      11391      11402      11401  
     11270      11271      11282      11281      11391      11392      11403      11402  
     11271      11272      11283      11282      11392      11393      11404      11403  
     11272      11273      11284      11283      11393      11394      11405      11404  
     11273      11274      11285      11284      11394      11395      11406      11405  
     11274      11275      11286      11285      11395      11396      11407      11406  
     11276      11277      11288      11287      11397      11398      11409      11408  
     11277      11278      11289      11288      11398      11399      11410      11409  
     11278      11279      11290      11289      11399      11400      11411      11410  
     11279      11280      11291      11290      11400      11401      11412      11411  
     11280      11281      11292      11291      11401      11402      11413      11412  
     11281      11282      11293      11292      11402      11403      11414      11413  
     11282      11283      11294      11293      11403      11404      11415      11414  
     11283      11284      11295      11294      11404      11405      11416      11415  
     11284      11285      11296      11295      11405      11406      11417      11416  
     11285      11286      11297      11296      11406      11407      11418      11417  
     11287      11288      11299      11298      11408      11409      11420      11419  
     11288      11289      11300      11299      11409      11410      11421      11420  
     11289      11290      11301      11300      11410      11411      11422      11421  
     11290      11291      11302      11301      11411      11412      11423      11422  
     11291      11292      11303      11302      11412      11413      11424      11423  
     11292      11293      11304      11303      11413      11414      11425      11424  
     11293      11294      11305      11304      11414      11415      11426      11425  
     11294      11295      11306      11305      11415      11416      11427      11426  
     11295      11296      11307      11306      11416      11417      11428      11427  
     11296      11297      11308      11307      11417      11418      11429      11428  
     11298      11299      11310      11309      11419      11420      11431      11430  
     11299      11300      11311      11310      11420      11421      11432      11431  
     11300      11301      11312      11311      11421      11422      11433      11432  
     11301      11302      11313      11312      11422      11423      11434      11433  
     11302      11303      11314      11313      11423      11424      11435      11434  
     11303      11304      11315      11314      11424      11425      11436      11435  
     11304      11305      11316      11315      11425      11426      11437      11436  
     11305      11306      11317      11316      11426      11427      11438      11437  
     11306      11307      11318      11317      11427      11428      11439      11438  
     11307      11308      11319      11318      11428      11429      11440      11439  
     11309      11310      11321      11320      11430      11431      11442      11441  
     11310      11311      11322      11321      11431      11432      11443      11442  
     11311      11312      11323      11322      11432      11433      11444      11443  
     11312      11313      11324      11323      11433      11434      11445      11444  
     11313      11314      11325      11324      11434      11435      11446      11445  
     11314      11315      11326      11325      11435      11436      11447      11446  
     11315      11316      11327      11326      11436      11437      11448      11447  
     11316      11317      11328      11327      11437      11438      11449      11448  
     11317      11318      11329      11328      11438      11439      11450      11449  
     11318      11319      11330      11329      11439      11440      11451      11450  
     11320      11321      11332      11331      11441      11442      11453      11452  
     11321      11322      11333      11332      11442      11443      11454      11453  
     11322      11323      11334      11333      11443      11444      11455      11454  
     11323      11324      11335      11334      11444      11445      11456      11455  
     11324      11325      11336      11335      11445      11446      11457      11456  
     11325      11326      11337      11336      11446      11447      11458      11457  
     11326      11327      11338      11337      11447      11448      11459      11458  
     11327      11328      11339      11338      11448      11449      11460      11459  
     11328      11329      11340      11339      11449      11450      11461      11460  
     11329      11330      11341      11340      11450      11451      11462      11461  
     11331      11332      11343      11342      11452      11453      11464      11463  
     11332      11333      11344      11343      11453      11454      11465      11464  
     11333      11334      11345      11344      11454      11455      11466      11465  
     11334      11335      11346      11345      11455      11456      11467      11466  
     11335      11336      11347      11346      11456      11457      11468      11467  
     11336      11337      11348      11347      11457      11458      11469      11468  
     11337      11338      11349      11348      11458      11459      11470      11469  
     11338      11339      11350      11349      11459      11460      11471      11470  
     11339      11340      11351      11350      11460      11461      11472      11471  
     11340      11341      11352      11351      11461      11462      11473      11472  
     11342      11343      11354      11353      11463      11464      11475      11474  
     11343      11344      11355      11354      11464      11465      11476      11475  
     11344      11345      11356      11355      11465      11466      11477      11476  
     11345      11346      11357      11356      11466      11467      11478      11477  
     11346      11347      11358      11357      11467      11468      11479      11478  
     11347      11348      11359      11358      11468      11469      11480      11479  
     11348      11349      11360      11359      11469      11470      11481      11480  
     11349      11350      11361      11360      11470      11471      11482      11481  
     11350      11351      11362      11361      11471      11472      11483      11482  
     11351      11352      11363      11362      11472      11473      11484      11483  
     11353      11354      11365      11364      11474      11475      11486      11485  
     11354      11355      11366      11365      11475      11476      11487      11486  
     11355      11356      11367      11366      11476      11477      11488      11487  
     11356      11357      11368      11367      11477      11478      11489      11488  
     11357      11358      11369      11368      11478      11479      11490      11489  
     11358      11359      11370      11369      11479      11480      11491      11490  
     11359      11360      11371      11370      11480      11481      11492      11491  
     11360      11361      11372      11371      11481      11482      11493      11492  
     11361      11362      11373      11372      11482      11483      11494      11493  
     11362      11363      11374      11373      11483      11484      11495      11494  
     11375      11376      11387      11386      11496      11497      11508      11507  
     11376      11377      11388      11387      11497      11498      11509      11508  
     11377      11378      11389      11388      11498      11499      11510      11509  
     11378      11379      11390      11389      11499      11500      11511      11510  
     11379      11380      11391      11390      11500      11501      11512      11511  
     11380      11381      11392      11391      11501      11502      11513      11512  
     11381      11382      11393      11392      11502      11503      11514      11513  
     11382      11383      11394      11393      11503      11504      11515      11514  
     11383      11384      11395      11394      11504      11505      11516      11515  
     11384      11385      11396      11395      11505      11506      11517      11516  
     11386      11387      11398      11397      11507      11508      11519      11518  
     11387      11388      11399      11398      11508      11509      11520      11519  
     11388      11389      11400      11399      11509      11510      11521      11520  
     11389      11390      11401      11400      11510      11511      11522      11521  
     11390      11391      11402      11401      11511      11512      11523      11522  
     11391      11392      11403      11402      11512      11513      11524      11523  
     11392      11393      11404      11403      11513      11514      11525      11524  
     11393      11394      11405      11404      11514      11515      11526      11525  
     11394      11395      11406      11405      11515      11516      11527      11526  
     11395      11396      11407      11406      11516      11517      11528      11527  
     11397      11398      11409      11408      11518      11519      11530      11529  
     11398      11399      11410      11409      11519      11520      11531      11530  
     11399      11400      11411      11410      11520      11521      11532      11531  
     11400      11401      11412      11411      11521      11522      11533      11532  
     11401      11402      11413      11412      11522      11523      11534      11533  
     11402      11403      11414      11413      11523      11524      11535      11534  
     11403      11404      11415      11414      11524      11525      11536      11535  
     11404      11405      11416      11415      11525      11526      11537      11536  
     11405      11406      11417      11416      11526      11527      11538      11537  
     11406      11407      11418      11417      11527      11528      11539      11538  
     11408      11409      11420      11419      11529      11530      11541      11540  
     11409      11410      11421      11420      11530      11531      11542      11541  
     11410      11411      11422      11421      11531      11532      11543      11542  
     11411      11412      11423      11422      11532      11533      11544      11543  
     11412      11413      11424      11423      11533      11534      11545      11544  
     11413      11414      11425      11424      11534      11535      11546      11545  
     11414      11415      11426      11425      11535      11536      11547      11546  
     11415      11416      11427      11426      11536      11537      11548      11547  
     11416      11417      11428      11427      11537      11538      11549      11548  
     11417      11418      11429      11428      11538      11539      11550      11549  
     11419      11420      11431      11430      11540      11541      11552      11551  
     11420      11421      11432      11431      11541      11542      11553      11552  
     11421      11422      11433      11432      11542      11543      11554      11553  
     11422      11423      11434      11433      11543      11544      11555      11554  
     11423      11424      11435      11434      11544      11545      11556      11555  
     11424      11425      11436      11435      11545      11546      11557      11556  
     11425      11426      11437      11436      11546      11547      11558      11557  
     11426      11427      11438      11437      11547      11548      11559      11558  
     11427      11428      11439      11438      11548      11549      11560      11559  
     11428      11429      11440      11439      11549      11550      11561      11560  
     11430      11431      11442      11441      11551      11552      11563      11562  
     11431      11432      11443      11442      11552      11553      11564      11563  
     11432      11433      11444      11443      11553      11554      11565      11564  
     11433      11434      11445      11444      11554      11555      11566      11565  
     11434      11435      11446      11445      11555      11556      11567      11566  
     11435      11436      11447      11446      11556      11557      11568      11567  
     11436      11437      11448      11447      11557      11558      11569      11568  
     11437      11438      11449      11448      11558      11559      11570      11569  
     11438      11439      11450      11449      11559      11560      11571      11570  
     11439      11440      11451      11450      11560      11561      11572      11571  
     11441      11442      11453      11452      11562      11563      11574      11573  
     11442      11443      11454      11453      11563      11564      11575      11574  
     11443      11444      11455      11454      11564      11565      11576      11575  
     11444      11445      11456      11455      11565      11566      11577      11576  
     11445      11446      11457      11456      11566      11567      11578      11577  
     11446      11447      11458      11457      11567      11568      11579      11578  
     11447      11448      11459      11458      11568      11569      11580      11579  
     11448      11449      11460      11459      11569      11570      11581      11580  
     11449      11450      11461      11460      11570      11571      11582      11581  
     11450      11451      11462      11461      11571      11572      11583      11582  
     11452      11453      11464      11463      11573      11574      11585      11584  
     11453      11454      11465      11464      11574      11575      11586      11585  
     11454      11455      11466      11465      11575      11576      11587      11586  
     11455      11456      11467      11466      11576      11577      11588      11587  
     11456      11457      11468      11467      11577      11578      11589      11588  
     11457      11458      11469      11468      11578      11579      11590      11589  
     11458      11459      11470      11469      11579      11580      11591      11590  
     11459      11460      11471      11470      11580      11581      11592      11591  
     11460      11461      11472      11471      11581      11582      11593      11592  
     11461      11462      11473      11472      11582      11583      11594      11593  
     11463      11464      11475      11474      11584      11585      11596      11595  
     11464      11465      11476      11475      11585      11586      11597      11596  
     11465      11466      11477      11476      11586      11587      11598      11597  
     11466      11467      11478      11477      11587      11588      11599      11598  
     11467      11468      11479      11478      11588      11589      11600      11599  
     11468      11469      11480      11479      11589      11590      11601      11600  
     11469      11470      11481      11480      11590      11591      11602      11601  
     11470      11471      11482      11481      11591      11592      11603      11602  
     11471      11472      11483      11482      11592      11593      11604      11603  
     11472      11473      11484      11483      11593      11594      11605      11604  
     11474      11475      11486      11485      11595      11596      11607      11606  
     11475      11476      11487      11486      11596      11597      11608      11607  
     11476      11477      11488      11487      11597      11598      11609      11608  
     11477      11478      11489      11488      11598      11599      11610      11609  
     11478      11479      11490      11489      11599      11600      11611      11610  
     11479      11480      11491      11490      11600      11601      11612      11611  
     11480      11481      11492      11491      11601      11602      11613      11612  
     11481      11482      11493      11492      11602      11603      11614      11613  
     11482      11483      11494      11493      11603      11604      11615      11614  
     11483      11484      11495      11494      11604      11605      11616      11615  
     11496      11497      11508      11507      11617      11618      11629      11628  
     11497      11498      11509      11508      11618      11619      11630      11629  
     11498      11499      11510      11509      11619      11620      11631      11630  
     11499      11500      11511      11510      11620      11621      11632      11631  
     11500      11501      11512      11511      11621      11622      11633      11632  
     11501      11502      11513      11512      11622      11623      11634      11633  
     11502      11503      11514      11513      11623      11624      11635      11634  
     11503      11504      11515      11514      11624      11625      11636      11635  
     11504      11505      11516      11515      11625      11626      11637      11636  
     11505      11506      11517      11516      11626      11627      11638      11637  
     11507      11508      11519      11518      11628      11629      11640      11639  
     11508      11509      11520      11519      11629      11630      11641      11640  
     11509      11510      11521      11520      11630      11631      11642      11641  
     11510      11511      11522      11521      11631      11632      11643      11642  
     11511      11512      11523      11522      11632      11633      11644      11643  
     11512      11513      11524      11523      11633      11634      11645      11644  
     11513      11514      11525      11524      11634      11635      11646      11645  
     11514      11515      11526      11525      11635      11636      11647      11646  
     11515      11516      11527      11526      11636      11637      11648      11647  
     11516      11517      11528      11527      11637      11638      11649      11648  
     11518      11519      11530      11529      11639      11640      11651      11650  
     11519      11520      11531      11530      11640      11641      11652      11651  
     11520      11521      11532      11531      11641      11642      11653      11652  
     11521      11522      11533      11532      11642      11643      11654      11653  
     11522      11523      11534      11533      11643      11644      11655      11654  
     11523      11524      11535      11534      11644      11645      11656      11655  
     11524      11525      11536      11535      11645      11646      11657      11656  
     11525      11526      11537      11536      11646      11647      11658      11657  
     11526      11527      11538      11537      11647      11648      11659      11658  
     11527      11528      11539      11538      11648      11649      11660      11659  
     11529      11530      11541      11540      11650      11651      11662      11661  
     11530      11531      11542      11541      11651      11652      11663      11662  
     11531      11532      11543      11542      11652      11653      11664      11663  
     11532      11533      11544      11543      11653      11654      11665      11664  
     11533      11534      11545      11544      11654      11655      11666      11665  
     11534      11535      11546      11545      11655      11656      11667      11666  
     11535      11536      11547      11546      11656      11657      11668      11667  
     11536      11537      11548      11547      11657      11658      11669      11668  
     11537      11538      11549      11548      11658      11659      11670      11669  
     11538      11539      11550      11549      11659      11660      11671      11670  
     11540      11541      11552      11551      11661      11662      11673      11672  
     11541      11542      11553      11552      11662      11663      11674      11673  
     11542      11543      11554      11553      11663      11664      11675      11674  
     11543      11544      11555      11554      11664      11665      11676      11675  
     11544      11545      11556      11555      11665      11666      11677      11676  
     11545      11546      11557      11556      11666      11667      11678      11677  
     11546      11547      11558      11557      11667      11668      11679      11678  
     11547      11548      11559      11558      11668      11669      11680      11679  
     11548      11549      11560      11559      11669      11670      11681      11680  
     11549      11550      11561      11560      11670      11671      11682      11681  
     11551      11552      11563      11562      11672      11673      11684      11683  
     11552      11553      11564      11563      11673      11674      11685      11684  
     11553      11554      11565      11564      11674      11675      11686      11685  
     11554      11555      11566      11565      11675      11676      11687      11686  
     11555      11556      11567      11566      11676      11677      11688      11687  
     11556      11557      11568      11567      11677      11678      11689      11688  
     11557      11558      11569      11568      11678      11679      11690      11689  
     11558      11559      11570      11569      11679      11680      11691      11690  
     11559      11560      11571      11570      11680      11681      11692      11691  
     11560      11561      11572      11571      11681      11682      11693      11692  
     11562      11563      11574      11573      11683      11684      11695      11694  
     11563      11564      11575      11574      11684      11685      11696      11695  
     11564      11565      11576      11575      11685      11686      11697      11696  
     11565      11566      11577      11576      11686      11687      11698      11697  
     11566      11567      11578      11577      11687      11688      11699      11698  
     11567      11568      11579      11578      11688      11689      11700      11699  
     11568      11569      11580      11579      11689      11690      11701      11700  
     11569      11570      11581      11580      11690      11691      11702      11701  
     11570      11571      11582      11581      11691      11692      11703      11702  
     11571      11572      11583      11582      11692      11693      11704      11703  
     11573      11574      11585      11584      11694      11695      11706      11705  
     11574      11575      11586      11585      11695      11696      11707      11706  
     11575      11576      11587      11586      11696      11697      11708      11707  
     11576      11577      11588      11587      11697      11698      11709      11708  
     11577      11578      11589      11588      11698      11699      11710      11709  
     11578      11579      11590      11589      11699      11700      11711      11710  
     11579      11580      11591      11590      11700      11701      11712      11711  
     11580      11581      11592      11591      11701      11702      11713      11712  
     11581      11582      11593      11592      11702      11703      11714      11713  
     11582      11583      11594      11593      11703      11704      11715      11714  
     11584      11585      11596      11595      11705      11706      11717      11716  
     11585      11586      11597      11596      11706      11707      11718      11717  
     11586      11587      11598      11597      11707      11708      11719      11718  
     11587      11588      11599      11598      11708      11709      11720      11719  
     11588      11589      11600      11599      11709      11710      11721      11720  
     11589      11590      11601      11600      11710      11711      11722      11721  
     11590      11591      11602      11601      11711      11712      11723      11722  
     11591      11592      11603      11602      11712      11713      11724      11723  
     11592      11593      11604      11603      11713      11714      11725      11724  
     11593      11594      11605      11604      11714      11715      11726      11725  
     11595      11596      11607      11606      11716      11717      11728      11727  
     11596      11597      11608      11607      11717      11718      11729      11728  
     11597      11598      11609      11608      11718      11719      11730      11729  
     11598      11599      11610      11609      11719      11720      11731      11730  
     11599      11600      11611      11610      11720      11721      11732      11731  
     11600      11601      11612      11611      11721      11722      11733      11732  
     11601      11602      11613      11612      11722      11723      11734      11733  
     11602      11603      11614      11613      11723      11724      11735      11734  
     11603      11604      11615      11614      11724      11725      11736      11735  
     11604      11605      11616      11615      11725      11726      11737      11736  
     11617      11618      11629      11628      11738      11739      11750      11749  
     11618      11619      11630      11629      11739      11740      11751      11750  
     11619      11620      11631      11630      11740      11741      11752      11751  
     11620      11621      11632      11631      11741      11742      11753      11752  
     11621      11622      11633      11632      11742      11743      11754      11753  
     11622      11623      11634      11633      11743      11744      11755      11754  
     11623      11624      11635      11634      11744      11745      11756      11755  
     11624      11625      11636      11635      11745      11746      11757      11756  
     11625      11626      11637      11636      11746      11747      11758      11757  
     11626      11627      11638      11637      11747      11748      11759      11758  
     11628      11629      11640      11639      11749      11750      11761      11760  
     11629      11630      11641      11640      11750      11751      11762      11761  
     11630      11631      11642      11641      11751      11752      11763      11762  
     11631      11632      11643      11642      11752      11753      11764      11763  
     11632      11633      11644      11643      11753      11754      11765      11764  
     11633      11634      11645      11644      11754      11755      11766      11765  
     11634      11635      11646      11645      11755      11756      11767      11766  
     11635      11636      11647      11646      11756      11757      11768      11767  
     11636      11637      11648      11647      11757      11758      11769      11768  
     11637      11638      11649      11648      11758      11759      11770      11769  
     11639      11640      11651      11650      11760      11761      11772      11771  
     11640      11641      11652      11651      11761      11762      11773      11772  
     11641      11642      11653      11652      11762      11763      11774      11773  
     11642      11643      11654      11653      11763      11764      11775      11774  
     11643      11644      11655      11654      11764      11765      11776      11775  
     11644      11645      11656      11655      11765      11766      11777      11776  
     11645      11646      11657      11656      11766      11767      11778      11777  
     11646      11647      11658      11657      11767      11768      11779      11778  
     11647      11648      11659      11658      11768      11769      11780      11779  
     11648      11649      11660      11659      11769      11770      11781      11780  
     11650      11651      11662      11661      11771      11772      11783      11782  
     11651      11652      11663      11662      11772      11773      11784      11783  
     11652      11653      11664      11663      11773      11774      11785      11784  
     11653      11654      11665      11664      11774      11775      11786      11785  
     11654      11655      11666      11665      11775      11776      11787      11786  
     11655      11656      11667      11666      11776      11777      11788      11787  
     11656      11657      11668      11667      11777      11778      11789      11788  
     11657      11658      11669      11668      11778      11779      11790      11789  
     11658      11659      11670      11669      11779      11780      11791      11790  
     11659      11660      11671      11670      11780      11781      11792      11791  
     11661      11662      11673      11672      11782      11783      11794      11793  
     11662      11663      11674      11673      11783      11784      11795      11794  
     11663      11664      11675      11674      11784      11785      11796      11795  
     11664      11665      11676      11675      11785      11786      11797      11796  
     11665      11666      11677      11676      11786      11787      11798      11797  
     11666      11667      11678      11677      11787      11788      11799      11798  
     11667      11668      11679      11678      11788      11789      11800      11799  
     11668      11669      11680      11679      11789      11790      11801      11800  
     11669      11670      11681      11680      11790      11791      11802      11801  
     11670      11671      11682      11681      11791      11792      11803      11802  
     11672      11673      11684      11683      11793      11794      11805      11804  
     11673      11674      11685      11684      11794      11795      11806      11805  
     11674      11675      11686      11685      11795      11796      11807      11806  
     11675      11676      11687      11686      11796      11797      11808      11807  
     11676      11677      11688      11687      11797      11798      11809      11808  
     11677      11678      11689      11688      11798      11799      11810      11809  
     11678      11679      11690      11689      11799      11800      11811      11810  
     11679      11680      11691      11690      11800      11801      11812      11811  
     11680      11681      11692      11691      11801      11802      11813      11812  
     11681      11682      11693      11692      11802      11803      11814      11813  
     11683      11684      11695      11694      11804      11805      11816      11815  
     11684      11685      11696      11695      11805      11806      11817      11816  
     11685      11686      11697      11696      11806      11807      11818      11817  
     11686      11687      11698      11697      11807      11808      11819      11818  
     11687      11688      11699      11698      11808      11809      11820      11819  
     11688      11689      11700      11699      11809      11810      11821      11820  
     11689      11690      11701      11700      11810      11811      11822      11821  
     11690      11691      11702      11701      11811      11812      11823      11822  
     11691      11692      11703      11702      11812      11813      11824      11823  
     11692      11693      11704      11703      11813      11814      11825      11824  
     11694      11695      11706      11705      11815      11816      11827      11826  
     11695      11696      11707      11706      11816      11817      11828      11827  
     11696      11697      11708      11707      11817      11818      11829      11828  
     11697      11698      11709      11708      11818      11819      11830      11829  
     11698      11699      11710      11709      11819      11820      11831      11830  
     11699      11700      11711      11710      11820      11821      11832      11831  
     11700      11701      11712      11711      11821      11822      11833      11832  
     11701      11702      11713      11712      11822      11823      11834      11833  
     11702      11703      11714      11713      11823      11824      11835      11834  
     11703      11704      11715      11714      11824      11825      11836      11835  
     11705      11706      11717      11716      11826      11827      11838      11837  
     11706      11707      11718      11717      11827      11828      11839      11838  
     11707      11708      11719      11718      11828      11829      11840      11839  
     11708      11709      11720      11719      11829      11830      11841      11840  
     11709      11710      11721      11720      11830      11831      11842      11841  
     11710      11711      11722      11721      11831      11832      11843      11842  
     11711      11712      11723      11722      11832      11833      11844      11843  
     11712      11713      11724      11723      11833      11834      11845      11844  
     11713      11714      11725      11724      11834      11835      11846      11845  
     11714      11715      11726      11725      11835      11836      11847      11846  
     11716      11717      11728      11727      11837      11838      11849      11848  
     11717      11718      11729      11728      11838      11839      11850      11849  
     11718      11719      11730      11729      11839      11840      11851      11850  
     11719      11720      11731      11730      11840      11841      11852      11851  
     11720      11721      11732      11731      11841      11842      11853      11852  
     11721      11722      11733      11732      11842      11843      11854      11853  
     11722      11723      11734      11733      11843      11844      11855      11854  
     11723      11724      11735      11734      11844      11845      11856      11855  
     11724      11725      11736      11735      11845      11846      11857      11856  
     11725      11726      11737      11736      11846      11847      11858      11857  
     11738      11739      11750      11749      11859      11860      11871      11870  
     11739      11740      11751      11750      11860      11861      11872      11871  
     11740      11741      11752      11751      11861      11862      11873      11872  
     11741      11742      11753      11752      11862      11863      11874      11873  
     11742      11743      11754      11753      11863      11864      11875      11874  
     11743      11744      11755      11754      11864      11865      11876      11875  
     11744      11745      11756      11755      11865      11866      11877      11876  
     11745      11746      11757      11756      11866      11867      11878      11877  
     11746      11747      11758      11757      11867      11868      11879      11878  
     11747      11748      11759      11758      11868      11869      11880      11879  
     11749      11750      11761      11760      11870      11871      11882      11881  
     11750      11751      11762      11761      11871      11872      11883      11882  
     11751      11752      11763      11762      11872      11873      11884      11883  
     11752      11753      11764      11763      11873      11874      11885      11884  
     11753      11754      11765      11764      11874      11875      11886      11885  
     11754      11755      11766      11765      11875      11876      11887      11886  
     11755      11756      11767      11766      11876      11877      11888      11887  
     11756      11757      11768      11767      11877      11878      11889      11888  
     11757      11758      11769      11768      11878      11879      11890      11889  
     11758      11759      11770      11769      11879      11880      11891      11890  
     11760      11761      11772      11771      11881      11882      11893      11892  
     11761      11762      11773      11772      11882      11883      11894      11893  
     11762      11763      11774      11773      11883      11884      11895      11894  
     11763      11764      11775      11774      11884      11885      11896      11895  
     11764      11765      11776      11775      11885      11886      11897      11896  
     11765      11766      11777      11776      11886      11887      11898      11897  
     11766      11767      11778      11777      11887      11888      11899      11898  
     11767      11768      11779      11778      11888      11889      11900      11899  
     11768      11769      11780      11779      11889      11890      11901      11900  
     11769      11770      11781      11780      11890      11891      11902      11901  
     11771      11772      11783      11782      11892      11893      11904      11903  
     11772      11773      11784      11783      11893      11894      11905      11904  
     11773      11774      11785      11784      11894      11895      11906      11905  
     11774      11775      11786      11785      11895      11896      11907      11906  
     11775      11776      11787      11786      11896      11897      11908      11907  
     11776      11777      11788      11787      11897      11898      11909      11908  
     11777      11778      11789      11788      11898      11899      11910      11909  
     11778      11779      11790      11789      11899      11900      11911      11910  
     11779      11780      11791      11790      11900      11901      11912      11911  
     11780      11781      11792      11791      11901      11902      11913      11912  
     11782      11783      11794      11793      11903      11904      11915      11914  
     11783      11784      11795      11794      11904      11905      11916      11915  
     11784      11785      11796      11795      11905      11906      11917      11916  
     11785      11786      11797      11796      11906      11907      11918      11917  
     11786      11787      11798      11797      11907      11908      11919      11918  
     11787      11788      11799      11798      11908      11909      11920      11919  
     11788      11789      11800      11799      11909      11910      11921      11920  
     11789      11790      11801      11800      11910      11911      11922      11921  
     11790      11791      11802      11801      11911      11912      11923      11922  
     11791      11792      11803      11802      11912      11913      11924      11923  
     11793      11794      11805      11804      11914      11915      11926      11925  
     11794      11795      11806      11805      11915      11916      11927      11926  
     11795      11796      11807      11806      11916      11917      11928      11927  
     11796      11797      11808      11807      11917      11918      11929      11928  
     11797      11798      11809      11808      11918      11919      11930      11929  
     11798      11799      11810      11809      11919      11920      11931      11930  
     11799      11800      11811      11810      11920      11921      11932      11931  
     11800      11801      11812      11811      11921      11922      11933      11932  
     11801      11802      11813      11812      11922      11923      11934      11933  
     11802      11803      11814      11813      11923      11924      11935      11934  
     11804      11805      11816      11815      11925      11926      11937      11936  
     11805      11806      11817      11816      11926      11927      11938      11937  
     11806      11807      11818      11817      11927      11928      11939      11938  
     11807      11808      11819      11818      11928      11929      11940      11939  
     11808      11809      11820      11819      11929      11930      11941      11940  
     11809      11810      11821      11820      11930      11931      11942      11941  
     11810      11811      11822      11821      11931      11932      11943      11942  
     11811      11812      11823      11822      11932      11933      11944      11943  
     11812      11813      11824      11823      11933      11934      11945      11944  
     11813      11814      11825      11824      11934      11935      11946      11945  
     11815      11816      11827      11826      11936      11937      11948      11947  
     11816      11817      11828      11827      11937      11938      11949      11948  
     11817      11818      11829      11828      11938      11939      11950      11949  
     11818      11819      11830      11829      11939      11940      11951      11950  
     11819      11820      11831      11830      11940      11941      11952      11951  
     11820      11821      11832      11831      11941      11942      11953      11952  
     11821      11822      11833      11832      11942      11943      11954      11953  
     11822      11823      11834      11833      11943      11944      11955      11954  
     11823      11824      11835      11834      11944      11945      11956      11955  
     11824      11825      11836      11835      11945      11946      11957      11956  
     11826      11827      11838      11837      11947      11948      11959      11958  
     11827      11828      11839      11838      11948      11949      11960      11959  
     11828      11829      11840      11839      11949      11950      11961      11960  
     11829      11830      11841      11840      11950      11951      11962      11961  
     11830      11831      11842      11841      11951      11952      11963      11962  
     11831      11832      11843      11842      11952      11953      11964      11963  
     11832      11833      11844      11843      11953      11954      11965      11964  
     11833      11834      11845      11844      11954      11955      11966      11965  
     11834      11835      11846      11845      11955      11956      11967      11966  
     11835      11836      11847      11846      11956      11957      11968      11967  
     11837      11838      11849      11848      11958      11959      11970      11969  
     11838      11839      11850      11849      11959      11960      11971      11970  
     11839      11840      11851      11850      11960      11961      11972      11971  
     11840      11841      11852      11851      11961      11962      11973      11972  
     11841      11842      11853      11852      11962      11963      11974      11973  
     11842      11843      11854      11853      11963      11964      11975      11974  
     11843      11844      11855      11854      11964      11965      11976      11975  
     11844      11845      11856      11855      11965      11966      11977      11976  
     11845      11846      11857      11856      11966      11967      11978      11977  
     11846      11847      11858      11857      11967      11968      11979      11978  
     11859      11860      11871      11870      11980      11981      11992      11991  
     11860      11861      11872      11871      11981      11982      11993      11992  
     11861      11862      11873      11872      11982      11983      11994      11993  
     11862      11863      11874      11873      11983      11984      11995      11994  
     11863      11864      11875      11874      11984      11985      11996      11995  
     11864      11865      11876      11875      11985      11986      11997      11996  
     11865      11866      11877      11876      11986      11987      11998      11997  
     11866      11867      11878      11877      11987      11988      11999      11998  
     11867      11868      11879      11878      11988      11989      12000      11999  
     11868      11869      11880      11879      11989      11990      12001      12000  
     11870      11871      11882      11881      11991      11992      12003      12002  
     11871      11872      11883      11882      11992      11993      12004      12003  
     11872      11873      11884      11883      11993      11994      12005      12004  
     11873      11874      11885      11884      11994      11995      12006      12005  
     11874      11875      11886      11885      11995      11996      12007      12006  
     11875      11876      11887      11886      11996      11997      12008      12007  
     11876      11877      11888      11887      11997      11998      12009      12008  
     11877      11878      11889      11888      11998      11999      12010      12009  
     11878      11879      11890      11889      11999      12000      12011      12010  
     11879      11880      11891      11890      12000      12001      12012      12011  
     11881      11882      11893      11892      12002      12003      12014      12013  
     11882      11883      11894      11893      12003      12004      12015      12014  
     11883      11884      11895      11894      12004      12005      12016      12015  
     11884      11885      11896      11895      12005      12006      12017      12016  
     11885      11886      11897      11896      12006      12007      12018      12017  
     11886      11887      11898      11897      12007      12008      12019      12018  
     11887      11888      11899      11898      12008      12009      12020      12019  
     11888      11889      11900      11899      12009      12010      12021      12020  
     11889      11890      11901      11900      12010      12011      12022      12021  
     11890      11891      11902      11901      12011      12012      12023      12022  
     11892      11893      11904      11903      12013      12014      12025      12024  
     11893      11894      11905      11904      12014      12015      12026      12025  
     11894      11895      11906      11905      12015      12016      12027      12026  
     11895      11896      11907      11906      12016      12017      12028      12027  
     11896      11897      11908      11907      12017      12018      12029      12028  
     11897      11898      11909      11908      12018      12019      12030      12029  
     11898      11899      11910      11909      12019      12020      12031      12030  
     11899      11900      11911      11910      12020      12021      12032      12031  
     11900      11901      11912      11911      12021      12022      12033      12032  
     11901      11902      11913      11912      12022      12023      12034      12033  
     11903      11904      11915      11914      12024      12025      12036      12035  
     11904      11905      11916      11915      12025      12026      12037      12036  
     11905      11906      11917      11916      12026      12027      12038      12037  
     11906      11907      11918      11917      12027      12028      12039      12038  
     11907      11908      11919      11918      12028      12029      12040      12039  
     11908      11909      11920      11919      12029      12030      12041      12040  
     11909      11910      11921      11920      12030      12031      12042      12041  
     11910      11911      11922      11921      12031      12032      12043      12042  
     11911      11912      11923      11922      12032      12033      12044      12043  
     11912      11913      11924      11923      12033      12034      12045      12044  
     11914      11915      11926      11925      12035      12036      12047      12046  
     11915      11916      11927      11926      12036      12037      12048      12047  
     11916      11917      11928      11927      12037      12038      12049      12048  
     11917      11918      11929      11928      12038      12039      12050      12049  
     11918      11919      11930      11929      12039      12040      12051      12050  
     11919      11920      11931      11930      12040      12041      12052      12051  
     11920      11921      11932      11931      12041      12042      12053      12052  
     11921      11922      11933      11932      12042      12043      12054      12053  
     11922      11923      11934      11933      12043      12044      12055      12054  
     11923      11924      11935      11934      12044      12045      12056      12055  
     11925      11926      11937      11936      12046      12047      12058      12057  
     11926      11927      11938      11937      12047      12048      12059      12058  
     11927      11928      11939      11938      12048      12049      12060      12059  
     11928      11929      11940      11939      12049      12050      12061      12060  
     11929      11930      11941      11940      12050      12051      12062      12061  
     11930      11931      11942      11941      12051      12052      12063      12062  
     11931      11932      11943      11942      12052      12053      12064      12063  
     11932      11933      11944      11943      12053      12054      12065      12064  
     11933      11934      11945      11944      12054      12055      12066      12065  
     11934      11935      11946      11945      12055      12056      12067      12066  
     11936      11937      11948      11947      12057      12058      12069      12068  
     11937      11938      11949      11948      12058      12059      12070      12069  
     11938      11939      11950      11949      12059      12060      12071      12070  
     11939      11940      11951      11950      12060      12061      12072      12071  
     11940      11941      11952      11951      12061      12062      12073      12072  
     11941      11942      11953      11952      12062      12063      12074      12073  
     11942      11943      11954      11953      12063      12064      12075      12074  
     11943      11944      11955      11954      12064      12065      12076      12075  
     11944      11945      11956      11955      12065      12066      12077      12076  
     11945      11946      11957      11956      12066      12067      12078      12077  
     11947      11948      11959      11958      12068      12069      12080      12079  
     11948      11949      11960      11959      12069      12070      12081      12080  
     11949      11950      11961      11960      12070      12071      12082      12081  
     11950      11951      11962      11961      12071      12072      12083      12082  
     11951      11952      11963      11962      12072      12073      12084      12083  
     11952      11953      11964      11963      12073      12074      12085      12084  
     11953      11954      11965      11964      12074      12075      12086      12085  
     11954      11955      11966      11965      12075      12076      12087      12086  
     11955      11956      11967      11966      12076      12077      12088      12087  
     11956      11957      11968      11967      12077      12078      12089      12088  
     11958      11959      11970      11969      12079      12080      12091      12090  
     11959      11960      11971      11970      12080      12081      12092      12091  
     11960      11961      11972      11971      12081      12082      12093      12092  
     11961      11962      11973      11972      12082      12083      12094      12093  
     11962      11963      11974      11973      12083      12084      12095      12094  
     11963      11964      11975      11974      12084      12085      12096      12095  
     11964      11965      11976      11975      12085      12086      12097      12096  
     11965      11966      11977      11976      12086      12087      12098      12097  
     11966      11967      11978      11977      12087      12088      12099      12098  
     11967      11968      11979      11978      12088      12089      12100      12099  
     11980      11981      11992      11991      12101      12102      12113      12112  
     11981      11982      11993      11992      12102      12103      12114      12113  
     11982      11983      11994      11993      12103      12104      12115      12114  
     11983      11984      11995      11994      12104      12105      12116      12115  
     11984      11985      11996      11995      12105      12106      12117      12116  
     11985      11986      11997      11996      12106      12107      12118      12117  
     11986      11987      11998      11997      12107      12108      12119      12118  
     11987      11988      11999      11998      12108      12109      12120      12119  
     11988      11989      12000      11999      12109      12110      12121      12120  
     11989      11990      12001      12000      12110      12111      12122      12121  
     11991      11992      12003      12002      12112      12113      12124      12123  
     11992      11993      12004      12003      12113      12114      12125      12124  
     11993      11994      12005      12004      12114      12115      12126      12125  
     11994      11995      12006      12005      12115      12116      12127      12126  
     11995      11996      12007      12006      12116      12117      12128      12127  
     11996      11997      12008      12007      12117      12118      12129      12128  
     11997      11998      12009      12008      12118      12119      12130      12129  
     11998      11999      12010      12009      12119      12120      12131      12130  
     11999      12000      12011      12010      12120      12121      12132      12131  
     12000      12001      12012      12011      12121      12122      12133      12132  
     12002      12003      12014      12013      12123      12124      12135      12134  
     12003      12004      12015      12014      12124      12125      12136      12135  
     12004      12005      12016      12015      12125      12126      12137      12136  
     12005      12006      12017      12016      12126      12127      12138      12137  
     12006      12007      12018      12017      12127      12128      12139      12138  
     12007      12008      12019      12018      12128      12129      12140      12139  
     12008      12009      12020      12019      12129      12130      12141      12140  
     12009      12010      12021      12020      12130      12131      12142      12141  
     12010      12011      12022      12021      12131      12132      12143      12142  
     12011      12012      12023      12022      12132      12133      12144      12143  
     12013      12014      12025      12024      12134      12135      12146      12145  
     12014      12015      12026      12025      12135      12136      12147      12146  
     12015      12016      12027      12026      12136      12137      12148      12147  
     12016      12017      12028      12027      12137      12138      12149      12148  
     12017      12018      12029      12028      12138      12139      12150      12149  
     12018      12019      12030      12029      12139      12140      12151      12150  
     12019      12020      12031      12030      12140      12141      12152      12151  
     12020      12021      12032      12031      12141      12142      12153      12152  
     12021      12022      12033      12032      12142      12143      12154      12153  
     12022      12023      12034      12033      12143      12144      12155      12154  
     12024      12025      12036      12035      12145      12146      12157      12156  
     12025      12026      12037      12036      12146      12147      12158      12157  
     12026      12027      12038      12037      12147      12148      12159      12158  
     12027      12028      12039      12038      12148      12149      12160      12159  
     12028      12029      12040      12039      12149      12150      12161      12160  
     12029      12030      12041      12040      12150      12151      12162      12161  
     12030      12031      12042      12041      12151      12152      12163      12162  
     12031      12032      12043      12042      12152      12153      12164      12163  
     12032      12033      12044      12043      12153      12154      12165      12164  
     12033      12034      12045      12044      12154      12155      12166      12165  
     12035      12036      12047      12046      12156      12157      12168      12167  
     12036      12037      12048      12047      12157      12158      12169      12168  
     12037      12038      12049      12048      12158      12159      12170      12169  
     12038      12039      12050      12049      12159      12160      12171      12170  
     12039      12040      12051      12050      12160      12161      12172      12171  
     12040      12041      12052      12051      12161      12162      12173      12172  
     12041      12042      12053      12052      12162      12163      12174      12173  
     12042      12043      12054      12053      12163      12164      12175      12174  
     12043      12044      12055      12054      12164      12165      12176      12175  
     12044      12045      12056      12055      12165      12166      12177      12176  
     12046      12047      12058      12057      12167      12168      12179      12178  
     12047      12048      12059      12058      12168      12169      12180      12179  
     12048      12049      12060      12059      12169      12170      12181      12180  
     12049      12050      12061      12060      12170      12171      12182      12181  
     12050      12051      12062      12061      12171      12172      12183      12182  
     12051      12052      12063      12062      12172      12173      12184      12183  
     12052      12053      12064      12063      12173      12174      12185      12184  
     12053      12054      12065      12064      12174      12175      12186      12185  
     12054      12055      12066      12065      12175      12176      12187      12186  
     12055      12056      12067      12066      12176      12177      12188      12187  
     12057      12058      12069      12068      12178      12179      12190      12189  
     12058      12059      12070      12069      12179      12180      12191      12190  
     12059      12060      12071      12070      12180      12181      12192      12191  
     12060      12061      12072      12071      12181      12182      12193      12192  
     12061      12062      12073      12072      12182      12183      12194      12193  
     12062      12063      12074      12073      12183      12184      12195      12194  
     12063      12064      12075      12074      12184      12185      12196      12195  
     12064      12065      12076      12075      12185      12186      12197      12196  
     12065      12066      12077      12076      12186      12187      12198      12197  
     12066      12067      12078      12077      12187      12188      12199      12198  
     12068      12069      12080      12079      12189      12190      12201      12200  
     12069      12070      12081      12080      12190      12191      12202      12201  
     12070      12071      12082      12081      12191      12192      12203      12202  
     12071      12072      12083      12082      12192      12193      12204      12203  
     12072      12073      12084      12083      12193      12194      12205      12204  
     12073      12074      12085      12084      12194      12195      12206      12205  
     12074      12075      12086      12085      12195      12196      12207      12206  
     12075      12076      12087      12086      12196      12197      12208      12207  
     12076      12077      12088      12087      12197      12198      12209      12208  
     12077      12078      12089      12088      12198      12199      12210      12209  
     12079      12080      12091      12090      12200      12201      12212      12211  
     12080      12081      12092      12091      12201      12202      12213      12212  
     12081      12082      12093      12092      12202      12203      12214      12213  
     12082      12083      12094      12093      12203      12204      12215      12214  
     12083      12084      12095      12094      12204      12205      12216      12215  
     12084      12085      12096      12095      12205      12206      12217      12216  
     12085      12086      12097      12096      12206      12207      12218      12217  
     12086      12087      12098      12097      12207      12208      12219      12218  
     12087      12088      12099      12098      12208      12209      12220      12219  
     12088      12089      12100      12099      12209      12210      12221      12220  
