TITLE="results for TO code"
VARIABLES = "x", "y", "z", "density", "sigmaxx", "sigmayy", "sigmazz", "sigmaxy", "sigmaxz", "sigmayz"
ZONE T="load step 1", NODES= 12221, ELEMENTS= 10000, DATAPACKING=POINT, ZONETYPE=FEBRICK
               0.00000000                0.00000000                0.00000000                1.00000000                0.00000000               -0.00000000                1.83466287               -0.00000000                0.53498297                1.10012658
               1.00000000                0.00000000                0.00000000                1.00000000               -0.00000000                0.00000000                1.26007299                0.00000000                0.02993163                0.74792476
               2.00000000                0.00000000                0.00000000                1.00000000               -0.00000000               -0.00000000                0.66883091                0.00000000               -0.16152955                0.37975804
               3.00000000                0.00000000                0.00000000                1.00000000                0.00000000                0.00000000                0.14498106                0.00000000               -0.14557520                0.08645893
               4.00000000                0.00000000                0.00000000                1.00000000                0.00000000                0.00000000               -0.01396037               -0.00000000               -0.03214046               -0.00751039
               5.00000000                0.00000000                0.00000000                1.00000000                0.00000000                0.00000000               -0.00586425                0.00000000                0.00172450               -0.00513335
               6.00000000                0.00000000                0.00000000                1.00000000               -0.00000000                0.00000000               -0.01410383                0.00000000               -0.00439038               -0.00156524
               7.00000000                0.00000000                0.00000000                1.00000000                0.00000000                0.00000000               -0.08663845                0.00000000               -0.05324286               -0.09107163
               8.00000000                0.00000000                0.00000000                1.00000000                0.00000000               -0.00000000               -0.76294543                0.00000000               -0.05053907               -0.47063154
               9.00000000                0.00000000                0.00000000                1.00000000               -0.00000000                0.00000000               -1.56395366               -0.00000000                0.24233892               -0.86818222
              10.00000000                0.00000000                0.00000000                1.00000000                0.00000000               -0.00000000               -2.25076049                0.00000000                0.86672013               -1.20737659
               0.00000000                1.00000000                0.00000000                1.00000000               -0.00000000                0.00000000                1.48678209               -0.00000000                0.73923507                0.58801368
               1.00000000                1.00000000                0.00000000                1.00000000                0.00000000               -0.00000000                0.93256644               -0.00000000                0.26601820                0.36812284
               2.00000000                1.00000000                0.00000000                1.00000000                0.00000000                0.00000000                0.40493776               -0.00000000                0.05480183                0.12097099
               3.00000000                1.00000000                0.00000000                1.00000000                0.00000000               -0.00000000                0.04605876                0.00000000                0.00937338               -0.00665422
               4.00000000                1.00000000                0.00000000                1.00000000               -0.00000000               -0.00000000               -0.00113295                0.00000000                0.00452834               -0.01455008
               5.00000000                1.00000000                0.00000000                1.00000000                0.00000000                0.00000000               -0.00089874               -0.00000000                0.00709386               -0.00373384
               6.00000000                1.00000000                0.00000000                1.00000000               -0.00000000               -0.00000000               -0.00743468               -0.00000000                0.02324421                0.00378032
               7.00000000                1.00000000                0.00000000                1.00000000                0.00000000               -0.00000000               -0.00851064               -0.00000000                0.06667117               -0.01847856
               8.00000000                1.00000000                0.00000000                1.00000000               -0.00000000                0.00000000               -0.37698815               -0.00000000                0.15340639               -0.15721991
               9.00000000                1.00000000                0.00000000                1.00000000                0.00000000               -0.00000000               -1.08495083                0.00000000                0.45815729               -0.38963884
              10.00000000                1.00000000                0.00000000                1.00000000               -0.00000000               -0.00000000               -1.86327014                0.00000000                1.04573035               -0.56913518
               0.00000000                2.00000000                0.00000000                1.00000000                0.00000000               -0.00000000                1.44200052               -0.00000000                0.81513210                0.31044627
               1.00000000                2.00000000                0.00000000                1.00000000                0.00000000                0.00000000                0.78913142                0.00000000                0.32700294                0.17007061
               2.00000000                2.00000000                0.00000000                1.00000000               -0.00000000               -0.00000000                0.17997414               -0.00000000                0.11416616                0.01259254
               3.00000000                2.00000000                0.00000000                1.00000000               -0.00000000                0.00000000               -0.01656030               -0.00000000                0.04936155               -0.01081622
               4.00000000                2.00000000                0.00000000                1.00000000                0.00000000               -0.00000000                0.00355767               -0.00000000                0.01973697               -0.00890312
               5.00000000                2.00000000                0.00000000                1.00000000               -0.00000000                0.00000000               -0.00055118               -0.00000000                0.01272482               -0.00384443
               6.00000000                2.00000000                0.00000000                1.00000000                0.00000000                0.00000000               -0.00146326                0.00000000                0.02530333               -0.00302652
               7.00000000                2.00000000                0.00000000                1.00000000               -0.00000000                0.00000000               -0.00004357               -0.00000000                0.06407964               -0.01920000
               8.00000000                2.00000000                0.00000000                1.00000000                0.00000000               -0.00000000               -0.06685960                0.00000000                0.15574990               -0.02685784
               9.00000000                2.00000000                0.00000000                1.00000000               -0.00000000               -0.00000000               -0.69578446               -0.00000000                0.43283455               -0.13476649
              10.00000000                2.00000000                0.00000000                1.00000000                0.00000000                0.00000000               -1.76179909                0.00000000                1.03994301               -0.20789998
               0.00000000                3.00000000                0.00000000                1.00000000                0.00000000                0.00000000                1.38462140               -0.00000000                0.80996065                0.13493908
               1.00000000                3.00000000                0.00000000                1.00000000               -0.00000000               -0.00000000                0.65481571               -0.00000000                0.33483602                0.05488801
               2.00000000                3.00000000                0.00000000                1.00000000                0.00000000               -0.00000000                0.03973631                0.00000000                0.15726961               -0.03596653
               3.00000000                3.00000000                0.00000000                1.00000000                0.00000000               -0.00000000                0.00329237                0.00000000                0.06257560               -0.00957991
               4.00000000                3.00000000                0.00000000                1.00000000               -0.00000000                0.00000000                0.00118081                0.00000000                0.02538918               -0.00449390
               5.00000000                3.00000000                0.00000000                1.00000000               -0.00000000                0.00000000               -0.00000305               -0.00000000                0.01509858               -0.00309592
               6.00000000                3.00000000                0.00000000                1.00000000               -0.00000000                0.00000000               -0.00064324                0.00000000                0.02205582               -0.00531428
               7.00000000                3.00000000                0.00000000                1.00000000                0.00000000               -0.00000000               -0.00894658               -0.00000000                0.04908072               -0.01156217
               8.00000000                3.00000000                0.00000000                1.00000000               -0.00000000                0.00000000                0.03153387                0.00000000                0.11955003               -0.02288954
               9.00000000                3.00000000                0.00000000                1.00000000               -0.00000000                0.00000000               -0.41150629                0.00000000                0.32649818               -0.04302622
              10.00000000                3.00000000                0.00000000                1.00000000                0.00000000               -0.00000000               -1.57197510               -0.00000000                0.88581926               -0.00651250
               0.00000000                4.00000000                0.00000000                1.00000000               -0.00000000               -0.00000000                1.31884917               -0.00000000                0.77673874                0.01643181
               1.00000000                4.00000000                0.00000000                1.00000000                0.00000000                0.00000000                0.51072339                0.00000000                0.32568002               -0.02295107
               2.00000000                4.00000000                0.00000000                1.00000000               -0.00000000                0.00000000               -0.07260809                0.00000000                0.17836725               -0.05004259
               3.00000000                4.00000000                0.00000000                1.00000000                0.00000000               -0.00000000                0.01272472               -0.00000000                0.06981747               -0.00554955
               4.00000000                4.00000000                0.00000000                1.00000000                0.00000000                0.00000000                0.00091745               -0.00000000                0.02677332               -0.00206028
               5.00000000                4.00000000                0.00000000                1.00000000               -0.00000000               -0.00000000                0.00024104               -0.00000000                0.01478974               -0.00212527
               6.00000000                4.00000000                0.00000000                1.00000000                0.00000000                0.00000000               -0.00093417               -0.00000000                0.01815620               -0.00414589
               7.00000000                4.00000000                0.00000000                1.00000000                0.00000000                0.00000000               -0.00415458                0.00000000                0.04008921               -0.00914947
               8.00000000                4.00000000                0.00000000                1.00000000               -0.00000000               -0.00000000                0.01383883                0.00000000                0.09793773               -0.01626199
               9.00000000                4.00000000                0.00000000                1.00000000                0.00000000                0.00000000               -0.30547166               -0.00000000                0.27359737                0.01023504
              10.00000000                4.00000000                0.00000000                1.00000000               -0.00000000               -0.00000000               -1.38554960                0.00000000                0.75302673                0.08371380
               0.00000000                5.00000000                0.00000000                1.00000000               -0.00000000               -0.00000000                1.24028157               -0.00000000                0.72247675               -0.06900532
               1.00000000                5.00000000                0.00000000                1.00000000               -0.00000000                0.00000000                0.34270042                0.00000000                0.29380483               -0.06618385
               2.00000000                5.00000000                0.00000000                1.00000000               -0.00000000               -0.00000000               -0.11731423                0.00000000                0.16603752               -0.03869561
               3.00000000                5.00000000                0.00000000                1.00000000               -0.00000000                0.00000000                0.01587739               -0.00000000                0.06684471               -0.00195781
               4.00000000                5.00000000                0.00000000                1.00000000                0.00000000               -0.00000000                0.00063451                0.00000000                0.02589090               -0.00024992
               5.00000000                5.00000000                0.00000000                1.00000000                0.00000000                0.00000000                0.00035365                0.00000000                0.01354572               -0.00121745
               6.00000000                5.00000000                0.00000000                1.00000000               -0.00000000               -0.00000000               -0.00054887                0.00000000                0.01500036               -0.00325779
               7.00000000                5.00000000                0.00000000                1.00000000               -0.00000000               -0.00000000               -0.00352178               -0.00000000                0.03130500               -0.00777960
               8.00000000                5.00000000                0.00000000                1.00000000               -0.00000000                0.00000000                0.00943320                0.00000000                0.07751903               -0.01366766
               9.00000000                5.00000000                0.00000000                1.00000000               -0.00000000               -0.00000000               -0.20804174                0.00000000                0.22232311                0.04554567
              10.00000000                5.00000000                0.00000000                1.00000000                0.00000000                0.00000000               -1.19803305                0.00000000                0.64553696                0.15022972
               0.00000000                6.00000000                0.00000000                1.00000000                0.00000000               -0.00000000                1.13109267               -0.00000000                0.64596041               -0.12476508
               1.00000000                6.00000000                0.00000000                1.00000000               -0.00000000                0.00000000                0.20360406                0.00000000                0.25614116               -0.08360805
               2.00000000                6.00000000                0.00000000                1.00000000                0.00000000               -0.00000000               -0.11063837               -0.00000000                0.14488539               -0.02851279
               3.00000000                6.00000000                0.00000000                1.00000000               -0.00000000               -0.00000000                0.01375466                0.00000000                0.06092464               -0.00065059
               4.00000000                6.00000000                0.00000000                1.00000000               -0.00000000                0.00000000                0.00077263                0.00000000                0.02401287                0.00063877
               5.00000000                6.00000000                0.00000000                1.00000000               -0.00000000               -0.00000000                0.00039147               -0.00000000                0.01209636               -0.00056555
               6.00000000                6.00000000                0.00000000                1.00000000               -0.00000000               -0.00000000               -0.00041285                0.00000000                0.01209007               -0.00244437
               7.00000000                6.00000000                0.00000000                1.00000000                0.00000000                0.00000000               -0.00219759               -0.00000000                0.02319553               -0.00587713
               8.00000000                6.00000000                0.00000000                1.00000000               -0.00000000               -0.00000000                0.00400494                0.00000000                0.05251219               -0.00944103
               9.00000000                6.00000000                0.00000000                1.00000000               -0.00000000                0.00000000               -0.11546035               -0.00000000                0.14383741                0.05704085
              10.00000000                6.00000000                0.00000000                1.00000000                0.00000000                0.00000000               -0.88301930                0.00000000                0.51714623                0.20468758
               0.00000000                7.00000000                0.00000000                1.00000000               -0.00000000                0.00000000                0.99855513                0.00000000                0.56567172               -0.15692631
               1.00000000                7.00000000                0.00000000                1.00000000                0.00000000               -0.00000000                0.10477638               -0.00000000                0.23067939               -0.08853484
               2.00000000                7.00000000                0.00000000                1.00000000               -0.00000000                0.00000000               -0.11629629                0.00000000                0.13988381               -0.02145172
               3.00000000                7.00000000                0.00000000                1.00000000                0.00000000                0.00000000                0.01309225               -0.00000000                0.05865465                0.00079122
               4.00000000                7.00000000                0.00000000                1.00000000               -0.00000000                0.00000000                0.00068647                0.00000000                0.02231295                0.00163593
               5.00000000                7.00000000                0.00000000                1.00000000               -0.00000000                0.00000000                0.00040153                0.00000000                0.01048082               -0.00000511
               6.00000000                7.00000000                0.00000000                1.00000000                0.00000000                0.00000000               -0.00028690               -0.00000000                0.00963538               -0.00190596
               7.00000000                7.00000000                0.00000000                1.00000000                0.00000000                0.00000000               -0.00123704                0.00000000                0.01771362               -0.00351391
               8.00000000                7.00000000                0.00000000                1.00000000               -0.00000000                0.00000000               -0.00033585                0.00000000                0.03655060                0.00081320
               9.00000000                7.00000000                0.00000000                1.00000000                0.00000000               -0.00000000               -0.04413736               -0.00000000                0.08521057                0.06149768
              10.00000000                7.00000000                0.00000000                1.00000000               -0.00000000                0.00000000               -0.52658738               -0.00000000                0.35324961                0.17769680
               0.00000000                8.00000000                0.00000000                1.00000000                0.00000000               -0.00000000                0.85948118               -0.00000000                0.49486455               -0.18941193
               1.00000000                8.00000000                0.00000000                1.00000000               -0.00000000               -0.00000000                0.02653018                0.00000000                0.21539977               -0.07879752
               2.00000000                8.00000000                0.00000000                1.00000000               -0.00000000               -0.00000000               -0.15166810               -0.00000000                0.15043421               -0.00039627
               3.00000000                8.00000000                0.00000000                1.00000000                0.00000000                0.00000000                0.01100329               -0.00000000                0.06120017                0.01047809
               4.00000000                8.00000000                0.00000000                1.00000000                0.00000000                0.00000000                0.00006635                0.00000000                0.02026673                0.00473442
               5.00000000                8.00000000                0.00000000                1.00000000                0.00000000                0.00000000                0.00052688               -0.00000000                0.00870972                0.00025823
               6.00000000                8.00000000                0.00000000                1.00000000                0.00000000                0.00000000               -0.00015663                0.00000000                0.00769385               -0.00195733
               7.00000000                8.00000000                0.00000000                1.00000000                0.00000000               -0.00000000               -0.00091603               -0.00000000                0.01449751               -0.00345973
               8.00000000                8.00000000                0.00000000                1.00000000                0.00000000               -0.00000000               -0.00146160                0.00000000                0.03747474                0.00702088
               9.00000000                8.00000000                0.00000000                1.00000000                0.00000000                0.00000000               -0.00721088               -0.00000000                0.08109268                0.08177605
              10.00000000                8.00000000                0.00000000                1.00000000               -0.00000000               -0.00000000               -0.40126037                0.00000000                0.27040451                0.14588834
               0.00000000                9.00000000                0.00000000                1.00000000               -0.00000000               -0.00000000                0.69300897                0.00000000                0.39215215               -0.26705635
               1.00000000                9.00000000                0.00000000                1.00000000                0.00000000                0.00000000               -0.03637041               -0.00000000                0.19211251               -0.04279143
               2.00000000                9.00000000                0.00000000                1.00000000               -0.00000000                0.00000000               -0.28470255                0.00000000                0.17087767                0.08440369
               3.00000000                9.00000000                0.00000000                1.00000000                0.00000000               -0.00000000               -0.02462163                0.00000000                0.06934239                0.05040888
               4.00000000                9.00000000                0.00000000                1.00000000               -0.00000000               -0.00000000                0.00351970               -0.00000000                0.01894927                0.00971283
               5.00000000                9.00000000                0.00000000                1.00000000               -0.00000000                0.00000000                0.00029274               -0.00000000                0.00961876               -0.00083891
               6.00000000                9.00000000                0.00000000                1.00000000               -0.00000000                0.00000000               -0.00005331               -0.00000000                0.00684646               -0.00183870
               7.00000000                9.00000000                0.00000000                1.00000000                0.00000000                0.00000000               -0.00037762                0.00000000                0.01003561               -0.00560903
               8.00000000                9.00000000                0.00000000                1.00000000                0.00000000               -0.00000000               -0.00407612                0.00000000                0.03553047               -0.00771119
               9.00000000                9.00000000                0.00000000                1.00000000               -0.00000000                0.00000000                0.08073041                0.00000000                0.11880631                0.08910951
              10.00000000                9.00000000                0.00000000                1.00000000               -0.00000000               -0.00000000               -0.45568253               -0.00000000                0.26536500                0.20308485
               0.00000000               10.00000000                0.00000000                1.00000000                0.00000000                0.00000000                0.65210117               -0.00000000                0.10536694               -0.44844809
               1.00000000               10.00000000                0.00000000                1.00000000               -0.00000000               -0.00000000               -0.07736952                0.00000000               -0.01478325                0.01386469
               2.00000000               10.00000000                0.00000000                1.00000000                0.00000000               -0.00000000               -0.50667440                0.00000000                0.10125418                0.33725581
               3.00000000               10.00000000                0.00000000                1.00000000               -0.00000000                0.00000000               -0.13840703               -0.00000000                0.12885923                0.16006068
               4.00000000               10.00000000                0.00000000                1.00000000                0.00000000                0.00000000               -0.00008270                0.00000000                0.05200117                0.02104419
               5.00000000               10.00000000                0.00000000                1.00000000               -0.00000000               -0.00000000               -0.00093750               -0.00000000                0.01774698                0.00256152
               6.00000000               10.00000000                0.00000000                1.00000000               -0.00000000                0.00000000                0.00082635                0.00000000                0.00938472               -0.00168110
               7.00000000               10.00000000                0.00000000                1.00000000               -0.00000000               -0.00000000                0.00261412               -0.00000000                0.01161195               -0.00794527
               8.00000000               10.00000000                0.00000000                1.00000000               -0.00000000                0.00000000                0.01337178               -0.00000000                0.01526116               -0.02890175
               9.00000000               10.00000000                0.00000000                1.00000000                0.00000000                0.00000000                0.10536232                0.00000000                0.01131318                0.01894693
              10.00000000               10.00000000                0.00000000                1.00000000                0.00000000                0.00000000               -0.57378455                0.00000000                0.07748029                0.38656722
               0.00534983                0.01100127                1.01834663                1.00000000               -0.50505134               -0.51211290                1.78122052               -0.14794972               -0.05334454                0.50188672
               1.00029932                0.00747925                1.01260073                1.00000000               -0.34825626               -0.37980192                1.26454601               -0.12409770               -0.27683849                0.24957499
               1.99838470                0.00379758                1.00668831                1.00000000               -0.08775341               -0.25878706                0.72591415               -0.11440153               -0.39778622                0.02781469
               2.99854425                0.00086459                1.00144981                0.00010000                0.06469454               -0.09311315                0.23407406               -0.03868563               -0.24931087               -0.09234178
               3.99967860               -0.00007510                0.99986040                0.00010000                0.07364985               -0.00703969               -0.04189955               -0.00912734                0.17510118               -0.08920927
               5.00001724               -0.00005133                0.99994136                0.00010000                0.01387504                0.00139951               -0.12902543                0.00834193                0.38939027               -0.07739410
               5.99995610               -0.00001565                0.99985896                0.00010000               -0.02748368                0.00534556               -0.25637121               -0.01533455                0.32623402               -0.06896756
               6.99946757               -0.00091072                0.99913362                0.00010000               -0.02307434                0.07259307               -0.54140225               -0.11461911               -0.06724968               -0.12147967
               7.99949461               -0.00470632                0.99237055                1.00000000                0.14779089                0.31341162               -0.94759347               -0.18460984               -0.35163266               -0.04407217
               9.00242339               -0.00868182                0.98436046                1.00000000                0.45862960                0.47854338               -1.53348233               -0.15255416               -0.15996082               -0.19359083
              10.00866720               -0.01207377                0.97749240                1.00000000                0.62438122                0.63824141               -2.15412325               -0.16018415                0.14991681               -0.51822087
               0.00739235                1.00588014                1.01486782                1.00000000               -0.47321687               -0.39484015                1.57805677               -0.07981628                0.18922566                0.40861103
               1.00266018                1.00368123                1.00932566                1.00000000               -0.34221662               -0.28892708                1.05381629               -0.08498569               -0.00792172                0.16374795
               2.00054802                1.00120971                1.00404938                0.00010000               -0.12832241               -0.18358275                0.56785814               -0.04954067               -0.04441321               -0.06767479
               3.00009373                0.99993346                1.00046059                0.00010000               -0.02513674               -0.04863757                0.18871331                0.02970784                0.14951444               -0.13501905
               4.00004528                0.99985450                0.99998867                0.00010000               -0.00113976               -0.00069637                0.01160707                0.02739890                0.31440284               -0.13809199
               5.00007094                0.99996266                0.99999101                0.00010000                0.00935793                0.00064446               -0.05393510                0.01466536                0.36824010               -0.05575494
               6.00023244                1.00003780                0.99992565                0.00010000                0.02978866               -0.00073064               -0.16878962                0.00747450                0.43177958                0.03897669
               7.00066671                0.99981521                0.99991489                0.00010000                0.06508109                0.03593582               -0.39692279               -0.02183886                0.33309460                0.00738735
               8.00153406                0.99842780                0.99623012                1.00000000                0.19574306                0.22188685               -0.77001601               -0.08243565                0.05908746                0.09125391
               9.00458157                0.99610361                0.98915049                1.00000000                0.44616198                0.36670787               -1.33384741               -0.11070982                0.04553356               -0.02595331
              10.01045730                0.99430865                0.98136730                1.00000000                0.58757307                0.49973830               -1.89280951               -0.09288491                0.26136942               -0.37661776
               0.00815132                2.00310446                1.01442001                1.00000000               -0.48812917               -0.22653730                1.48278260               -0.10501287                0.21553314                0.34474866
               1.00327003                2.00170071                1.00789131                1.00000000               -0.35048297               -0.15661742                0.88775917               -0.11451796                0.03319276                0.11138493
               2.00114166                2.00012593                1.00179974                0.69822670               -0.13882069               -0.07846876                0.30063041               -0.03920952                0.14809214               -0.10160498
               3.00049362                1.99989184                0.99983440                0.00010000               -0.04721460               -0.00146285                0.02658151                0.01585328                0.55484836               -0.17795918
               4.00019737                1.99991097                1.00003558                0.00010000               -0.01831837                0.00502809               -0.01437265                0.01391631                0.64455923               -0.11093713
               5.00012725                1.99996156                0.99999449                0.00010000                0.00278318                0.00031896               -0.07607016                0.00694066                0.62255391               -0.07411112
               6.00025303                1.99996973                0.99998537                0.00010000                0.02567741               -0.00454730               -0.14309788               -0.00827198                0.68656784               -0.02826359
               7.00064080                1.99980800                0.99999956                0.00010000                0.06522328                0.00345819               -0.37532748               -0.02071089                0.80039083                0.02382973
               8.00155750                1.99973142                0.99933140                0.00010000                0.18437746                0.06716519               -0.62730360               -0.07471142                0.43481830                0.10780291
               9.00432835                1.99865234                0.99304216                1.00000000                0.44209655                0.17330631               -1.08249933               -0.15635062                0.07020295                0.05765794
              10.01039943                1.99792100                0.98238201                1.00000000                0.60710845                0.28131134               -1.70339557               -0.15308904                0.08169586               -0.21905844
               0.00809961                3.00134939                1.01384621                1.00000000               -0.47512464               -0.14700723                1.41204552               -0.09924776                0.20561197                0.18771366
               1.00334836                3.00054888                1.00654816                1.00000000               -0.32634552               -0.09651084                0.74128178               -0.08611426                0.06382225                0.00879355
               2.00157270                2.99964033                1.00039736                0.00010000               -0.13613021               -0.03131756                0.06224253               -0.00013341                0.33071863               -0.10855591
               3.00062576                2.99990420                1.00003292                0.00010000               -0.06594022                0.00263334               -0.27475317                0.02596428                0.79723636               -0.19214403
               4.00025389                2.99995506                1.00001181                0.00010000               -0.02373851                0.00342142               -0.03931718                0.00676017                0.81973648               -0.07339968
               5.00015099                2.99996904                0.99999997                0.00010000               -0.00166668                0.00085958               -0.08261196                0.00062227                0.82224450               -0.06474313
               6.00022056                2.99994686                0.99999357                0.00010000                0.01699107               -0.00055968               -0.13862263               -0.00780670                0.83655610               -0.03771732
               7.00049081                2.99988438                0.99991053                0.00010000                0.04874711                0.00502527               -0.15229053               -0.02078285                0.89181619                0.00478576
               8.00119550                2.99977110                1.00031534                0.00010000                0.13870873                0.00529793               -0.61672717               -0.04463811                0.85321183                0.04565104
               9.00326498                2.99956974                0.99588494                1.00000000                0.38313462                0.07250077               -0.72343540               -0.07143007                0.11951016                0.02452245
              10.00885819                2.99993488                0.98428025                1.00000000                0.55932109                0.14580689               -1.54698025               -0.10694442               -0.01934127                0.01097642
               0.00776739                4.00016432                1.01318849                1.00000000               -0.45105872               -0.10197220                1.33173405               -0.08312483                0.16504306                0.07444516
               1.00325680                3.99977049                1.00510723                1.00000000               -0.29918574               -0.06053593                0.60888838               -0.05375279                0.09163069               -0.08022398
               2.00178367                3.99949957                0.99927392                0.00010000               -0.12793127               -0.00136454               -0.13007396                0.01308472                0.49761681               -0.10346750
               3.00069817                3.99994450                1.00012725                0.00010000               -0.07579697                0.00381105               -0.08116305                0.02612570                0.90724078               -0.07767721
               4.00026773                3.99997940                1.00000917                0.00010000               -0.02751387                0.00212199               -0.09138055                0.00196300                0.93523343               -0.06993100
               5.00014790                3.99997875                1.00000241                0.00010000               -0.00430856                0.00093923               -0.08629416               -0.00181923                0.97506020               -0.04566139
               6.00018156                3.99995854                0.99999066                0.00010000                0.01264973                0.00102825               -0.09586548               -0.00703982                0.98561384               -0.01968400
               7.00040089                3.99990851                0.99995845                0.00010000                0.03989077                0.00189129               -0.10031940               -0.01494591                1.01104952                0.00860030
               8.00097938                3.99983738                1.00013839                0.00010000                0.11675408                0.00461094               -0.03773290               -0.01132324                0.81455186                0.09364386
               9.00273597                4.00010235                0.99694528                1.00000000                0.32754450                0.04428595               -0.51931066               -0.00209964                0.19950413                0.01963717
              10.00753027                4.00083714                0.98614450                1.00000000                0.47942935                0.07837111               -1.37803124               -0.04666240                0.00485972                0.12274387
               0.00722477                4.99930995                1.01240282                1.00000000               -0.42867192               -0.07059844                1.23656177               -0.06256769                0.09518227               -0.02337705
               1.00293805                4.99933816                1.00342700                1.00000000               -0.27821961               -0.03032849                0.47588739               -0.01961458                0.14845638               -0.12952549
               2.00166038                4.99961304                0.99882686                0.00010000               -0.11348006                0.01076490               -0.34078220                0.01537209                0.66023279               -0.07173222
               3.00066845                4.99998042                1.00015877                0.00010000               -0.07007331                0.00244948               -0.19544283                0.01477643                1.06851474               -0.11670790
               4.00025891                4.99999750                1.00000635                0.00010000               -0.02664949                0.00134953               -0.12622949               -0.00101005                1.07380146               -0.06060351
               5.00013546                4.99998783                1.00000354                0.00010000               -0.00544527                0.00077986               -0.08648337               -0.00285062                1.10635557               -0.03030209
               6.00015000                4.99996742                0.99999451                0.00010000                0.00887964                0.00085076               -0.05627019               -0.00631413                1.11055400               -0.00822025
               7.00031305                4.99992220                0.99996478                0.00010000                0.03125934                0.00163617                0.00417239               -0.01365178                1.08022439                0.02522408
               8.00077519                4.99986332                1.00009433                0.00010000                0.09550905                0.00341048                0.40234142                0.00394986                0.79249143                0.14482785
               9.00222323                5.00045546                0.99791958                0.00010000                0.28400896                0.02340290               -0.36497083                0.01706871                0.26407545                0.08388741
              10.00645537                5.00150230                0.98801967                1.00000000                0.42321385                0.06048689               -1.26141575               -0.01325620                0.03676931                0.27170598
               0.00645960                5.99875235                1.01131093                1.00000000               -0.38981926               -0.04396050                1.13071973               -0.03724549                0.06103448               -0.11024633
               1.00256141                5.99916392                1.00203604                0.00010000               -0.25053751               -0.01117550                0.31517379                0.01656343                0.22944034               -0.12738976
               2.00144885                5.99971487                0.99889362                1.00000000               -0.09760826                0.00862195               -0.57685241                0.02840188                0.78044008               -0.05622164
               3.00060925                5.99999349                1.00013755                0.00010000               -0.06043626                0.00137452               -0.80852280                0.01048075                1.21052488               -0.10036892
               4.00024013                6.00000639                1.00000773                0.00010000               -0.02441414                0.00094292               -0.14762379               -0.00174646                1.20143673               -0.03395160
               5.00012096                5.99999434                1.00000391                0.00010000               -0.00596140                0.00060617               -0.09070410               -0.00307402                1.21743665               -0.01291454
               6.00012090                5.99997556                0.99999587                0.00010000                0.00554958                0.00067592               -0.01627883               -0.00533828                1.20892618                0.00189575
               7.00023196                5.99994123                0.99997802                0.00010000                0.02021106                0.00213284                0.09313130               -0.01029402                1.13684562                0.03132093
               8.00052512                5.99990559                1.00004005                0.00010000                0.06032094                0.00724043                0.80215412                0.01097477                0.76928523                0.16576469
               9.00143837                6.00057041                0.99884540                0.00010000                0.23231702                0.00797601               -0.24228292                0.03850804                0.37966889                0.13212308
              10.00517146                6.00204688                0.99116981                1.00000000                0.37330882                0.01373354               -1.22430749                0.00150305                0.18890172                0.43674348
               0.00565672                6.99843074                1.00998555                1.00000000               -0.33499232               -0.03232343                1.01387367               -0.00715647                0.06441533               -0.17394636
               1.00230679                6.99911465                1.00104776                0.00010000               -0.21289396                0.00240527                0.15805947                0.04736660                0.28906531               -0.10725882
               2.00139884                6.99978548                0.99883704                0.00010000               -0.08601237                0.01405826               -0.76995613                0.04743744                0.85026778               -0.04021095
               3.00058655                7.00000791                1.00013092                0.00010000               -0.05878543                0.00556434               -1.23488726                0.01168159                1.26470155                0.05204181
               4.00022313                7.00001636                1.00000686                0.00010000               -0.02408691                0.00204783               -0.18042445               -0.00227124                1.28080553                0.00866732
               5.00010481                6.99999995                1.00000402                0.00010000               -0.00633878                0.00041189               -0.10113410               -0.00346427                1.29982765                0.01075909
               6.00009635                6.99998094                0.99999713                0.00010000                0.00361640                0.00024352                0.01609960               -0.00395251                1.28822554                0.00757350
               7.00017714                6.99996486                0.99998763                0.00010000                0.01345761                0.00120870                0.16896134               -0.00298943                1.17911538                0.02331334
               8.00036551                7.00000813                0.99999664                0.00010000                0.03374847                0.00823096                1.16180616                0.02498707                0.74288799                0.14324573
               9.00085211                7.00061498                0.99955863                0.00010000                0.15834950                0.01236760               -0.08243477                0.05706944                0.51948116                0.15676137
              10.00353250                7.00177697                0.99473413                1.00000000                0.26803904               -0.02939962               -1.17518812               -0.00717174                0.39162168                0.38698032
               0.00494865                7.99810588                1.00859481                1.00000000               -0.27946478               -0.05506502                0.88620675                0.02385463                0.06865020               -0.24000558
               1.00215400                7.99921202                1.00026530                0.00010000               -0.17221517                0.02287171                0.04022375                0.07522439                0.31438702               -0.08149563
               2.00150434                7.99999604                0.99848332                0.00010000               -0.07709980                0.05292770               -0.88389029                0.06013474                0.88487391               -0.02214499
               3.00061200                8.00010478                1.00011003                0.00010000               -0.06508374                0.02480883               -1.17440693                0.00790921                1.31657106                0.15003767
               4.00020267                8.00004734                1.00000066                0.00010000               -0.02624523                0.00403845               -0.22493649               -0.00679177                1.29752692                0.08328448
               5.00008710                8.00000258                1.00000527                0.00010000               -0.00628644               -0.00041690               -0.11976983               -0.00377691                1.35546068                0.03704141
               6.00007694                7.99998043                0.99999843                0.00010000                0.00289390                0.00003363                0.04149090               -0.00325344                1.34878353                0.00670254
               7.00014498                7.99996540                0.99999084                0.00010000                0.01489045               -0.00104756                0.22612650                0.00065010                1.21584692                0.00458706
               8.00037475                8.00007021                0.99998538                0.00010000                0.03329759               -0.00426220                1.41481310                0.04210783                0.73185706                0.04949301
               9.00081093                8.00081776                0.99992789                0.00010000                0.11646489                0.01380592                0.11984679                0.08623160                0.55845656                0.18621139
              10.00270405                8.00145888                0.99598740                0.00010000                0.18931183                0.01269403               -0.98310607                0.02016998                0.43205786                0.19756150
               0.00392152                8.99732944                1.00693009                0.00010000               -0.20003964               -0.12951808                0.75208776                0.02951612                0.06261006               -0.26323697
               1.00192113                8.99957209                0.99963630                0.00010000               -0.11063724                0.04633111               -0.04934938                0.06063851                0.24870056               -0.04369418
               2.00170878                9.00084404                0.99715297                0.00010000               -0.06138506                0.16882604               -0.85643291                0.02201014                0.84694357               -0.01503382
               3.00069342                9.00050409                0.99975378                0.00010000               -0.07596420                0.07479129               -1.11056976               -0.00351590                1.27618454                0.19529057
               4.00018949                9.00009713                1.00003520                0.00010000               -0.02986182                0.00815488               -0.26676708               -0.00975668                1.27968997                0.16889270
               5.00009619                8.99999161                1.00000293                0.00010000               -0.00605141                0.00115164               -0.14243819               -0.00125714                1.39766166                0.06423294
               6.00006846                8.99998161                0.99999947                0.00010000                0.00020843                0.00013812                0.05875631               -0.00153962                1.39764627                0.00370728
               7.00010036                8.99994391                0.99999622                0.00010000                0.01434200               -0.00224277                0.27952744               -0.00437903                1.23219464               -0.04038906
               8.00035530                8.99992289                0.99995924                0.00010000                0.05438535               -0.01796132                1.48472057                0.03625249                0.77287386               -0.02860712
               9.00118806                9.00089110                1.00080730                0.00010000                0.11491727               -0.03141456                0.25113105                0.07050827                0.50827656                0.14556260
              10.00265365                9.00203085                0.99544317                0.00010000                0.14655869                0.12033944               -0.69152475                0.01751323                0.23860810                0.09759410
               0.00105367                9.99551552                1.00652101                0.00010000               -0.12015019               -0.18139174                0.65360352                0.17552757               -0.16179242               -0.29238206
               0.99985217               10.00013865                0.99922630                0.00010000               -0.00205638                0.05665612               -0.13293005                0.18595619               -0.03426098               -0.00430164
               2.00101254               10.00337256                0.99493326                1.00000000                0.07182124                0.25285212               -0.89033263                0.00347450                0.64155203                0.07797577
               3.00128859               10.00160061                0.99861593                0.00010000               -0.02462650                0.10965180               -1.25229245               -0.09858897                1.25685730                0.31012262
               4.00052001               10.00021044                0.99999917                0.00010000               -0.05555613                0.01133136               -0.32359765               -0.04569768                1.37703417                0.27603041
               5.00017747               10.00002562                0.99999063                0.00010000               -0.02130823                0.00340043               -0.18010341               -0.00323443                1.48224911                0.10695572
               6.00009385                9.99998319                1.00000826                0.00010000               -0.00306751                0.00015761                0.06167722               -0.00271514                1.47138806                0.00430280
               7.00011612                9.99992055                1.00002614                0.00010000                0.00293822               -0.00233624                0.31121693               -0.01203399                1.26843674               -0.10393526
               8.00015261                9.99971098                1.00013372                0.00010000               -0.00014939               -0.02119056                1.58457217               -0.00682320                0.68677275               -0.10782555
               9.00011313               10.00018947                1.00105362                0.00010000                0.03110957               -0.07016258                0.29530432                0.10024135                0.30342779                0.03175988
              10.00077480               10.00386567                0.99426215                0.00010000                0.06616712                0.18348237               -0.55469561                0.17973559               -0.08260374                0.13716206
               0.01042491                0.01699535                2.03562441                1.00000000               -0.43033570               -0.48965058                1.72799152               -0.10097996               -0.25349939                0.23619130
               1.00612155                0.01154163                2.02529092                1.00000000               -0.36148559               -0.35572562                1.26362034               -0.10421375               -0.24656577                0.01258395
               2.00319519                0.00583416                2.01451828                1.00000000               -0.21399272               -0.22990849                0.76582598               -0.09233927               -0.26700099               -0.09689207
               3.00184170                0.00013161                2.00468148                0.00010000                0.09076409               -0.12165777                0.29632897                0.12718552               -0.06904294               -0.11707814
               4.00501048               -0.00204073                1.99916201                0.00010000                0.29737723               -0.08962865               -0.01173012                0.08577540                0.45992200               -0.05391454
               5.00778924               -0.00164719                1.99741949                0.00010000                0.11609728                0.04789627               -0.22510621               -0.00974210                0.78407390               -0.01173799
               6.00733242               -0.00151273                1.99487258                0.00010000               -0.08229088                0.21658624               -0.49898506                0.02068094                0.60547490                0.00998416
               7.00614342               -0.00399215                1.98917196                0.00010000                0.02040383                0.32739478               -0.82452025                0.06700769                0.30804169                0.02743392
               8.00774050               -0.00860059                1.98104813                1.00000000                0.27677559                0.34648089               -1.13220280               -0.05242096                0.08545006                0.00089306
               9.01167893               -0.01345187                1.96933035                1.00000000                0.44969870                0.42511149               -1.52443673               -0.06622607               -0.08836552               -0.08769453
              10.01673447               -0.01811422                1.95691754                1.00000000                0.50555387                0.56922552               -1.99611575               -0.06030494               -0.17635610               -0.11450997
               0.01486883                1.01209884                2.03156114                1.00000000               -0.42088174               -0.45393849                1.65691486               -0.06429006               -0.04115893                0.34645724
               1.01066001                1.00798437                2.02107633                1.00000000               -0.34460069               -0.32682125                1.16884291               -0.07006016                0.02361220                0.06535044
               2.00797681                1.00353507                2.01135716                1.00000000               -0.18045064               -0.21071210                0.69515471               -0.06228885                0.14208379               -0.18863742
               3.00705100                0.99891503                2.00377427                0.00010000               -0.06095903               -0.16315650                0.24969411                0.22736722                0.41394231               -0.22922889
               4.00675763                0.99706298                2.00023214                0.00010000                0.01884117               -0.01005732                0.01941320                0.38186774                0.71154954               -0.19896138
               5.00742782                0.99883177                1.99892130                0.00010000                0.09770393                0.00780064               -0.14136557                0.41510980                0.81722242               -0.11285483
               6.00871171                1.00065313                1.99662421                0.00010000                0.14648037                0.04397741               -0.37200703                0.34219430                0.75397415                0.03073798
               7.01035743                0.99928180                1.99206154                0.00010000                0.16172203                0.22365519               -0.70264086                0.23647246                0.58793800               -0.02198459
               8.01194615                0.99486422                1.98459968                1.00000000                0.27080323                0.33357134               -1.04538085               -0.02846402                0.33170739               -0.03010046
               9.01577349                0.99079924                1.97332305                1.00000000                0.44238119                0.39352933               -1.48139076               -0.03058347                0.16537680               -0.06007399
              10.02079377                0.98757803                1.96214381                1.00000000                0.50202835                0.54100526               -1.89697465               -0.01113425                0.12082138               -0.22284756
               0.01736804                2.00791658                2.02965565                1.00000000               -0.40839257               -0.35565288                1.53205931               -0.09916107                0.02098582                0.39620703
               1.01328412                2.00500521                2.01775518                1.00000000               -0.31746423               -0.25122117                0.99485820               -0.11156891                0.07451856                0.07231317
               2.01101876                2.00161991                2.00601261                0.00010000               -0.02114935               -0.15901839                0.44759099               -0.14919661                0.39160615               -0.30842635
               3.01286113                1.99686848                2.00053163                0.00010000                0.08561667               -0.15253818               -0.00472800                0.27087455                0.91910090               -0.49436350
               4.01273109                1.99775812                1.99971255                0.00010000               -0.01799221                0.07477144               -0.04577780                0.56551962                1.25470976               -0.20875294
               5.01250129                1.99850882                1.99847860                0.00010000                0.04975937               -0.00672777               -0.16789292                0.53220027                1.27436998               -0.18394879
               6.01372628                1.99936681                1.99713804                0.00010000                0.20802462               -0.07063827               -0.34818092                0.50404901                1.18791021               -0.09768740
               7.01666178                2.00048095                1.99249345                0.00010000                0.09637470                0.04275136               -0.42969195                0.29305749                1.02160162                0.17853079
               8.01565377                1.99807084                1.98745393                0.00010000                0.08458370                0.26209083               -0.89612949                0.15407210                0.80280643               -0.13985113
               9.01835345                1.99441871                1.97835001                1.00000000                0.36502175                0.28940395               -1.34992103               -0.13565777                0.43503676                0.15065872
              10.02295421                1.99270588                1.96593209                1.00000000                0.46007559                0.44395013               -1.67972069               -0.06984447                0.19287558               -0.25169552
               0.01870835                3.00498579                2.02824091                1.00000000               -0.39830573               -0.24921393                1.43313032               -0.09781692                0.04505066                0.32012072
               1.01472530                3.00295995                2.01482564                1.00000000               -0.27893736               -0.17442663                0.82521071               -0.10840075                0.09123289                0.03851759
               2.01312961                3.00035470                2.00124485                0.00010000                0.08024931               -0.10593798                0.15364367               -0.15910596                0.43460835               -0.28426827
               3.01633028                2.99586427                1.99450494                0.00010000                0.16490390                0.07260627               -0.37328660                0.13760663                1.40434024               -0.15438228
               4.01642768                2.99855841                1.99921366                0.00010000                0.00664242                0.04243616               -0.14402102                0.44656791                1.86103692               -0.19935160
               5.01646313                2.99869722                1.99834776                0.00010000                0.01964367                0.02871922               -0.19185199                0.38501935                1.63787361               -0.13904977
               6.01682056                2.99924036                1.99722755                0.00010000                0.05257110                0.01192811               -0.26521138                0.37347812                1.69196421               -0.06768429
               7.01751455                3.00013683                1.99695419                0.00010000                0.21346382               -0.01815981               -0.42999545                0.21385771                1.32028196                0.14759213
               8.02108983                3.00010604                1.98766546                0.00010000                0.04553701                0.20115230               -0.54800563                0.00504643                1.08077642                0.38209373
               9.01842529                2.99658732                1.98553129                1.00000000                0.08663586                0.19696922               -1.05977050               -0.20092450                0.75887062                0.19414411
              10.02282255                2.99645703                1.96906039                1.00000000                0.43972579                0.30047881               -1.51202249               -0.07580156               -0.02857084               -0.15015807
               0.01946338                4.00293230                2.02663468                1.00000000               -0.37161905               -0.17878813                1.33561936               -0.08421704                0.08415741                0.21729078
               1.01574719                4.00151667                2.01217777                1.00000000               -0.22655270               -0.12396338                0.67158974               -0.08056782                0.12930003               -0.00125965
               2.01493232                3.99950116                1.99739852                0.00010000                0.08311868               -0.07045229               -0.11223631                0.00736063                0.92811540               -0.29524204
               3.01740956                3.99832061                1.99837674                0.00010000                0.19485912                0.08956368               -0.24659462                0.14831064                1.84993905                0.05564838
               4.01882951                3.99860684                1.99817239                0.00010000                0.10550802                0.01154848               -0.22220067                0.29830910                1.93216991               -0.15859995
               5.01951972                3.99908321                1.99827412                0.00010000                0.04633638                0.03476193               -0.20024239                0.33371739                1.99818159               -0.09411736
               6.01975623                3.99960538                1.99808269                0.00010000                0.02767701                0.02950095               -0.20257272                0.32319149                2.00685509               -0.01639403
               7.02007326                4.00011776                1.99799361                0.00010000               -0.02260125                0.01740432               -0.18298864                0.32393112                2.03005104                0.06137648
               8.01930421                4.00209388                1.99924534                0.00010000               -0.10446467                0.14444296               -0.01445134               -0.24772327                1.36791666                0.86761773
               9.01798397                3.99835810                1.98961379                1.00000000                0.11972727                0.15951571               -0.77826173               -0.22237742                0.43624916                0.08824208
              10.02169875                3.99871546                1.97243938                1.00000000                0.37147864                0.19758915               -1.35977143               -0.07863102               -0.00101396               -0.06561162
               0.01985527                5.00141002                2.02473124                1.00000000               -0.33101828               -0.13599819                1.23075277               -0.07757981                0.12624610                0.12400667
               1.01654509                5.00048068                2.00951775                1.00000000               -0.16911911               -0.08426141                0.52560628               -0.06027175                0.14345852               -0.07111551
               2.01647289                4.99894566                1.99318436                0.61724363                0.18228608               -0.03178838               -0.39521471               -0.01250841                1.09567866               -0.35450989
               3.02019081                4.99765554                1.99609114                0.00010000                0.25791902               -0.01500664               -0.41866213                0.27652736                2.16771698               -0.65894780
               4.02163127                4.99878938                1.99747541                0.00010000                0.09740689                0.03568027               -0.29785627                0.35348861                2.23503778               -0.06556811
               5.02213895                4.99939245                1.99827033                0.00010000                0.03092839                0.03290127               -0.20489586                0.29409356                2.29249878               -0.05710735
               6.02224983                4.99983038                1.99887460                0.00010000               -0.03171390                0.02149596               -0.11452159                0.27703196                2.31569020                0.00786944
               7.02150467                5.00048491                2.00008345                0.00010000               -0.21774030                0.02429066                0.06682174                0.28919940                2.56687436                0.12393485
               8.01789503                5.00299490                2.00804683                0.00010000               -0.20742479                0.06595501                0.45438861               -0.17465762                1.50877781                0.75441717
               9.01735617                4.99977764                1.99270058                0.00010000                0.13200921                0.13226599               -0.54858893               -0.20532131                0.17606004                0.09387674
              10.02053521                5.00040882                1.97477168                1.00000000                0.31790410                0.16524780               -1.25749083               -0.06535886               -0.02012065               -0.10057281
               0.01977046                6.00021234                2.02261439                1.00000000               -0.27643445               -0.10864182                1.12044728               -0.07265859                0.10687136                0.03584238
               1.01700612                5.99983145                2.00630348                0.00010000               -0.11315830               -0.04275605                0.35470385               -0.04811076                0.10643467               -0.12840306
               2.01750730                5.99886539                1.98846295                0.00010000                0.30451352                0.03302100               -0.68059112               -0.01808308                0.75172162               -0.32417252
               3.02309639                5.99802047                1.98382954                0.00010000                0.33275355                0.17064036               -0.97289823                0.21942284                2.30222815               -0.90147705
               4.02416237                5.99932045                1.99704752                0.00010000                0.06321001                0.06955155               -0.42745632                0.29162543                2.93153641               -0.01652762
               5.02436059                5.99974123                1.99818592                0.00010000                0.00210238                0.04106869               -0.21319656                0.22910942                2.52466292               -0.02991543
               6.02420441                6.00003530                1.99967442                0.00010000               -0.08339267                0.01592630               -0.03127502                0.21967015                2.57359866                0.02376682
               7.02269273                6.00060357                2.00186263                0.00010000               -0.38430409               -0.00157303                0.29801581                0.27279094                3.02994850                0.11448755
               8.01651833                6.00341298                2.01604308                0.00010000               -0.31145572               -0.00376578                0.86690576               -0.11042093                1.61910109                0.70729425
               9.01646362                6.00100342                1.99515434                0.00010000                0.13054405                0.11375488               -0.33971815               -0.15483021               -0.11434055                0.16440734
              10.01912921                6.00202041                1.97551385                1.00000000                0.26655932                0.12566003               -1.22095820               -0.05098941               -0.13873557               -0.10276920
               0.01916388                6.99923719                2.02027747                1.00000000               -0.22340612               -0.09784939                1.00737195               -0.04808440                0.06599402               -0.05363108
               1.01692982                6.99962556                2.00316119                0.00010000               -0.06208424               -0.00249449                0.17255668               -0.01189966                0.06477669               -0.10828585
               2.01792220                6.99960608                1.98460088                0.00010000                0.35971915                0.11878874               -0.92889915                0.08941195                0.53127353               -0.17877063
               3.02412420                7.00106835                1.97530225                0.00010000                0.39104105                0.26787096               -1.35256709                0.11460098                2.36664701               -0.26503690
               4.02574302                7.00018041                1.99639151                0.00010000                0.09410416                0.11584544               -0.58174338                0.05192069                3.39145925                0.00720304
               5.02600629                7.00021383                1.99797732                0.00010000                0.00189393                0.05003428               -0.23943889                0.13596771                2.72178897               -0.01192095
               6.02578090                7.00014891                2.00032199                0.00010000               -0.12117448                0.00482097                0.03809731                0.15126544                2.79123763                0.02663843
               7.02358280                7.00045345                2.00337923                0.00010000               -0.52470667               -0.02602120                0.50074497                0.22039630                3.43673526                0.08414994
               8.01528676                7.00291958                2.02323612                0.00010000               -0.39653292               -0.11928607                1.24559841               -0.01094806                1.75490583                0.55541509
               9.01565214                7.00205273                1.99835130                0.00010000                0.10973354                0.07360661               -0.11743165               -0.06470321               -0.37774434                0.27129544
              10.01748143                7.00292202                1.97649624                1.00000000                0.18292954                0.06108843               -1.18152311               -0.04342486               -0.29691465                0.11399815
               0.01803202                7.99825535                2.01772414                1.00000000               -0.16327908               -0.12140634                0.89285275               -0.01358411                0.05733185               -0.13333384
               1.01639923                7.99978156                2.00080448                0.00010000               -0.00896385                0.02697754                0.02101432                0.04035593                0.04626306               -0.05589932
               2.01785275                8.00124116                1.98232219                0.00010000                0.42074216                0.18216541               -1.05230908                0.12477618                0.67595281                0.07573205
               3.02481408                8.00337789                1.97651186                0.00010000                0.41012777                0.21657824               -1.33587555               -0.05432703                2.31244107                0.31989286
               4.02605530                8.00163736                1.99550127                0.00010000                0.11486834                0.15994678               -0.74377129               -0.15171692                3.36799629                0.04723694
               5.02711144                8.00074192                1.99760460                0.00010000                0.04673986                0.05427374               -0.28074864                0.02385172                2.90114244                0.01216105
               6.02699010                8.00013171                2.00082982                0.00010000               -0.13907276               -0.00422960                0.09348704                0.07599819                2.97400486                0.02314780
               7.02432999                8.00008315                2.00452253                0.00010000               -0.61450050               -0.06482669                0.66459531                0.09984360                3.72300886                0.03992570
               8.01470009                8.00102726                2.02829626                0.00010000               -0.45814346               -0.18200282                1.53315648                0.08760184                1.91278628                0.23291836
               9.01516712                8.00247555                2.00239694                0.00010000                0.09110287               -0.01336064                0.12314988                0.06221877               -0.45509062                0.23794995
              10.01652215                8.00324218                1.98033788                0.00010000                0.13550282                0.03775534               -0.99634969               -0.02238751               -0.31763723                0.40253238
               0.01583979                8.99680906                2.01504176                0.00010000               -0.10886624               -0.16424176                0.79154242                0.00168231                0.05484113               -0.14963927
               1.01475113                9.00016511                1.99901301                0.00010000                0.04907974                0.04761970               -0.10480229                0.04718142                0.09470719               -0.02502989
               2.01682138                9.00324939                1.98287134                0.00010000                0.39451710                0.23788949               -1.05195347                0.04117351                0.68821664                0.21489478
               3.02264147                9.00539991                1.97778860                0.00010000                0.42616360                0.25501340               -1.28815956               -0.23064448                2.12183212                0.31219925
               4.02534466                9.00337934                1.99466466                0.00010000                0.26737475                0.19776496               -0.91718415               -0.19949632                3.35044740                0.10411281
               5.02798896                9.00129930                1.99715124                0.00010000                0.13074867                0.07109017               -0.32319506               -0.03952902                3.06884764                0.02929820
               6.02795963                9.00006432                2.00117513                0.00010000               -0.16524212               -0.00316260                0.13411628                0.01298801                3.14779847                0.01731169
               7.02468412                8.99915692                2.00559055                0.00010000               -0.66566161               -0.11108436                0.80670325                0.00642502                3.80497741               -0.00745914
               8.01464640                8.99927952                2.02969441                0.00010000               -0.50012629               -0.17663660                1.61442985                0.03182430                1.91681530                0.00706322
               9.01468160                9.00178552                2.00502262                0.00010000                0.04270119               -0.11664953                0.31176170                0.05853002               -0.33854366                0.06759507
              10.01550042                9.00367712                1.98616950                0.00010000                0.08188254                0.09315500               -0.73412914               -0.04040382               -0.09558778                0.37876616
               0.01135357                9.99497051                2.01307207                0.00010000               -0.04510293               -0.18385460                0.62491015                0.12772111               -0.03134972               -0.11465838
               1.01090254               10.00073395                1.99734140                0.00010000                0.10439252                0.05688361               -0.25141607                0.16656284                0.03681010                0.00228127
               2.01344142               10.00599895                1.98219335                1.00000000                0.45843465                0.27495659               -1.06298365                0.04921377                0.46674619                0.18746259
               3.02007123               10.00847816                1.97495415                0.00010000                0.63622862                0.30782456               -1.34210328               -0.27733875                1.94301024                0.16705701
               4.02616599               10.00559266                1.99352805                0.00010000                0.47823314                0.22133117               -1.02022750               -0.23358880                3.54260665                0.08661110
               5.02963589               10.00216372                1.99639793                0.00010000                0.16131285                0.08644167               -0.35604160               -0.11151683                3.24222655                0.04875151
               6.02939225               10.00006846                2.00123354                0.00010000               -0.21963056                0.00041471                0.15357853               -0.07185136                3.31877213                0.02946367
               7.02524328                9.99786146                2.00622434                0.00010000               -0.83421361               -0.12954574                0.89193729               -0.07278065                3.95090605               -0.00396999
               8.01270797                9.99749453                2.03169144                0.00010000               -0.66515807               -0.17849927                1.69099218               -0.07978743                1.83449998                0.01475701
               9.01194012               10.00014256                2.00590609                0.00010000               -0.03885552               -0.16429605                0.49030716                0.10638991               -0.40803452               -0.03064969
              10.01193086               10.00510528                1.98890609                0.00010000               -0.00092564                0.14281578               -0.48690288                0.13931642               -0.01532950                0.20707556
               0.02094682                0.02385164                3.05290646                1.00000000               -0.44726941               -0.50736015                1.73164543               -0.10995570               -0.21581374                0.25298666
               1.01647413                0.01616012                3.03787314                1.00000000               -0.36463493               -0.36361414                1.25957035               -0.09725608               -0.26053615               -0.00659288
               2.01365412                0.00818198                3.02200483                1.00000000               -0.19772325               -0.22393432                0.77339544               -0.08736996               -0.23344335               -0.12525973
               3.01251966                0.00033746                3.00737639                0.00010000                0.12424507               -0.08387254                0.30255840                0.12401191                0.18214450               -0.12809062
               4.01613903               -0.00329366                2.99962579                0.00010000                0.37342465               -0.13816071                0.09093340                0.11766357                0.78018939               -0.00985397
               5.01998816               -0.00328971                2.99543923                0.00010000                0.20870527               -0.00638337               -0.17977171                0.00223775                0.96720265                0.00617936
               6.02031313               -0.00331923                2.98987926                0.00010000               -0.02676530                0.17063293               -0.50120135                0.04327939                0.87750511                0.04158448
               7.01945285               -0.00614122                2.98264321                0.00010000                0.03660409                0.21952434               -0.72230233                0.07609896                0.53937967                0.03380069
               8.02104521               -0.01179155                2.96972649                1.00000000                0.26669121                0.32115467               -1.13247858               -0.02784549                0.10261718                0.15776409
               9.02478667               -0.01842111                2.95387173                1.00000000                0.44602518                0.43035814               -1.53158454               -0.09541768               -0.08164573                0.00226964
              10.02996572               -0.02481651                2.93757008                1.00000000                0.51790415                0.56536584               -1.92826905               -0.11289064               -0.10612547               -0.13889708
               0.02753879                1.01877804                3.04800612                1.00000000               -0.42023930               -0.47514066                1.63277371               -0.05414899               -0.01224547                0.34431855
               1.02333640                1.01252397                3.03270252                1.00000000               -0.34235189               -0.33812279                1.15178773               -0.04530439                0.02289963                0.00203286
               2.02069175                1.00594264                3.01795247                1.00000000               -0.19193984               -0.20561345                0.66988745               -0.02410146                0.16519014               -0.28752824
               3.01949760                0.99949873                3.00545447                0.00010000               -0.07812557               -0.05317795                0.21547847                0.10190645                0.62820455               -0.32056156
               4.01912924                0.99532473                3.00037693                0.00010000                0.02628595                0.00240271                0.04948822                0.41766509                1.08327732               -0.16254729
               5.02002332                0.99664646                2.99716370                0.00010000                0.15212184                0.00729119               -0.16884678                0.56316794                1.12664306               -0.14473324
               6.02217168                0.99838710                2.99248551                0.00010000                0.22133395                0.03659401               -0.43341369                0.45454106                1.01418869               -0.09051043
               7.02445000                0.99605403                2.98586208                0.00010000                0.23675125                0.23135934               -0.66626835                0.21684954                0.78687202                0.12295458
               8.02690670                0.99141999                2.97532250                1.00000000                0.29474896                0.28300873               -0.94232431                0.02701485                0.38291216                0.17298131
               9.03034498                0.98588247                2.95952268                1.00000000                0.41627554                0.39391894               -1.37435839               -0.04093024                0.09138338                0.04802503
              10.03523221                0.98083714                2.94342781                1.00000000                0.48872360                0.53935098               -1.83592293               -0.04817906                0.06085258               -0.17132948
               0.03237197                2.01434883                3.04506119                1.00000000               -0.39685303               -0.40026319                1.52572591               -0.08049797                0.03773220                0.44558071
               1.02840344                2.00939766                3.02778848                1.00000000               -0.30873185               -0.28136633                1.00107510               -0.07232193                0.06420760                0.01415508
               2.02619734                2.00406971                3.01075156                0.00010000               -0.16138747               -0.16867899                0.48319851               -0.01149770                0.37917598               -0.44856998
               3.02517569                1.99927390                2.99973984                0.00010000                0.05736303               -0.02636422                0.00644306                0.19654189                1.06741341               -0.52072703
               4.02734460                1.99675439                2.99912002                0.00010000                0.15067288                0.10917266               -0.08939852                0.60423918                1.56575792               -0.25103242
               5.02818915                1.99685612                2.99663663                0.00010000                0.13258929                0.03730329               -0.20952250                0.77647494                1.46723645               -0.22358045
               6.02999638                1.99741265                2.99302175                0.00010000                0.12838953               -0.03692865               -0.37706580                0.74557941                1.52866972               -0.12108265
               7.03075694                1.99848597                2.99140573                0.00010000                0.08803403                0.06410160               -0.24611686                0.42322564                1.14084066                0.01565172
               8.03175706                1.99386862                2.98140881                0.00010000                0.18969886                0.21007855               -0.68926105               -0.08507397                0.57503379                0.26762738
               9.03455092                1.98945727                2.96604373                1.00000000                0.36678633                0.31531873               -1.22822909               -0.05978203                0.22779170                0.20492087
              10.03909279                1.98597050                2.94878760                1.00000000                0.45418710                0.47936417               -1.69075846               -0.04885871                0.11898107               -0.20314492
               0.03583117                3.01077278                3.04250882                1.00000000               -0.36620917               -0.31645099                1.40933138               -0.08799347                0.05464717                0.41633954
               1.03216908                3.00689665                3.02305237                1.00000000               -0.26228037               -0.21722379                0.82694295               -0.07641016                0.07427228                0.00500502
               2.03058556                3.00256906                3.00347024                0.06856371               -0.07126613               -0.12072413                0.24903848                0.00122352                0.49906090               -0.41975578
               3.03074376                2.99897145                2.99256719                0.00010000                0.15231221                0.00986841               -0.13969117                0.33432615                1.59553769               -0.09966055
               4.03363181                2.99750819                2.99713139                0.00010000                0.20754060                0.08956247               -0.21877583                0.50451171                2.15412461               -0.23697268
               5.03489457                2.99739253                2.99616293                0.00010000                0.09108038                0.06588555               -0.23431895                0.60762060                1.90175298               -0.17279458
               6.03545341                2.99764852                2.99468934                0.00010000                0.07819850                0.02854822               -0.28341291                0.52731592                1.79336877               -0.05893467
               7.03645854                2.99733606                2.99131063                0.00010000               -0.06097439               -0.02395971               -0.42472054                0.35276800                1.74935612               -0.05451088
               8.03423393                2.99562157                2.98935523                0.00010000                0.02944592                0.14698704               -0.15726653               -0.00933709                1.00228771                0.49793867
               9.03704746                2.99218885                2.97468953                1.00000000                0.34973219                0.26203157               -1.07573977               -0.07405675                0.31380166                0.26017948
              10.04122857                2.99042443                2.95403980                1.00000000                0.41811142                0.39215555               -1.50319033               -0.03814094               -0.00846334               -0.18371609
               0.03836436                4.00801981                3.03990088                1.00000000               -0.32854015               -0.24812048                1.30002292               -0.07938772                0.07176342                0.34176634
               1.03507896                4.00505318                3.01853903                1.00000000               -0.21086767               -0.15532523                0.64548644               -0.05897802                0.09555184               -0.01879108
               2.03414701                4.00165523                2.99702919                0.00010000                0.09220633               -0.05553207                0.00426744                0.04165362                1.05896213               -0.36406924
               3.03692309                3.99947127                2.99519535                0.00010000                0.24333723                0.11886071               -0.29656811                0.29391968                2.14854076                0.07848574
               4.03901375                3.99854564                2.99556516                0.00010000                0.16390702                0.11514083               -0.27496818                0.39256158                2.27054369               -0.15447240
               5.04020123                3.99817383                2.99599756                0.00010000                0.07927074                0.07706758               -0.24473334                0.45648234                2.26967207               -0.11745374
               6.04059917                3.99798361                2.99593920                0.00010000               -0.01809834                0.04422773               -0.22025328                0.45151136                2.26374613               -0.04231917
               7.03983926                3.99800678                2.99629868                0.00010000               -0.19408164                0.05979139               -0.16881886                0.24222597                2.38158892                0.21411250
               8.03671754                3.99680836                2.99984936                0.00010000               -0.07861688                0.12661805               -0.05618179                0.03954046                1.37218826                0.54976862
               9.03826692                3.99469790                2.98138005                1.00000000                0.25706378                0.23017951               -0.84155398               -0.05113139                0.22409922                0.15580106
              10.04185881                3.99381362                2.95894908                1.00000000                0.35918876                0.29959695               -1.33978079               -0.05431934                0.00993617               -0.17397580
               0.04017666                5.00581037                3.03701787                1.00000000               -0.28225666               -0.20484248                1.19316069               -0.05929702                0.07333154                0.24645680
               1.03735410                5.00379014                3.01393913                0.00010000               -0.15880559               -0.10503836                0.46909624               -0.02946823                0.10726411               -0.05874777
               2.03700055                5.00145842                2.99092256                0.00010000                0.11888172                0.00798362               -0.19349601                0.11843634                1.28230560               -0.31276294
               3.03973173                5.00134866                2.99178553                0.00010000                0.28899611                0.16407881               -0.35585669               -0.02506312                2.51930090               -0.47870225
               4.04278048                4.99981100                2.99404922                0.00010000                0.24272572                0.11070452               -0.35045543                0.15429726                2.60008266               -0.14158318
               5.04458625                4.99893388                2.99590562                0.00010000                0.09351087                0.07576113               -0.25475281                0.32540847                2.61910007               -0.07819986
               6.04465069                4.99853308                2.99770408                0.00010000               -0.10539709                0.05099427               -0.12196237                0.34575038                2.69057500                0.00494857
               7.04247831                4.99853189                3.00130122                0.00010000               -0.31585408                0.04642121                0.06311729                0.21219266                2.93120860                0.21534227
               8.03833361                4.99815393                3.00918210                0.00010000               -0.17293649                0.10269085                0.03814307                0.05792210                1.64072678                0.45031457
               9.03901958                4.99679244                2.98694780                0.00010000                0.17885712                0.17549667               -0.59741705               -0.01618443                0.11471316                0.11814889
              10.04191075                4.99641637                2.96286985                1.00000000                0.28911781                0.22266618               -1.16000423               -0.04666095                0.00321453               -0.16300735
               0.04121887                6.00392296                3.03371987                1.00000000               -0.23773213               -0.17809958                1.07848279               -0.04542919                0.05716237                0.14893363
               1.03884155                6.00295242                3.00913012                0.00010000               -0.11308254               -0.06711039                0.31424320               -0.00916165                0.11856344               -0.08292627
               2.03895722                6.00181490                2.98528179                0.00010000               -0.03861554                0.04462064               -0.34111566                0.13415577                1.09884283               -0.24493426
               3.03806924                6.00275284                2.98067958                0.00010000                0.27786323                0.03380981               -0.07755542               -0.23290226                2.76202222               -0.67085295
               4.04451448                6.00075973                2.99145860                0.00010000                0.49590429                0.09478354               -0.52354769               -0.02335075                3.24130505               -0.18877169
               5.04798732                5.99968905                2.99573998                0.00010000                0.17008417                0.07044837               -0.27342796                0.21338111                2.97434879               -0.06525962
               6.04791617                5.99900350                2.99937037                0.00010000               -0.17625283                0.04126182               -0.02907883                0.25573275                3.07608356                0.01422012
               7.04446227                5.99893520                3.00593834                0.00010000               -0.41503690                0.02280343                0.28189724                0.16890441                3.39760453                0.19386163
               8.03961543                5.99886218                3.01737816                0.00010000               -0.23907354                0.03546640                0.13040678                0.07152836                1.86755714                0.38156602
               9.03968080                5.99820783                2.99205103                0.00010000                0.10311527                0.10029273               -0.34630095                0.02111442                0.04137264                0.11476562
              10.04167773                5.99826694                2.96675064                1.00000000                0.19969383                0.14082684               -0.90530944               -0.02441029                0.02275755               -0.10900484
               0.04120917                7.00224837                3.03013299                1.00000000               -0.19302417               -0.16240184                0.96321343               -0.04425731                0.03723983                0.06786651
               1.03927892                7.00244794                3.00449890                0.00010000               -0.06629610               -0.03551006                0.15186506               -0.01289475                0.12774917               -0.05677169
               2.03988324                7.00235083                2.98025905                0.15258146               -0.15750353                0.07126567               -0.53163770               -0.00321421                1.04679752               -0.11417149
               3.03612885                7.00202486                2.97307958                0.00010000                0.27470039                0.06317232                0.01510046               -0.25158219                2.98238726               -0.26262976
               4.04537725                7.00170667                2.98837200                0.00010000                0.72406268                0.09796005               -0.72342305                0.01366779                3.69865398               -0.22034158
               5.05061011                7.00034284                2.99521524                0.00010000                0.25709732                0.06914173               -0.31189970                0.12228578                3.32148357               -0.07136148
               6.05051920                6.99935831                3.00075908                0.00010000               -0.23061982                0.02933757                0.05239524                0.16840271                3.42595867                0.01283739
               7.04599771                6.99898796                3.01000253                0.00010000               -0.50138264               -0.01913029                0.48644563                0.10906910                3.82046597                0.15091731
               8.04049154                6.99886325                3.02490861                0.00010000               -0.29803029               -0.02959461                0.22596144                0.04754873                2.08334510                0.29580488
               9.04003710                6.99879829                2.99720999                0.00010000                0.04063962                0.03488046               -0.14142821                0.01781754               -0.01415959                0.11205704
              10.04130434                6.99923290                2.97110366                0.00010000                0.12672328                0.07846622               -0.66115921               -0.01695478                0.06327972               -0.01872313
               0.03993460                8.00067492                3.02645187                1.00000000               -0.14534025               -0.16298296                0.85764572               -0.04993746                0.05018630                0.01360376
               1.03848120                8.00224222                3.00068559                0.00010000               -0.03092951                0.00433144               -0.02380334               -0.03639749                0.19188930               -0.00186224
               2.03931601                8.00324021                2.97743714                0.73961380               -0.23997264                0.14599756               -0.74208762               -0.07058269                1.29577154                0.05280697
               3.03368175                8.00401629                2.97339252                0.00010000                0.35769194                0.31404636               -0.52700326               -0.26566908                3.05290914                0.03790547
               4.04646985                8.00271894                2.98512524                0.00010000                0.95498255                0.12229668               -0.92626190               -0.02429223                3.78901662               -0.22951998
               5.05278140                8.00107189                2.99439030                0.00010000                0.30846292                0.07207010               -0.35585633                0.06119393                3.66095878               -0.06338592
               6.05263911                7.99959025                3.00186817                0.00010000               -0.28213448                0.02829030                0.12062099                0.07733167                3.73685774                0.01255624
               7.04713871                7.99855259                3.01328275                0.00010000               -0.59415211               -0.04475188                0.67520806                0.01814742                4.13552126                0.10644219
               8.04075607                7.99827029                3.03064851                0.00010000               -0.37356053               -0.10971417                0.36662059               -0.04395790                2.26149443                0.07369527
               9.03966750                7.99890544                3.00239089                0.00010000               -0.01433259               -0.00322227                0.01077633               -0.02645162               -0.00852619                0.08315307
              10.04046942                7.99983626                2.97606040                0.00010000                0.08019174                0.09025298               -0.55846761               -0.04972849                0.08124891                0.05193285
               0.03707583                8.99898872                3.02276094                0.00010000               -0.10901474               -0.17566006                0.75821230               -0.04774442                0.09191115               -0.00813670
               1.03598568                9.00253456                2.99754025                0.00010000               -0.01891563                0.06426417               -0.20214316               -0.03660219                0.29685237                0.02390641
               2.03669752                9.00527078                2.97611391                0.00010000               -0.23244663                0.26187925               -1.03394262               -0.04050390                1.48020761                0.11318308
               3.03133675                9.00830578                2.97399059                0.00010000                0.55691462                0.32971834               -1.46952349               -0.29929104                2.97129339                0.02813574
               4.04783581                9.00415261                2.98169151                0.00010000                1.18129615                0.07484756               -1.07488459               -0.15315123                3.87312886               -0.16360045
               5.05496267                9.00178425                2.99353903                0.00010000                0.33746560                0.07176845               -0.39450435                0.01533090                3.99938324               -0.04069251
               6.05458512                8.99992412                3.00268179                0.00010000               -0.36410267                0.04326889                0.17955029                0.01562226                4.03035888                0.02041339
               7.04768062                8.99809292                3.01613029                0.00010000               -0.76627916                0.00104865                0.82171534               -0.08587582                4.23670510                0.07111942
               8.03925954                8.99666897                3.03224784                0.00010000               -0.48692614               -0.11291147                0.58380009               -0.14771380                2.34838408               -0.12263050
               9.03794210                8.99873385                3.00704254                0.00010000               -0.04057059               -0.05479493                0.21889047               -0.02803547                0.13069970                0.03840571
              10.03844813                9.00103796                2.98076059                0.00010000                0.05060304                0.13488770               -0.56638071               -0.06964860                0.06465937                0.03932270
               0.03188802                9.99716172                3.01901921                0.00010000               -0.04209249               -0.18269948                0.58171013                0.11779658                0.11386156               -0.00640540
               1.03146709               10.00352750                2.99419798                0.00010000                0.04233482                0.09929350               -0.39494422                0.11394491                0.34403091                0.05011816
               2.03273471               10.00847780                2.97367358                1.00000000               -0.13264975                0.32070196               -1.25016981               -0.04212252                1.52763290                0.15715972
               3.02881410               10.01061065                2.97177386                0.00010000                0.85968250                0.23048707               -1.61367741               -0.46536081                3.09000712                0.13386783
               4.04992836               10.00421589                2.97959462                0.00010000                1.42512029                0.00632791               -1.17354134               -0.19591461                4.07702177               -0.17295069
               5.05731650               10.00250725                2.99286979                0.00010000                0.33572596                0.07230075               -0.38974516                0.04737005                4.21440776               -0.02655367
               6.05664288               10.00045563                3.00307983                0.00010000               -0.43200810                0.05315057                0.23106361                0.00909183                4.23654066                0.03674853
               7.04867634                9.99857357                3.01786489                0.00010000               -0.97410097                0.04806496                0.92691382               -0.12260616                4.40689146                0.15241418
               8.03716086                9.99601206                3.03395356                0.00010000               -0.69692722               -0.06569126                0.73756956               -0.24806864                2.46436299               -0.20796671
               9.03473780                9.99780954                3.01085977                0.00010000               -0.13463266               -0.09243012                0.48809215                0.00566804                0.23750673                0.02491797
              10.03446821               10.00253402                2.98452410                0.00010000               -0.02695868                0.14960553               -0.41090708                0.07445566                0.06764372               -0.01065197
               0.03617528                0.03185577                4.07025732                1.00000000               -0.43628199               -0.50252826                1.72014437               -0.10489338               -0.23491078                0.27516766
               1.03181246                0.02175100                4.05048233                1.00000000               -0.35761013               -0.36413109                1.26281938               -0.08518542               -0.26273972               -0.01372464
               2.02902307                0.01143368                4.02998619                1.00000000               -0.19744185               -0.23959015                0.81372268               -0.06630881               -0.23471383               -0.15389357
               3.02786362                0.00141364                4.01073265                0.00010000                0.17641733               -0.12732836                0.37254716                0.17401188                0.30297832               -0.13861444
               4.03255142               -0.00374009                4.00098068                0.00010000                0.45081032               -0.19420987                0.16286375                0.09694365                1.00651136               -0.00822525
               5.03687983               -0.00497254                3.99382406                0.00010000                0.25635632               -0.02877501               -0.14884803               -0.01044515                1.06938621                0.00471098
               6.03767855               -0.00589355                3.98484855                0.00010000                0.01019801                0.15939799               -0.50652350                0.02278979                0.95940282                0.03292178
               7.03708379               -0.00975387                3.97472591                0.00010000                0.04428882                0.27322429               -0.80719537                0.08022007                0.61677070                0.01118922
               8.03856432               -0.01663733                3.95839856                1.00000000                0.25593213                0.32788525               -1.13700644               -0.00977836                0.13128004                0.20191791
               9.04220243               -0.02470838                3.93869866                1.00000000                0.43254686                0.42961120               -1.51054903               -0.06917175               -0.07635999                0.02095990
              10.04721526               -0.03260762                3.91835215                1.00000000                0.50128320                0.55415429               -1.90090956               -0.09139341               -0.12084475               -0.14965233
               0.04523111                1.02683048                4.06421661                1.00000000               -0.40594599               -0.47651368                1.59856490               -0.04743738               -0.00604174                0.38214605
               1.04117165                1.01810969                4.04411208                1.00000000               -0.33512198               -0.34062711                1.13575617               -0.03636322                0.04355239               -0.01240952
               2.03852867                1.00903777                4.02475491                1.00000000               -0.19905118               -0.21514628                0.69415266               -0.01707448                0.21456400               -0.35798397
               3.03719062                1.00014035                4.00808384                0.00010000               -0.09073605               -0.10362101                0.29741339                0.16286764                0.82701904               -0.41221804
               4.03671395                0.99431781                4.00122191                0.00010000                0.03307392               -0.01384438                0.12203589                0.45986963                1.35231941               -0.22726097
               5.03785210                0.99473971                3.99554436                0.00010000                0.17915811                0.00052620               -0.14728593                0.62235427                1.32543409               -0.16048669
               6.04029711                0.99570043                3.98795593                0.00010000                0.27028879                0.03174412               -0.46251044                0.50453489                1.16966485               -0.05356620
               7.04325788                0.99297837                3.97873618                0.00010000                0.28233426                0.25496539               -0.72635436                0.24744161                0.95651389                0.27267839
               8.04594379                0.98664152                3.96575319                1.00000000                0.31189882                0.30139958               -0.98217355                0.02807394                0.45353070                0.23895368
               9.04949585                0.97958774                3.94583588                1.00000000                0.41283870                0.40293278               -1.36831459               -0.01897590                0.09024661                0.06209456
              10.05420057                0.97293393                3.92542535                1.00000000                0.47047136                0.53193027               -1.77246648               -0.03383860                0.05205935               -0.17954037
               0.05266811                2.02232549                4.06017017                1.00000000               -0.37902136               -0.41787967                1.48842369               -0.06454893                0.04034200                0.49448921
               1.04887790                2.01493846                4.03777669                1.00000000               -0.30085970               -0.29000946                0.99369190               -0.05585319                0.07099450               -0.01683004
               2.04665092                2.00713075                4.01567658                0.00010000               -0.15184803               -0.16779090                0.50654977               -0.02649529                0.43802875               -0.57214592
               3.04584094                1.99934122                4.00066049                0.00010000                0.02492690               -0.08624071                0.13156239                0.31207642                1.42423218               -0.78018969
               4.04714946                1.99598302                3.99792458                0.00010000                0.10516738                0.15280036               -0.08187979                0.74486284                1.91737434               -0.38087216
               5.04794429                1.99503798                3.99428815                0.00010000                0.11905605                0.05703408               -0.22138451                0.89232253                1.78055271               -0.27651262
               6.04953058                1.99474133                3.98959673                0.00010000                0.15736200               -0.02781082               -0.36329134                0.87752923                1.85260663               -0.10915184
               7.05109153                1.99534544                3.98757111                0.00010000                0.14929307                0.05876383               -0.44346826                0.46136190                1.45835903                0.13478860
               8.05251644                1.98939066                3.97366871                0.00010000                0.22194893                0.24913703               -0.80884241               -0.00911341                0.59579231                0.43415833
               9.05553051                1.98335028                3.95378543                1.00000000                0.36648345                0.34334299               -1.22574827               -0.04193871                0.22096156                0.22952429
              10.05984611                1.97803099                3.93211692                1.00000000                0.43156033                0.48436528               -1.64161754               -0.04432059                0.11541257               -0.19389876
               0.05871419                3.01847289                4.05642754                1.00000000               -0.34648695               -0.35334572                1.37108173               -0.06862730                0.04793409                0.48695251
               1.05524933                3.01230950                4.03136449                1.00000000               -0.25590957               -0.23421829                0.83101409               -0.05694624                0.06194966               -0.02304875
               2.05359600                3.00568196                4.00622562                0.33574364               -0.03347202               -0.11816535                0.29426772               -0.05448211                0.58271758               -0.55103060
               3.05457988                2.99841554                3.99171111                0.00010000                0.11592174                0.06653814               -0.08263018                0.38476621                2.02084051               -0.39996862
               4.05591444                2.99737381                3.99483814                0.00010000                0.11801765                0.13082722               -0.19401673                0.68767816                2.57834910               -0.28401961
               5.05694024                2.99588039                3.99366138                0.00010000                0.08128995                0.09767285               -0.25028706                0.71826156                2.27290625               -0.20552839
               6.05754024                2.99514421                3.99155929                0.00010000                0.04477755                0.05014599               -0.31168062                0.67363590                2.16205884               -0.06815230
               7.05783579                2.99415365                3.98845978                0.00010000                0.01082243               -0.04680119               -0.34811216                0.45917004                2.05600061               -0.00987204
               8.05775669                2.99162426                3.98452013                0.00010000                0.10904819                0.19358587               -0.52083501                0.07255547                1.30370384                0.74349654
               9.06001675                2.98645460                3.96401650                1.00000000                0.30980271                0.29327811               -1.05924611               -0.05836499                0.23351792                0.29924120
              10.06395274                2.98262123                3.93899659                1.00000000                0.39359870                0.41874494               -1.48789952               -0.03767079               -0.01215376               -0.19003240
               0.06362235                4.01525858                4.05263514                1.00000000               -0.30924365               -0.29763615                1.25358180               -0.06218910                0.05686193                0.43526709
               1.06052991                4.01025409                4.02508750                1.00000000               -0.20835532               -0.17974308                0.66182033               -0.04773920                0.07204587               -0.02854972
               2.05945524                4.00476744                3.99748387                0.00010000                0.06572488               -0.06220791                0.07475870                0.05472403                1.18563940               -0.48485142
               3.06184441                4.00067198                3.99244538                0.00010000                0.19914659                0.20908652               -0.25940214                0.33512018                2.50840357               -0.01814482
               4.06343817                3.99859956                3.99267303                0.00010000                0.13473561                0.13452307               -0.26798108                0.49589267                2.74831956               -0.21846495
               5.06453912                3.99699144                3.99337945                0.00010000                0.06459327                0.11028225               -0.26176442                0.55352697                2.72191885               -0.15539192
               6.06473004                3.99574425                3.99367762                0.00010000               -0.03721190                0.06769856               -0.23821812                0.52717376                2.70948588               -0.01018062
               7.06379488                3.99440942                3.99461723                0.00010000               -0.15317155                0.04992233               -0.21245240                0.41665754                2.87178848                0.26448564
               8.06166661                3.99326238                3.99812171                0.00010000               -0.02143218                0.14240610               -0.24358285                0.10563586                1.63037805                0.77202199
               9.06336624                3.98921584                3.97278271                1.00000000                0.25464090                0.25075159               -0.85853586               -0.04552790                0.10813891                0.20484783
              10.06675942                3.98640589                3.94564376                1.00000000                0.33931861                0.33629351               -1.31503073               -0.04086224                0.00177057               -0.21242665
               0.06747938                5.01252017                4.04859445                1.00000000               -0.26937062               -0.25913432                1.14048417               -0.05700909                0.07021772                0.35946713
               1.06478568                5.00871464                4.01889967                0.00010000               -0.16033926               -0.13204705                0.50271128               -0.03984066                0.09133828               -0.05185387
               2.06427260                5.00443780                3.98931444                0.00010000                0.13322469               -0.00686157               -0.12955457                0.11810398                1.54603543               -0.43601833
               3.06745017                5.00259727                3.98897401                0.00010000                0.26201177                0.13186920               -0.24196449                0.29710483                3.09253406               -0.36866362
               4.06951283                5.00006428                3.99046630                0.00010000                0.17079588                0.13113373               -0.31983051                0.29893299                3.16353213               -0.28201846
               5.07086609                4.99808604                3.99317528                0.00010000                0.05764525                0.10674896               -0.26647183                0.39152916                3.18960484               -0.13483732
               6.07066574                4.99649819                3.99643535                0.00010000               -0.11076361                0.07602234               -0.15159063                0.39318769                3.26778397                0.03677729
               7.06865081                4.99515210                4.00134579                0.00010000               -0.28013800                0.06850378               -0.05411281                0.34081744                3.49184617                0.27830889
               8.06506298                4.99447238                4.00880969                0.00010000               -0.13440644                0.10277103               -0.07068490                0.12038531                1.88668082                0.58947928
               9.06596269                4.99146963                3.98075224                0.00010000                0.18462142                0.19103492               -0.63033716               -0.02864628                0.07197829                0.15250779
              10.06875541                4.98934710                3.95157160                1.00000000                0.27927194                0.26003089               -1.12321937               -0.04096657                0.00712220               -0.22280860
               0.07009322                6.01007589                4.04418405                1.00000000               -0.22777542               -0.23288216                1.03179434               -0.06139977                0.07019442                0.28278388
               1.06781546                6.00761315                4.01258834                0.00010000               -0.10792654               -0.08899907                0.34340376               -0.04363071                0.11829260               -0.08088608
               2.06793469                6.00463021                3.98164064                0.00010000                0.21722809                0.03647534               -0.34031297                0.08505400                1.72571798               -0.41512106
               3.07216003                6.00330936                3.98227844                0.00010000                0.29966890                0.02527720               -0.02706079                0.24004309                3.71523851               -0.53547037
               4.07392807                6.00122224                3.98657657                0.00010000                0.18878831                0.10213318               -0.37373467                0.19423319                3.77013611               -0.36960319
               5.07593579                5.99912642                3.99271736                0.00010000                0.07998312                0.10251248               -0.28262417                0.26126269                3.72054200               -0.14105313
               6.07552773                5.99726470                3.99909285                0.00010000               -0.16493804                0.07048332               -0.06478695                0.27500568                3.78671111                0.04122609
               7.07263703                5.99577949                4.00750057                0.00010000               -0.38854732                0.04876468                0.09500191                0.26224342                4.05384165                0.24273612
               8.06775678                5.99531780                4.01865122                0.00010000               -0.23592186                0.05464722                0.11262364                0.09701366                2.11979393                0.51792228
               9.06791859                5.99303654                3.98822832                0.00010000                0.12141816                0.12421948               -0.40430679               -0.02500437                0.03598790                0.13282796
              10.07018515                5.99160651                3.95740766                1.00000000                0.22665507                0.19453466               -0.94092520               -0.03278948                0.02439811               -0.18765426
               0.07117686                7.00786252                4.03954174                1.00000000               -0.18181239               -0.20882068                0.92448718               -0.06903211                0.04989660                0.22849900
               1.06935874                7.00693466                4.00619849                0.00010000               -0.04497000               -0.04550972                0.15879215               -0.06294669                0.12282322               -0.07006752
               2.07027746                7.00516731                3.97396812                0.14188170                0.31501327                0.09061194               -0.61200291               -0.03526437                1.88185622               -0.34427744
               3.07565901                7.00310281                3.97560426                0.00010000                0.36514883               -0.00421875               -0.04771222                0.14818835                4.24321494               -0.57662193
               4.07758044                7.00210694                3.98192305                0.00010000                0.21949361                0.12526016               -0.47809278                0.19716330                4.31924488               -0.38439462
               5.08004888                7.00013629                3.99173932                0.00010000                0.09661688                0.10119946               -0.31121722                0.17264015                4.24666861               -0.13937488
               6.07951278                6.99790785                4.00136990                0.00010000               -0.21031469                0.05977121                0.01578459                0.16490911                4.28139734                0.03377501
               7.07584258                6.99612739                4.01310814                0.00010000               -0.48832887                0.01523697                0.24724052                0.16402594                4.57014387                0.20529363
               8.06974620                6.99556533                4.02775535                0.00010000               -0.33343458               -0.00779285                0.29790148                0.04458398                2.34536883                0.43023836
               9.06917389                6.99395402                3.99552274                0.00010000                0.06067431                0.06347630               -0.19358166               -0.03307108                0.00693688                0.13853479
              10.07095969                6.99323780                3.96327305                0.00010000                0.17857947                0.15087028               -0.79239747               -0.04047463                0.02395010               -0.13049243
               0.07056831                8.00589948                4.03487705                0.00010000               -0.13165584               -0.18917723                0.81816661               -0.07252579                0.05411796                0.19965934
               1.06925175                8.00670296                4.00032841                0.00010000                0.02464685                0.00980941               -0.05668728               -0.07402801                0.15951924               -0.01911411
               2.07106124                8.00644245                3.96748044                0.68971766                0.44662051                0.20546486               -0.97767958               -0.18901193                1.85120999               -0.19127070
               3.07818416                8.00322499                3.96597180                0.00010000                0.48883084                0.22392364               -0.76376492               -0.09421443                4.58407949               -1.08282320
               4.08083786                8.00372744                3.97697603                0.00010000                0.27017618                0.17655054               -0.65043838                0.18018887                4.89075384               -0.28776922
               5.08358768                8.00115041                3.99048748                0.00010000                0.09984718                0.09348349               -0.34185443                0.08350778                4.73585321               -0.11485170
               6.08283480                7.99846012                4.00324224                0.00010000               -0.26638041                0.06765357                0.08818163                0.06982940                4.73403409                0.03048342
               7.07826007                7.99608423                4.01802669                0.00010000               -0.60064846               -0.00651136                0.40853725                0.03557067                5.01619745                0.15560230
               8.07082184                7.99516194                4.03562867                0.00010000               -0.43376840               -0.10217314                0.53378751               -0.04112679                2.57321413                0.26048182
               9.06958471                7.99430607                4.00261246                0.00010000               -0.00068686                0.00653693                0.00339148               -0.04645452                0.02554526                0.13387184
              10.07080810                7.99462391                3.96916853                0.00010000                0.12233919                0.13810441               -0.67995620               -0.04832495                0.01779704               -0.08773590
               0.06811939                9.00407898                4.03020600                0.00010000               -0.07841809               -0.17868120                0.70985423               -0.05956568                0.09232277                0.15193169
               1.06733521                9.00713085                3.99497015                0.00010000                0.09279030                0.08589440               -0.29370744               -0.04626696                0.24631188                0.00710860
               2.06997519                9.00927660                3.96219249                0.00010000                0.45772603                0.37901703               -1.37682407               -0.20963049                1.40184582               -0.07026324
               3.07648973                9.00758129                3.94839813                0.00010000                0.66418028                0.61819917               -1.96262417               -0.29362399                4.67045205               -0.89186193
               4.08325880                9.00563795                3.97316697                0.00010000                0.52483112                0.12999920               -0.79277407                0.00986509                5.76029674               -0.18356881
               5.08698635                9.00200596                3.98926115                0.00010000                0.13583726                0.09103517               -0.36482721                0.02370635                5.12804148               -0.06560158
               6.08597554                8.99926092                4.00476613                0.00010000               -0.35670850                0.07736129                0.15433240                0.01421845                5.13342147                0.03148141
               7.07985218                8.99599716                4.02202486                0.00010000               -0.76368574                0.06781582                0.53932886               -0.07458747                5.35754018                0.07688630
               8.07070183                8.99352187                4.04137041                0.00010000               -0.55346732               -0.26190982                0.93359432               -0.18669450                2.85391479                0.10440947
               9.06878283                8.99408476                4.00940043                0.00010000               -0.06721645               -0.06498023                0.22274688               -0.04934853                0.14175147                0.09438497
              10.06935750                8.99599988                3.97484189                0.00010000                0.05746669                0.13706607               -0.56450509               -0.05113842                0.01227192               -0.07743248
               0.06327326               10.00232585                4.02470627                0.00010000               -0.01444730               -0.17531254                0.53352241                0.12488637                0.19363419                0.12206211
               1.06312879               10.00842085                3.98944251                0.00010000                0.15724671                0.12899995               -0.51691207                0.16420483                0.37567918                0.01451422
               2.06641819               10.01402279                3.95718995                1.00000000                0.64107726                0.47461889               -1.60339310                0.00270634                1.50259027               -0.01179688
               3.07595033               10.01558897                3.94268060                0.00010000                1.00961508                0.80076859               -2.23296690               -0.43870795                4.90748031               -0.28558530
               4.08661049               10.00632742                3.97005722                0.00010000                0.72442523                0.06894742               -0.89199476               -0.29572347                6.11977852               -0.14335345
               5.09043884               10.00297111                3.98860303                0.00010000                0.12587348                0.09651568               -0.36208130                0.02924490                5.45184676               -0.03024461
               6.08912796               10.00000735                4.00585482                0.00010000               -0.39657266                0.07464263                0.21728908                0.03871378                5.43623264                0.03758697
               7.08250738                9.99744055                4.02476262                0.00010000               -1.00638055                0.14433828                0.65357404               -0.23865992                5.72388112                0.07278058
               8.06900035                9.98992375                4.04644283                0.00010000               -0.81938323               -0.35981201                1.22755868               -0.39185185                3.11756916               -0.04051939
               9.06611972                9.99300646                4.01566793                0.00010000               -0.15226388               -0.10782944                0.46232288                0.10576279                0.28381627                0.06734399
              10.06595508                9.99736523                3.98068795                0.00010000               -0.01646422                0.13653488               -0.36530489                0.09563457                0.07895174               -0.08008690
               0.05579859                0.04143641                5.08730935                1.00000000               -0.43081293               -0.49283036                1.68641667               -0.09818716               -0.26302240                0.31310309
               1.05149046                0.02862612                5.06312952                1.00000000               -0.35445326               -0.36446911                1.26370807               -0.07561895               -0.29056702               -0.01417013
               2.04870953                0.01556667                5.03827928                1.00000000               -0.19528583               -0.24740980                0.83960815               -0.05799078               -0.25331936               -0.18039027
               3.04758474                0.00286279                5.01482733                0.00010000                0.22341596               -0.15362670                0.43759494                0.22325991                0.39500364               -0.16619134
               4.05317784               -0.00394062                5.00288307                0.00010000                0.49616321               -0.22237637                0.20861690                0.07878132                1.12724951               -0.01696788
               5.05750801               -0.00663610                4.99246227                0.00010000                0.27107456               -0.03912664               -0.12916914               -0.01775071                1.07837231                0.00446085
               6.05859934               -0.00887557                4.97974879                0.00010000                0.03651227                0.14431622               -0.50628336                0.01228900                0.95619772                0.02957668
               7.05823825               -0.01393797                4.96649930                0.00010000                0.05493618                0.26003593               -0.82389542                0.07513153                0.63761368                0.02670443
               8.05969806               -0.02246246                4.94698636                1.00000000                0.25338128                0.33913833               -1.14855570                0.00103594                0.13117056                0.23842718
               9.06330588               -0.03227635                4.92366075                1.00000000                0.42718894                0.43139485               -1.50133760               -0.05748721               -0.10130828                0.02712153
              10.06824184               -0.04195596                4.89955189                1.00000000                0.49359583                0.54375266               -1.86161871               -0.08269718               -0.14729250               -0.17467468
               0.06762702                1.03650811                5.07997742                1.00000000               -0.39578713               -0.47043646                1.55304443               -0.04430872               -0.00509010                0.43276169
               1.06366914                1.02498143                5.05541765                1.00000000               -0.33078686               -0.34087360                1.12592875               -0.02945373                0.05341312               -0.01535054
               2.06101128                1.01309257                5.03183553                1.00000000               -0.20490779               -0.22052922                0.71852363               -0.01451583                0.25802570               -0.41189657
               3.05957099                1.00132653                5.01140274                0.00010000               -0.11480874               -0.14099844                0.34886501                0.22853202                0.99750195               -0.46815923
               4.05871510                0.99383561                5.00281765                0.00010000                0.01134929               -0.02693305                0.17996946                0.52663468                1.54140367               -0.29711641
               5.05979797                0.99297264                4.99421798                0.00010000                0.18290288               -0.00775285               -0.12402914                0.66760142                1.40646683               -0.18791632
               6.06237316                0.99256759                4.98323530                0.00010000                0.29925216                0.02509112               -0.46961214                0.54279844                1.24470704               -0.03299947
               7.06578302                0.98866239                4.97133499                0.00010000                0.32522250                0.26980551               -0.74445030                0.29876068                1.04973868                0.33428670
               8.06887761                0.98092892                4.95567903                1.00000000                0.33473680                0.31236601               -1.01824285                0.05678685                0.50827104                0.28917833
               9.07247775                0.97203759                4.93215638                1.00000000                0.41084280                0.40717485               -1.36463788               -0.01156446                0.08691127                0.07110462
              10.07709447                0.96348157                4.90797848                1.00000000                0.46167137                0.52386240               -1.72524298               -0.03079083                0.04669049               -0.20728527
               0.07796578                2.03202768                5.07482967                1.00000000               -0.36488584               -0.42306263                1.44281533               -0.05745781                0.04196398                0.55834392
               1.07431693                2.02180864                5.04766232                1.00000000               -0.29458390               -0.29282821                0.98354689               -0.04653780                0.07443188               -0.02855307
               2.07207411                2.01115608                5.02088256                0.00010000               -0.14522928               -0.16757085                0.53607639               -0.04419011                0.50496058               -0.66822064
               3.07141234                2.00004283                5.00237108                0.00010000               -0.00048384               -0.10696694                0.19108176                0.36708454                1.60657463               -0.90466291
               4.07206443                1.99552072                4.99748242                0.00010000                0.03578582                0.16218654               -0.00258848                0.88497179                2.20392893               -0.50443914
               5.07212806                1.99320885                4.99220894                0.00010000                0.08505603                0.06090092               -0.15983590                0.99695532                2.04818952               -0.33215021
               6.07376555                1.99162626                4.98575592                0.00010000                0.18620429               -0.01815080               -0.43217575                0.98861639                2.14476855               -0.07562761
               7.07585214                1.99145814                4.98253636                0.00010000                0.18465211                0.07150533               -0.52824308                0.54966482                1.64145357                0.21589142
               8.07745859                1.98378486                4.96523197                0.00010000                0.23348983                0.25547886               -0.85946593                0.01413374                0.63234758                0.54797212
               9.08052194                1.97586714                4.94152877                1.00000000                0.36397375                0.35694006               -1.22212627               -0.02499831                0.22244867                0.24937648
              10.08473807                1.96852129                4.91595524                1.00000000                0.42161281                0.48076841               -1.59731782               -0.03804284                0.12025944               -0.21995537
               0.08691594                3.02804686                5.06993045                1.00000000               -0.33059497               -0.37347225                1.32935635               -0.06064447                0.04150663                0.55912029
               1.08360999                3.01912486                5.03967265                1.00000000               -0.25113218               -0.24308167                0.82879348               -0.04757410                0.05299642               -0.03931908
               2.08189329                3.00974115                5.00935559                0.60240618               -0.05309716               -0.11433499                0.32918012               -0.07549311                0.63807979               -0.65965622
               3.08254805                2.99918719                4.99091459                0.00010000                0.06776124                0.09013234               -0.05449823                0.39139275                2.24155438               -0.49572058
               4.08324852                2.99707935                4.99325105                0.00010000                0.05417487                0.15137331               -0.13498290                0.79925538                2.97958232               -0.38124328
               5.08363154                2.99419065                4.99115719                0.00010000                0.03238369                0.11716246               -0.23720850                0.83160911                2.66033221               -0.25011875
               6.08389619                2.99220458                4.98845573                0.00010000                0.04930847                0.06388421               -0.32182840                0.78436968                2.52511424               -0.04372137
               7.08461771                2.99009250                4.98434838                0.00010000                0.04275457               -0.05238336               -0.43976068                0.54063625                2.41143501                0.02437697
               8.08475128                2.98603850                4.97893853                0.00010000                0.13118195                0.20871912               -0.60743353                0.13924649                1.36856762                0.88157092
               9.08724135                2.97917639                4.95350460                1.00000000                0.31370130                0.30959845               -1.04603371               -0.02779243                0.19011836                0.33222838
              10.09102531                2.97309694                4.92428181                1.00000000                0.37839594                0.42343892               -1.45374613               -0.03624304               -0.01249993               -0.20509125
               0.09459689                4.02455824                5.06497251                1.00000000               -0.29257390               -0.32980296                1.21513220               -0.05839112                0.04593767                0.52584015
               1.09167115                4.01694701                5.03177544                1.00000000               -0.20474851               -0.19363195                0.66960374               -0.04189835                0.05839955               -0.03755947
               2.09050192                4.00886938                4.99852437                0.00010000                0.01154276               -0.05799368                0.12401713                0.04260456                1.28422894               -0.58839818
               3.09190200                4.00184547                4.99000731                0.00010000                0.12720775                0.24775704               -0.21320425                0.37806508                2.86951803               -0.04139358
               4.09304607                3.99854818                4.99020554                0.00010000                0.08665013                0.15938720               -0.23257949                0.61539765                3.25657841               -0.27423738
               5.09363501                3.99555209                4.99076227                0.00010000                0.02525148                0.13542835               -0.25633842                0.65667545                3.20823679               -0.18177058
               6.09355110                3.99290394                4.99117484                0.00010000               -0.04020281                0.08244115               -0.26453157                0.63990203                3.19072186                0.00255537
               7.09283095                3.99041047                4.99204963                0.00010000               -0.11957385                0.05611161               -0.28970673                0.51892374                3.32445009                0.34713309
               8.09115962                3.98795924                4.99497770                0.00010000                0.00383496                0.16877514               -0.35441670                0.17790656                1.77287911                0.86154453
               9.09290765                3.98205911                4.96420933                1.00000000                0.25062471                0.26102911               -0.85436484               -0.02566447                0.05092102                0.24962283
              10.09617212                3.97699007                4.93264846                1.00000000                0.32644697                0.35496765               -1.28682920               -0.03744557                0.00009908               -0.22650434
               0.10097057                5.02145080                5.05982755                1.00000000               -0.25096950               -0.29634478                1.10457951               -0.05899298                0.06129276                0.47172792
               1.09846088                5.01525222                5.02399336                0.00010000               -0.15618238               -0.14555671                0.51067550               -0.03949273                0.08610453               -0.05339127
               2.09784692                5.00858128                4.98833147                0.00010000                0.09848353               -0.00052961               -0.07555518                0.10848362                1.79925973               -0.53514361
               3.10043055                5.00414233                4.98694624                0.00010000                0.20014630                0.17838535               -0.19806991                0.36109409                3.54110418               -0.29061335
               4.10184985                5.00026709                4.98765261                0.00010000                0.09893743                0.16813694               -0.26953310                0.45945509                3.67966978               -0.27743606
               5.10240930                4.99689922                4.99057618                0.00010000               -0.00069979                0.13759229               -0.25484966                0.49165965                3.77305143               -0.16033908
               6.10183585                4.99385340                4.99467227                0.00010000               -0.12342043                0.09947656               -0.19509324                0.48157914                3.86057315                0.05577164
               7.09994089                4.99121473                5.00021896                0.00010000               -0.25875381                0.08085515               -0.14536167                0.43551882                4.03082617                0.35304033
               8.09666078                4.98941400                5.00776841                0.00010000               -0.11218286                0.11578621               -0.13487439                0.16530894                2.10059674                0.66752664
               9.09769723                4.98439698                4.97434106                0.00010000                0.18768514                0.20173917               -0.64527576               -0.02406232                0.03555524                0.20256283
              10.10041448                4.98019629                4.94040547                1.00000000                0.27172509                0.29111652               -1.11133375               -0.03832352                0.00281561               -0.24872648
               0.10581418                6.01863134                5.05435576                1.00000000               -0.20633671               -0.26627211                0.99503782               -0.06339527                0.06611144                0.41442333
               1.10375081                6.01403588                5.01599819                0.00010000               -0.10163485               -0.09728531                0.33935435               -0.04622112                0.12551288               -0.08848675
               2.10378148                6.00885879                4.97847553                0.00010000                0.18436318                0.05220982               -0.29708543                0.08224861                2.11741046               -0.54061591
               3.10743808                6.00541318                4.98013837                0.00010000                0.28483999                0.13283641               -0.25912723                0.28299039                4.11001195               -0.47973465
               4.10947828                6.00191092                4.98398391                0.00010000                0.12219055                0.16761153               -0.27380289                0.33339995                4.29557123               -0.35816989
               5.10988189                5.99830394                4.99008750                0.00010000               -0.03055525                0.14430038               -0.24852848                0.33349421                4.38464306               -0.16924426
               6.10886718                5.99489347                4.99807463                0.00010000               -0.19505792                0.10155110               -0.12174068                0.33330553                4.50253766                0.05821763
               7.10598073                5.99202758                5.00783838                0.00010000               -0.37918108                0.06764894                0.00032699                0.32278687                4.67989879                0.31712324
               8.10128355                5.99027496                5.01963064                0.00010000               -0.21683089                0.05382830                0.08008469                0.11949299                2.41689094                0.59035085
               9.10164411                5.98609390                4.98396490                0.00010000                0.12617318                0.13939350               -0.43558830               -0.02508261                0.03931507                0.17469834
              10.10380702                5.98281240                4.94793214                1.00000000                0.21629083                0.23329485               -0.94458236               -0.03473779                0.01344698               -0.24333913
               0.10889360                7.01612536                5.04862273                1.00000000               -0.15845932               -0.23137471                0.87981726               -0.06688073                0.04729125                0.37728349
               1.10730901                7.01330652                5.00767474                0.00010000               -0.03895028               -0.04738012                0.14436046               -0.05912496                0.13046066               -0.09791258
               2.10811459                7.00962548                4.96801900                0.00010000                0.28646091                0.11658210               -0.57302975                0.02039419                2.37091454               -0.53464056
               3.11303823                7.00679906                4.97212534                0.00010000                0.37562472                0.20763867               -0.41735499                0.12117576                4.61097097               -0.71721617
               4.11562709                7.00361932                4.97881014                0.00010000                0.15292036                0.19043562               -0.33280555                0.16385684                4.89199249               -0.43517428
               5.11609663                6.99978523                4.98899089                0.00010000               -0.04243800                0.14745428               -0.25267222                0.18077369                5.02303780               -0.17074470
               6.11477833                6.99588442                5.00107477                0.00010000               -0.25407498                0.09551055               -0.04927297                0.18479394                5.12819065                0.05005470
               7.11101513                6.99256771                5.01494734                0.00010000               -0.48970041                0.03601738                0.15054863                0.18508178                5.29947865                0.27957659
               8.10498432                6.99049057                5.03086664                0.00010000               -0.31784959               -0.02050500                0.30536731                0.04840815                2.72959350                0.51434714
               9.10465814                6.98718485                4.99333836                0.00010000                0.06491965                0.08056476               -0.23001104               -0.03169682                0.04652230                0.16250341
              10.10628271                6.98486219                4.95525571                0.00010000                0.16245730                0.18501536               -0.79471204               -0.03695532                0.00903269               -0.22788296
               0.11011424                8.01400385                5.04281520                0.00010000               -0.10460514               -0.19636150                0.75650948               -0.06653806                0.04507884                0.36147620
               1.10906819                8.01308827                4.99955184                0.00010000                0.02912901                0.01280567               -0.07822022               -0.05984956                0.14453525               -0.07429048
               2.11069682                8.01119043                4.95788355                0.27532122                0.33997771                0.22652644               -0.92069275               -0.01652342                2.30133662               -0.45481384
               3.11586775                8.00956595                4.95811722                0.00010000                0.45362115                0.34803406               -0.67818584               -0.23688554                4.94470694               -1.33773615
               4.11976925                8.00571963                4.97211647                0.00010000                0.26822550                0.18903617               -0.48243654               -0.08806428                5.66971256               -0.44086202
               5.12123226                8.00125303                4.98755321                0.00010000                0.00056648                0.12857170               -0.27197095                0.04558757                5.66878237               -0.13895344
               6.11978058                7.99680368                5.00363181                0.00010000               -0.30780175                0.10283731                0.01955546                0.06032070                5.71709046                0.04281049
               7.11507622                7.99274792                5.02145349                0.00010000               -0.60729991                0.01635062                0.30699553                0.01365954                5.88640428                0.21793036
               8.10763458                7.98986486                5.04132426                0.00010000               -0.42188355               -0.12737832                0.57190447               -0.05323978                3.04774905                0.41510229
               9.10663855                7.98770519                5.00245872                0.00010000                0.00393249                0.01906155               -0.02700047               -0.03523238                0.07215834                0.15770888
              10.10771323                7.98651271                4.96246128                0.00010000                0.10746780                0.15538518               -0.65684629               -0.04285166                0.00697578               -0.22242657
               0.10939399                9.01219813                5.03695802                0.00010000               -0.04685574               -0.17007152                0.62763249               -0.05485095                0.06593364                0.29292448
               1.10892543                9.01356263                4.99166610                0.00010000                0.09562293                0.08923887               -0.32319122               -0.03066577                0.19658732               -0.05631179
               2.11130645                9.01415600                4.94857742                0.00010000                0.24229409                0.35282520               -1.28626306               -0.04756416                1.74462022               -0.29697816
               3.11377131                9.01375974                4.93473811                0.00010000                0.54361413                0.33840302               -0.99304508               -0.42636366                5.19996103               -1.08880053
               4.12217873                9.00740004                4.96583603                0.00010000                0.60765117                0.09243381               -0.67220503               -0.23854074                6.85674040               -0.32371800
               5.12592434                9.00235666                4.98624248                0.00010000                0.11555571                0.09827883               -0.29116618               -0.00676440                6.24057253               -0.07277352
               6.12448984                8.99794117                5.00576844                0.00010000               -0.38485975                0.11131575                0.08090407               -0.00172851                6.23254757                0.03103489
               7.11822714                8.99289472                5.02691687                0.00010000               -0.77637924                0.09028680                0.45808617               -0.12542231                6.43667758                0.11646999
               8.10896226                8.98794300                5.05091972                0.00010000               -0.54607469               -0.24040180                0.90835319               -0.21781441                3.40373308                0.26413402
               9.10730565                8.98756608                5.01149748                0.00010000               -0.05758076               -0.05418820                0.19215783               -0.02213230                0.12472002                0.13941065
              10.10781064                8.98796989                4.96947049                0.00010000                0.05049963                0.13637303               -0.51507227               -0.04491939               -0.00945119               -0.18941557
               0.10628822               10.01060242                5.02968966                0.00010000                0.02087803               -0.15957067                0.45051712                0.11648616                0.24228629                0.24058896
               1.10649700               10.01487305                4.98385974                0.00010000                0.16301068                0.13104225               -0.54628840                0.13938257                0.44061346               -0.05478827
               2.10954843               10.01824694                4.94160572                0.00010000                0.37997184                0.40909328               -1.48061149               -0.10275355                1.98256812               -0.22772270
               3.11409643               10.01633401                4.92711453                0.00010000                0.84265384                0.25742743               -1.20418790               -0.50141920                5.49327753               -0.61085763
               4.12640151               10.00756831                4.96175473                0.00010000                0.82297037                0.01682675               -0.74806431               -0.23349274                7.32289438               -0.26203888
               5.13055584               10.00321860                4.98562817                0.00010000                0.14032207                0.08619396               -0.29472170                0.03623481                6.66816987               -0.03636296
               6.12920795                9.99903000                5.00742562                0.00010000               -0.39949482                0.10888266                0.13463406                0.03856340                6.63869573                0.03665681
               7.12256595                9.99455366                5.03093637                0.00010000               -1.03005086                0.16589404                0.58100905               -0.26477805                6.91997277                0.07222701
               8.10860693                9.98505683                5.05850474                0.00010000               -0.81984674               -0.28861721                1.13214231               -0.43214443                3.80698125                0.21098364
               9.10616901                9.98662143                5.02010622                0.00010000               -0.12998603               -0.09446520                0.41509964                0.09550338                0.32127404                0.13096761
              10.10600721                9.98924017                4.97721800                0.00010000               -0.01617993                0.12702761               -0.32880158                0.08153099                0.09927366               -0.16073159
               0.07927447                0.05278169                6.10398565                1.00000000               -0.42432926               -0.48162901                1.64820124               -0.09159606               -0.30201094                0.35597213
               1.07503118                0.03689136                6.07575649                1.00000000               -0.35077976               -0.36214677                1.25825302               -0.06835315               -0.33274821               -0.01328103
               2.07225888                0.02071339                6.04677835                1.00000000               -0.19356374               -0.25168163                0.85454562               -0.05309646               -0.28415098               -0.19636721
               3.07115991                0.00493900                6.01948455                0.00010000                0.26012966               -0.17055842                0.48218482                0.26676275                0.45114155               -0.19751079
               4.07746147               -0.00394862                6.00515301                0.00010000                0.52108224               -0.22752586                0.23406473                0.05984309                1.17729332               -0.02056160
               5.08158155               -0.00839474                5.99124067                0.00010000                0.26520000               -0.03705408               -0.11762615               -0.01809757                1.04244373                0.00268972
               6.08276547               -0.01227504                5.97472288                0.00010000                0.05084693                0.13083517               -0.49549382                0.00605676                0.91885415                0.02332061
               7.08259849               -0.01889115                5.95824800                0.00010000                0.06304093                0.25182035               -0.82505127                0.07208931                0.62062047                0.02780610
               8.08402629               -0.02925413                5.93542745                1.00000000                0.25061227                0.34336099               -1.15788832                0.01284961                0.10227058                0.26445115
               9.08761074               -0.04115722                5.90867191                1.00000000                0.42304199                0.42990259               -1.49529398               -0.05261797               -0.13783554                0.03000087
              10.09248713               -0.05295428                5.88111978                1.00000000                0.48763946                0.53391495               -1.82993091               -0.07940006               -0.18307588               -0.20576253
               0.09424885                1.04796540                6.09527750                1.00000000               -0.38670449               -0.46211784                1.50880185               -0.04117014               -0.01023916                0.49002796
               1.09038180                1.03326989                6.06663066                1.00000000               -0.32723778               -0.33894824                1.11560502               -0.02431814                0.05528504               -0.01304411
               2.08770409                1.01819657                6.03912538                1.00000000               -0.21116327               -0.22335567                0.73547264               -0.01269920                0.28256894               -0.45288184
               3.08615854                1.00323342                6.01506114                0.00010000               -0.14886575               -0.16014467                0.37659795                0.28961061                1.13456483               -0.51817742
               4.08472678                0.99377612                6.00482129                1.00000000               -0.02973741               -0.02952734                0.20701870                0.59650043                1.68309304               -0.34784954
               5.08556379                0.99123472                5.99306378                1.00000000                0.16737339               -0.00747416               -0.11116531                0.71551081                1.43908540               -0.18233323
               6.08807424                0.98903331                5.97856369                0.90148477                0.31225688                0.01416999               -0.46104661                0.58626973                1.27978513               -0.06083064
               7.09180893                0.98362705                5.96384717                0.00010000                0.36067881                0.27705135               -0.74817032                0.34961198                1.10924243                0.39662138
               8.09528782                0.97417948                5.94538834                1.00000000                0.35628547                0.31723673               -1.03194302                0.08297246                0.53905296                0.32356959
               9.09893463                0.96314181                5.91854313                1.00000000                0.41011881                0.40734038               -1.35649723               -0.00745759                0.08478264                0.07425786
              10.10349020                0.95238487                5.89092049                1.00000000                0.45555612                0.51414163               -1.69121518               -0.03013334                0.04075135               -0.24240109
               0.10784209                2.04353933                6.08902648                1.00000000               -0.35284446               -0.42264763                1.39835548               -0.05213983                0.04028295                0.63120587
               1.10431365                2.03011239                6.05744762                1.00000000               -0.29003641               -0.29299436                0.97348594               -0.03953713                0.07761463               -0.02984518
               2.10204136                2.01624627                6.02639811                0.00010000               -0.14705413               -0.16747737                0.56432032               -0.04823539                0.55826962               -0.75098563
               3.10137256                2.00173611                6.00448213                0.00010000               -0.03255907               -0.11842585                0.22472615                0.42857688                1.77530364               -1.00650423
               4.10139018                1.99546083                5.99787281                0.00010000               -0.03689918                0.16248555                0.10534272                1.01281868                2.46463627               -0.62139145
               5.10063458                1.99145577                5.99109143                0.00010000                0.03541739                0.05449826               -0.00710073                1.09629713                2.17838539               -0.34796320
               6.10209853                1.98800836                5.98095321                0.00010000                0.19049874               -0.00912206               -0.56109920                1.09855935                2.29672780               -0.08244798
               7.10444456                1.98664988                5.97700625                0.00010000                0.20362267                0.07504328               -0.56097670                0.64275078                1.81124321                0.26602567
               8.10617098                1.97709061                5.95647939                0.00010000                0.24058229                0.26652294               -0.88063369                0.05118548                0.66632637                0.62364827
               9.10925620                1.96698959                5.92934291                1.00000000                0.36136826                0.36383969               -1.21304296               -0.01104287                0.23479640                0.26890128
              10.11339835                1.95732855                5.90017056                1.00000000                0.41421471                0.47206626               -1.56367808               -0.03319727                0.12686034               -0.25507583
               0.12005993                3.03951245                6.08301467                1.00000000               -0.31758134               -0.38305252                1.28834143               -0.05558620                0.03662265                0.63798796
               1.11688412                3.02741000                6.04794036                1.00000000               -0.24721336               -0.24650946                0.82352321               -0.04165115                0.04561590               -0.04450767
               2.11511566                3.01484702                6.01280922                0.91942643               -0.06843037               -0.11113366                0.35873335               -0.08392607                0.68550386               -0.75619719
               3.11551551                3.00086490                5.99062115                0.00010000                0.00739102                0.10381734               -0.00313524                0.41799211                2.50004153               -0.60888640
               4.11526348                2.99702583                5.99213848                0.00010000               -0.02866515                0.16262118               -0.08501912                0.89421873                3.33834352               -0.47989767
               5.11494221                2.99232468                5.98891721                0.00010000               -0.02060781                0.12406304               -0.21618349                0.94625033                2.99669455               -0.32391500
               6.11485133                2.98885087                5.98512272                0.00010000                0.03197415                0.07852317               -0.32711393                0.89809107                2.84217541                0.00340852
               7.11558169                2.98512792                5.97966456                0.00010000                0.05602434               -0.05841882               -0.48850687                0.63477688                2.65981788                0.04470409
               8.11597182                2.97950994                5.97237146                0.00010000                0.14470731                0.22863904               -0.67714598                0.20420950                1.48536955                1.01650644
               9.11847584                2.97041860                5.94309582                1.00000000                0.30882590                0.31911268               -1.03493749               -0.01130258                0.19190888                0.36902282
              10.12214833                2.96182619                5.90992167                1.00000000                0.36724962                0.42117979               -1.42208149               -0.03500123               -0.01280093               -0.22732848
               0.13093526                4.03587828                6.07693778                1.00000000               -0.27892101               -0.34704823                1.17738198               -0.05392278                0.03923920                0.61616848
               1.12814605                4.02518220                6.03847957                1.00000000               -0.20136583               -0.19929720                0.66870819               -0.03674759                0.04874329               -0.04069162
               2.12690794                4.01402360                5.99996421                0.01433314               -0.02962267               -0.05316316                0.15972925                0.04097476                1.37635347               -0.68109323
               3.12755359                4.00381246                5.98818129                0.00010000                0.04534178                0.28945240               -0.17736497                0.40626323                3.22488794               -0.04960632
               4.12781478                3.99871326                5.98802144                0.00010000                0.00904793                0.18556769               -0.20605528                0.71686901                3.73201304               -0.31597462
               5.12773455                3.99393703                5.98825268                0.00010000               -0.02788311                0.16146737               -0.24609535                0.76154064                3.67106638               -0.20684977
               6.12725711                3.98957882                5.98838699                0.00010000               -0.06267668                0.09314798               -0.28696054                0.74637792                3.63334437                0.01041308
               7.12648102                3.98548150                5.98882310                0.00010000               -0.11463127                0.06481210               -0.34135555                0.63370380                3.71907274                0.39948715
               8.12496449                3.98166339                5.99103337                0.00010000                0.01164411                0.18300211               -0.41114645                0.24356703                1.93114544                0.99612291
               9.12671390                3.97337184                5.95569541                1.00000000                0.24593287                0.26733585               -0.84757792               -0.01751753                0.02997609                0.29466512
              10.12988315                3.96575214                5.91990718                1.00000000                0.31692451                0.36313519               -1.26296077               -0.03524118               -0.00095555               -0.24216794
               0.14037363                5.03257148                6.07068604                1.00000000               -0.23697865               -0.31545515                1.06545493               -0.05497638                0.05952253                0.57612974
               1.13800385                5.02342406                6.02911318                0.00010000               -0.15343650               -0.15100846                0.51141976               -0.03639121                0.08534457               -0.05871856
               2.13730490                5.01378376                5.98780333                0.00010000                0.04736334                0.00533857               -0.03323426                0.12323375                2.01657814               -0.64070120
               3.13895112                5.00665395                5.98501261                0.00010000                0.10856906                0.23615607               -0.18553749                0.41258637                3.98414792               -0.26631688
               4.13947629                5.00073719                5.98507564                0.00010000                0.01781713                0.20940246               -0.25317774                0.54878292                4.17959119               -0.28171538
               5.13930746                4.99555403                5.98807828                0.00010000               -0.06209322                0.16948949               -0.24957704                0.58900072                4.32210195               -0.16608216
               6.13823442                4.99071383                5.99253348                0.00010000               -0.15681295                0.12238647               -0.22417684                0.57203097                4.40984939                0.07304600
               7.13617120                4.98642416                5.99843856                0.00010000               -0.26408051                0.09560393               -0.19763752                0.53270695                4.54098511                0.40991096
               8.13295281                4.98316998                6.00611220                0.00010000               -0.10672339                0.11815971               -0.18159870                0.21723755                2.32369841                0.77537613
               9.13403673                4.97576532                5.96784673                0.00010000                0.18650482                0.20806825               -0.64948978               -0.01957991                0.01809792                0.25206822
              10.13668291                4.96908889                5.92934493                1.00000000                0.26461768                0.30686647               -1.09807202               -0.03581973               -0.00031762               -0.27412980
               0.14813058                6.02956918                6.06408481                1.00000000               -0.19246334               -0.28113638                0.94920380               -0.05846254                0.06695676                0.52927822
               1.14620595                6.02216203                6.01937543                0.00010000               -0.09939280               -0.10006499                0.33664117               -0.04354824                0.13122276               -0.10766966
               2.14614272                6.01413037                5.97569893                0.00010000                0.13229733                0.06413622               -0.25785981                0.11568994                2.42719289               -0.68735876
               3.14885189                6.00853558                5.97709589                0.00010000                0.18738163                0.20628421               -0.30194423                0.34535507                4.70119543               -0.54978313
               4.14989036                6.00290131                5.98110051                0.00010000                0.03430173                0.22668512               -0.28959815                0.39348471                4.85759181               -0.38380707
               5.14953793                5.99732682                5.98774679                0.00010000               -0.10313766                0.18508280               -0.23693269                0.40313957                5.01690403               -0.17826006
               6.14782760                5.99202655                5.99665803                0.00010000               -0.24294627                0.13189718               -0.15199477                0.39762383                5.15503040                0.07827885
               7.14467900                5.98739358                6.00750711                0.00010000               -0.39297608                0.08398258               -0.05223252                0.39345601                5.30691022                0.37592823
               8.13996808                5.98402658                6.02025291                0.00010000               -0.21378042                0.04943304                0.04771388                0.15669346                2.71243066                0.70044945
               9.14040339                5.97753321                5.97951656                0.00010000                0.12757602                0.14724734               -0.44913854               -0.02292888                0.03153438                0.21930034
              10.14251960                5.97188947                5.93851601                1.00000000                0.21162079                0.25310514               -0.93563540               -0.03323728                0.01360826               -0.29001432
               0.15401868                7.02694875                6.05713809                1.00000000               -0.14469845               -0.23877326                0.82334349               -0.05929885                0.04723909                0.49637819
               1.15257169                7.02142276                6.00908570                0.00010000               -0.03867586               -0.04681224                0.14083062               -0.05070548                0.13334170               -0.13693828
               2.15324516                7.01506648                5.96250753                0.00010000                0.22577938                0.13286879               -0.52663041                0.08683743                2.76011883               -0.74179628
               3.15708728                7.01077963                5.96725716                0.00010000                0.26547873                0.26609585               -0.46616264                0.20989435                5.36565342               -0.84217033
               4.15855473                7.00527089                5.97526694                0.00010000                0.05788636                0.24915007               -0.34906921                0.16909114                5.58035316               -0.53307021
               5.15824501                6.99925568                5.98668588                0.00010000               -0.12172943                0.18964635               -0.23051732                0.19954733                5.76885123               -0.20499973
               6.15612014                6.99335177                6.00038444                0.00010000               -0.31023599                0.12980560               -0.07862498                0.21484269                5.89966763                0.06618569
               7.15204029                6.98810381                6.01611911                0.00010000               -0.50865473                0.05398670                0.09770801                0.22117871                6.05452040                0.34237094
               8.14594705                6.98415865                6.03386270                0.00010000               -0.31625118               -0.03078390                0.28616389                0.07049807                3.10146845                0.64626439
               9.14571526                6.97871027                5.99092252                0.00010000                0.06792908                0.08839604               -0.24926509               -0.02600919                0.04669499                0.19858840
              10.14730563                6.97415100                5.94737881                0.00010000                0.15903689                0.20355652               -0.78056243               -0.03478230                0.01286298               -0.30060968
               0.15799660                8.02479371                6.05000724                0.00010000               -0.09224893               -0.19428744                0.68667975               -0.05663121                0.04032333                0.48132058
               1.15707411                8.02122579                5.99876400                0.00010000                0.02629996                0.01369772               -0.07479627               -0.04650533                0.12864345               -0.13351252
               2.15852260                8.01678775                5.94906659                0.00010000                0.28856330                0.22741904               -0.84138094                0.05910691                2.83992296               -0.70292744
               3.16284537                8.01385749                5.95240808                0.00010000                0.31367664                0.30141703               -0.50581923               -0.13801884                5.96641443               -1.52977646
               4.16479613                8.00788431                5.96732730                0.00010000                0.13013100                0.21272213               -0.42499568               -0.12016214                6.51311023               -0.59101800
               5.16544799                8.00111975                5.98504806                0.00010000               -0.07598991                0.16099204               -0.24228216                0.01793697                6.57583486               -0.19470053
               6.16327633                7.99462266                6.00363335                0.00010000               -0.35761450                0.13680207               -0.00955257                0.05927636                6.62596577                0.05293377
               7.15829570                7.98847331                6.02416660                0.00010000               -0.62523707                0.03699380                0.25052433                0.00912026                6.79333058                0.28356888
               8.15077159                7.98341090                6.04706676                0.00010000               -0.42024223               -0.12672850                0.54767998               -0.04616758                3.49715912                0.58282675
               9.14989086                7.97930113                6.00207245                0.00010000                0.00854525                0.02575992               -0.04907002               -0.02195491                0.06300700                0.19158427
              10.15094249                7.97596060                5.95603160                0.00010000                0.10516353                0.16519273               -0.63201086               -0.03821175                0.00841441               -0.30671223
               0.16002190                9.02306300                6.04275865                0.00010000               -0.03743509               -0.15596803                0.54388481               -0.04751785                0.05294899                0.39437297
               1.15964755                9.02169671                5.98850632                0.00010000                0.08868438                0.08560058               -0.30543527               -0.02486254                0.17210906               -0.11780228
               2.16179559                9.01961486                5.93646723                0.09765768                0.17913938                0.33119986               -1.15813421               -0.02982805                2.46660054               -0.48924952
               3.16323034                9.01680797                5.92853723                0.00010000                0.35468217                0.23807461               -0.35482498               -0.36340146                6.60284825               -1.37557920
               4.16888923                9.00952533                5.95972287                0.00010000                0.43175265                0.06824736               -0.51656244               -0.22869178                7.87884118               -0.42317636
               5.17186539                9.00247553                5.98343783                0.00010000                0.05314389                0.11763660               -0.26088428               -0.03770838                7.31050224               -0.11434016
               6.16995211                8.99608781                6.00638421                0.00010000               -0.42154714                0.14017367                0.05070246               -0.01572450                7.28132083                0.03473523
               7.16343445                8.98884369                6.03118658                0.00010000               -0.78781151                0.11863862                0.39924364               -0.14658611                7.50585458                0.16778462
               8.15419588                8.98162408                6.05953748                0.00010000               -0.53539917               -0.22187559                0.81467850               -0.22098448                3.94069637                0.41346666
               9.15272647                8.97922546                6.01324359                0.00010000               -0.04867169               -0.04464057                0.15826418               -0.01140738                0.10626399                0.17601788
              10.15322245                8.97745485                5.96454045                0.00010000                0.04959815                0.13474893               -0.47967656               -0.03833603               -0.01416113               -0.25818078
               0.15977883               10.02167435                6.03371662                0.00010000                0.02461706               -0.13886524                0.36978961                0.10203705                0.28484934                0.32291352
               1.16002500               10.02293780                5.97851675                0.00010000                0.15179725                0.12410880               -0.51873253                0.12461407                0.50175423               -0.11123645
               2.16281477               10.02341174                5.92757772                0.00010000                0.28209389                0.37968792               -1.35072992               -0.11402253                2.78853024               -0.33286729
               3.16566687               10.01861899                5.91859684                0.00010000                0.58699851                0.18110122               -0.53581756               -0.46447079                7.10565288               -0.81256565
               4.17455474               10.00924926                5.95509593                0.00010000                0.62322352               -0.02760765               -0.55530896               -0.19077437                8.51709985               -0.25687844
               5.17813135               10.00347248                5.98270859                0.00010000                0.10194683                0.09969579               -0.27185747                0.03543928                7.84440478               -0.04631202
               6.17659368                9.99742614                6.00854750                0.00010000               -0.41518133                0.13383230                0.09788200                0.03283670                7.79359189                0.03831784
               7.16982772                9.99084608                6.03638280                0.00010000               -1.03117779                0.20023967                0.50871095               -0.28331022                8.10552583                0.11261544
               8.15597012                9.97897339                6.06908568                0.00010000               -0.79978920               -0.26506820                1.00258631               -0.44446421                4.45807086                0.29308028
               9.15383193                9.97840832                6.02396992                0.00010000               -0.11265619               -0.08171464                0.36138756                0.09465634                0.35623216                0.16574484
              10.15371700                9.97865558                5.97411191                0.00010000               -0.01149360                0.12007311               -0.30180554                0.07418160                0.12412790               -0.21021561
               0.10621670                0.06597216                7.12027337                1.00000000               -0.41739047               -0.47043198                1.61029354               -0.08607823               -0.34453479                0.40004786
               1.10204279                0.04661216                7.08829458                1.00000000               -0.34591264               -0.35827538                1.24694028               -0.06292852               -0.38469053               -0.01041993
               2.09929845                0.02694526                7.05537019                1.00000000               -0.19049394               -0.25300828                0.85962285               -0.04926493               -0.32706682               -0.20338612
               3.09823292                0.00775940                7.02447103                0.00010000                0.28345691               -0.17940027                0.50779229                0.30166202                0.47710290               -0.23256393
               4.10496758               -0.00368841                7.00756436                0.00010000                0.52770504               -0.21527546                0.24182006                0.04127778                1.18169209               -0.01768011
               5.10878702               -0.01022851                6.99010975                0.00010000                0.25007542               -0.02962693               -0.11036290               -0.01509103                0.98298220                0.00336947
               6.10996909               -0.01609077                6.96983891                0.00010000                0.05795419                0.12114262               -0.48205927                0.00405416                0.86168118                0.01525526
               7.10994610               -0.02458019                6.94999828                0.00010000                0.06752338                0.24167556               -0.82293854                0.06948951                0.57830567                0.02932199
               8.11131956               -0.03709522                6.92382859                1.00000000                0.24553669                0.34435920               -1.15780405                0.02238650                0.05987687                0.28209779
               9.11485683               -0.05141877                6.89375487                1.00000000                0.41825104                0.42705244               -1.48656592               -0.05042853               -0.17738236                0.03009670
              10.11968458               -0.06567263                6.86295327                1.00000000                0.48277474                0.52553959               -1.80646289               -0.07836779               -0.21873985               -0.23899237
               0.12471592                1.06126784                7.11015345                1.00000000               -0.37889595               -0.45287648                1.46877229               -0.03822097               -0.01813224                0.54920439
               1.12092696                1.04302941                7.07772975                1.00000000               -0.32418709               -0.33550652                1.10327582               -0.01989338                0.05104653               -0.00769727
               2.11823218                1.02441518                7.04654498                1.00000000               -0.21802920               -0.22463660                0.74463451               -0.00787297                0.29021191               -0.48134348
               3.11656637                1.00596540                7.01893470                0.00010000               -0.19289279               -0.17033374                0.39467970                0.34772235                1.23860037               -0.56565780
               4.11437432                0.99415883                7.00695803                1.00000000               -0.08645443               -0.02679427                0.21397196                0.66450425                1.78854295               -0.33931934
               5.11483729                0.98947522                6.99199468                0.00010000                0.14055758                0.03123314               -0.10496561                0.73950824                1.44843529               -0.07901250
               6.11718547                0.98512065                6.97401437                1.00000000                0.31529671               -0.02454804               -0.44897201                0.60887698                1.29637037               -0.17533587
               7.12114322                0.97783657                6.95637158                0.00010000                0.38886215                0.27707251               -0.74476126                0.39162226                1.14626320                0.44865774
               8.12496272                0.96634837                6.93504017                1.00000000                0.37490156                0.31849636               -1.03274368                0.10720468                0.55811384                0.35047201
               9.12864125                0.95285176                6.90502644                1.00000000                0.40960243                0.40556206               -1.34577714               -0.00478715                0.08343952                0.07533875
              10.13315476                0.93958277                6.87415417                1.00000000                0.45135125                0.50456157               -1.66558307               -0.03012992                0.03662528               -0.28048522
               0.14192915                2.05691463                7.10279677                1.00000000               -0.34315616               -0.41862674                1.35815019               -0.04720648                0.03763895                0.70817952
               1.13849759                2.03990203                7.06713204                1.00000000               -0.28620778               -0.29133246                0.96295046               -0.03306557                0.08144039               -0.02536524
               2.13620500                2.02245253                7.03216896                1.00000000               -0.15269383               -0.16820392                0.58611533               -0.04294464                0.59798043               -0.82314490
               3.13544371                2.00435273                7.00686561                0.00010000               -0.07285711               -0.13275525                0.24932173                0.49882053                1.97198300               -1.09848136
               4.13474785                1.99577570                6.99958928                0.00010000               -0.14141761                0.15869656                0.30791422                1.16942136                2.73505328               -0.69593053
               5.13261536                1.99039615                6.99206692                0.00010000               -0.04812849                0.05379422                0.14270683                1.16932365                2.03934996               -0.35192706
               6.13378528                1.98341827                6.97453394                0.00010000                0.19677347               -0.01408428               -0.63092369                1.16859939                2.23265051               -0.07995831
               7.13655083                1.98096126                6.97131683                0.00010000                0.23315910                0.06665819               -0.57757641                0.76392766                2.03490127                0.29763253
               8.13844847                1.96927470                6.94761929                0.00010000                0.24879316                0.27331370               -0.88518260                0.08979571                0.69748339                0.67911715
               9.14152669                1.95669247                6.91726791                1.00000000                0.35857479                0.36762960               -1.20105750                0.00159829                0.25168115                0.28742984
              10.14561996                1.94441860                6.88468168                1.00000000                0.40932681                0.46154954               -1.53745280               -0.02924495                0.13566783               -0.29329200
               0.15779699                3.05289531                7.09569728                1.00000000               -0.30692443               -0.38522000                1.24969179               -0.05080776                0.03259575                0.71982060
               1.15472775                3.03720276                7.05614312                1.00000000               -0.24372030               -0.24708360                0.81634632               -0.03611051                0.03933591               -0.04419210
               2.15292259                3.02105110                7.01653026                1.00000000               -0.07540661               -0.10995615                0.38278098               -0.08850969                0.73025458               -0.84609035
               3.15321962                3.00331030                6.99085188                0.00010000               -0.06016302                0.10545776                0.04249505                0.45902428                2.73568314               -0.73162833
               4.15171933                2.99733276                6.99155067                0.00010000               -0.13192110                0.17579162               -0.04230833                1.00539478                3.65061168               -0.61146171
               5.15058119                2.99055110                6.98683352                0.00010000               -0.08634893                0.09289392               -0.18432408                1.07908094                3.28598247               -0.47259207
               6.14999235                2.98483897                6.98191345                0.00010000               -0.00079296                0.11415863               -0.32477150                1.02404576                3.10229242                0.10569273
               7.15056534                2.97916973                6.97457824                0.00010000                0.05175350               -0.06675195               -0.51627834                0.74954355                2.85963152                0.04753435
               8.15102742                2.97181464                6.96539561                0.00010000                0.14819916                0.24331237               -0.71082428                0.27481876                1.60496118                1.13189465
               9.15352932                2.96020435                6.93280586                1.00000000                0.30450937                0.32545186               -1.02282213                0.00528946                0.21316238                0.40530963
              10.15711761                2.94881376                6.89584018                1.00000000                0.35882869                0.41524254               -1.39704309               -0.03358323               -0.01320266               -0.25293964
               0.17229810                4.04921023                7.08852015                1.00000000               -0.26785104               -0.35344701                1.13951186               -0.04950030                0.03423293                0.70353369
               1.16961959                4.03496036                7.04514960                1.00000000               -0.19854150               -0.20103821                0.66433747               -0.03170491                0.04127887               -0.04174826
               2.16832727                4.02025341                7.00171895                0.18164210               -0.06385233               -0.05092828                0.18870179                0.04289974                1.44215115               -0.76548159
               3.16834254                4.00646188                6.98646001                0.00010000               -0.03561613                0.32955486               -0.18214597                0.43298528                3.53726501               -0.08236987
               4.16761494                3.99929153                6.98608443                0.00010000               -0.08258815                0.21104709               -0.18302466                0.82244096                4.18549425               -0.36499785
               5.16669078                3.99225403                6.98584037                0.00010000               -0.09836864                0.17661845               -0.23477056                0.86111002                4.09514101               -0.23124761
               6.16564757                3.98570144                6.98543563                0.00010000               -0.10623749                0.11021575               -0.29713060                0.85262055                4.03144161                0.00003648
               7.16456603                3.97962622                6.98522252                0.00010000               -0.13686735                0.07796040               -0.37004190                0.75280244                4.08633823                0.45079313
               8.16291022                3.97414095                6.98675478                0.00010000                0.00336708                0.19436703               -0.43819938                0.31372245                2.09700451                1.12809270
               9.16463337                3.96320151                6.94725777                1.00000000                0.24096271                0.27064239               -0.83921569               -0.00601759                0.02376143                0.33673248
              10.16772948                3.95272345                6.90738925                1.00000000                0.30961099                0.36455502               -1.24194188               -0.03309935               -0.00145437               -0.26110413
               0.18530674                5.04582637                7.08113665                1.00000000               -0.22562604               -0.32226870                1.02486727               -0.05073844                0.05990649                0.66852592
               1.18305048                5.03318200                7.03422175                0.00010000               -0.15138387               -0.15251967                0.50920766               -0.03261364                0.08816396               -0.06758046
               2.18227906                5.02003254                6.98766679                0.00010000               -0.01046385                0.00770053                0.00371484                0.14985036                2.20578320               -0.74175960
               3.18284120                5.00990139                6.98323549                0.00010000                0.00484718                0.28555403               -0.16927673                0.46195148                4.39061969               -0.26140547
               4.18237600                5.00155370                6.98258905                0.00010000               -0.07238539                0.23759738               -0.24288963                0.62731771                4.66130258               -0.29730926
               5.18139349                4.99408347                6.98558464                0.00010000               -0.13517184                0.19385577               -0.24665513                0.67306239                4.83824947               -0.17616597
               6.17967257                4.98704328                6.99018873                0.00010000               -0.21058095                0.14533281               -0.23900626                0.66026806                4.91904736                0.08665712
               7.17718187                4.98072894                6.99626621                0.00010000               -0.29729928                0.11196841               -0.22714812                0.63083645                5.02728534                0.46397821
               8.17372658                4.97570198                7.00413643                0.00010000               -0.11777032                0.11962527               -0.20740525                0.27503779                2.54832322                0.88653639
               9.17482647                4.96561720                6.96135127                0.00010000                0.18425764                0.21013000               -0.64748845               -0.01093987                0.01007271                0.29711022
              10.17741173                4.95610486                6.91844403                1.00000000                0.25852673                0.31273875               -1.08114915               -0.03369422               -0.00164858               -0.29725378
               0.19657207                6.04276486                7.07333984                1.00000000               -0.18109307               -0.28479409                0.90270881               -0.05366836                0.06722949                0.62287773
               1.19476114                6.03190997                7.02273102                0.00010000               -0.09835995               -0.10014112                0.33424295               -0.04007582                0.13718889               -0.13333214
               2.19460488                6.02040742                6.97331834                0.00010000                0.06496288                0.06946778               -0.21844269                0.15647225                2.69793674               -0.82929101
               3.19606040                6.01217296                6.97409948                0.00010000                0.06871720                0.23710349               -0.28305940                0.41933723                5.24431619               -0.63395593
               4.19597922                6.00404348                6.97819194                0.00010000               -0.06989775                0.25887111               -0.28166153                0.46938065                5.44565769               -0.41759746
               5.19466245                5.99613114                6.98534885                0.00010000               -0.18858779                0.21502478               -0.23725603                0.47636403                5.62333042               -0.18972979
               6.19220746                5.98860809                6.99503474                0.00010000               -0.30691962                0.15947710               -0.16721140                0.47001652                5.76868657                0.09640352
               7.18852405                5.98186559                7.00679373                0.00010000               -0.43423709                0.10133485               -0.08168886                0.46853847                5.90832497                0.43443642
               8.18352272                5.97653346                7.02058491                0.00010000               -0.22561792                0.04500097                0.02140360                0.20111106                2.99912116                0.81442292
               9.18401170                5.96740411                6.97498213                0.00010000                0.12787735                0.14917619               -0.45338390               -0.01528841                0.02584042                0.26139850
              10.18608027                5.95897823                6.92921943                1.00000000                0.20685733                0.26147760               -0.92028643               -0.03180544                0.01262949               -0.32446286
               0.20594316                7.04013049                7.06508960                1.00000000               -0.13367567               -0.23775816                0.76947874               -0.05337612                0.04493956                0.58708213
               1.20460640                7.03117917                7.01049135                0.00010000               -0.03988249               -0.04562838                0.14140199               -0.04440119                0.13427038               -0.17945392
               2.20514551                7.02142189                6.95748639                0.00010000                0.14927415                0.13823824               -0.47570387                0.13553109                3.11725391               -0.92856264
               3.20759188                7.01464346                6.96280208                0.00010000                0.13299650                0.27586953               -0.41737352                0.30920763                6.07499951               -0.90502352
               4.20780544                7.00673113                6.97182876                0.00010000               -0.06178620                0.26999332               -0.32526731                0.25763787                6.30571849               -0.58680249
               5.20635616                6.99838397                6.98438055                0.00010000               -0.22334938                0.22379633               -0.22288695                0.26410792                6.48834742               -0.23390394
               6.20333845                6.99023282                6.99950227                0.00010000               -0.38644395                0.16272433               -0.09194295                0.26727766                6.62735911                0.07989174
               7.19862728                6.98275564                7.01690150                0.00010000               -0.55640836                0.07431228                0.06684934                0.26772707                6.77834380                0.40471725
               8.19221028                6.97660200                7.03658992                0.00010000               -0.32756768               -0.03434184                0.25583788                0.09971360                3.45138750                0.77089919
               9.19207593                6.96860072                6.98835306                0.00010000                0.07085529                0.09058496               -0.26029091               -0.01727177                0.04010341                0.23554222
              10.19362739                6.96133441                6.93964447                0.00010000                0.15514617                0.21193018               -0.76348474               -0.03248334                0.01235151               -0.34899668
               0.21340718                8.03800970                7.05654879                0.00010000               -0.08254669               -0.18771393                0.62642468               -0.05050657                0.03446095                0.56906295
               1.21258171                8.03099740                6.99805592                0.00010000                0.02220135                0.01373339               -0.06563639               -0.03924381                0.11736547               -0.19116460
               2.21385121                8.02317219                6.94105593                0.00010000                0.21768034                0.22189931               -0.76325020                0.10774995                3.37241752               -0.91886189
               3.21693532                8.01769035                6.94800084                0.00010000                0.17701328                0.27079636               -0.41975184                0.06259601                6.87154776               -1.37117087
               4.21739147                8.00944335                6.96361656                0.00010000               -0.02462063                0.22183782               -0.33246701               -0.00168802                7.32957951               -0.66486405
               5.21644291                8.00060707                6.98270756                0.00010000               -0.21050626                0.20126785               -0.21461688                0.07680544                7.41685979               -0.23462210
               6.21318135                7.99186258                7.00344076                0.00010000               -0.44667456                0.17444498               -0.02083547                0.08869123                7.48356683                0.06071537
               7.20750942                7.98335184                7.02646398                0.00010000               -0.67547190                0.06392917                0.21511798                0.02738644                7.65003983                0.34587411
               8.19967191                7.97584662                7.05227786                0.00010000               -0.42877818               -0.12042937                0.49497159               -0.03135651                3.91213516                0.71753338
               9.19893385                7.96921581                7.00147732                0.00010000                0.01456558                0.02941238               -0.06799201               -0.01388775                0.05122895                0.22693181
              10.19996322                7.96321683                6.94982106                0.00010000                0.10293684                0.16957770               -0.61191253               -0.03458188                0.00691995               -0.36252173
               0.21895762                9.03637621                7.04783572                0.00010000               -0.02985856               -0.14324682                0.47888024               -0.04334873                0.04059054                0.46848151
               1.21865904                9.03145384                6.98555740                0.00010000                0.08249643                0.08150399               -0.28364468               -0.02135330                0.15358698               -0.17490877
               2.22060755                9.02585988                6.92541474                0.00010000                0.19568024                0.30982103               -1.05489582               -0.00033603                3.35948488               -0.65358987
               3.22257264                9.02005939                6.92764161                0.00010000                0.21237058                0.11365614               -0.06936808               -0.14680185                7.77255723               -1.22944674
               4.22485496                9.01116788                6.95550478                0.00010000                0.14501970                0.11206295               -0.34823896               -0.12048925                8.64172690               -0.47207975
               5.22547303                9.00240932                6.98102480                0.00010000               -0.12437269                0.15718773               -0.21127733                0.00516529                8.28711011               -0.14310581
               6.22236751                8.99372172                7.00678249                0.00010000               -0.51410322                0.18036018                0.03940001               -0.00754333                8.26897149                0.03873111
               7.21519097                8.98403422                7.03490174                0.00010000               -0.83241645                0.15308498                0.35093856               -0.14497231                8.50664217                0.21302828
               8.20571918                8.97419341                7.06721329                0.00010000               -0.53815053               -0.20122972                0.72976659               -0.21679692                4.43140209                0.51304698
               9.20442796                8.96918897                7.01466276                0.00010000               -0.03927369               -0.03660780                0.12718279               -0.00669422                0.09262144                0.20878459
              10.20493370                8.96472596                6.95987696                0.00010000                0.05057457                0.13380437               -0.45866941               -0.03417217               -0.01762393               -0.30480656
               0.22238494               10.03514476                7.03708546                0.00010000                0.02860351               -0.12314482                0.31090157                0.09100387                0.30789682                0.38124947
               1.22267098               10.03262748                6.97348509                0.00010000                0.14269982                0.11736379               -0.48606552                0.11238637                0.54613404               -0.16101620
               2.22523894               10.02936861                6.91459112                0.00010000                0.30101515                0.35087259               -1.24376433               -0.17006123                3.79481055               -0.44185865
               3.22869128               10.01996348                6.91639817                0.00010000                0.36964083               -0.00959121               -0.11959112               -0.27233599                8.44959088               -0.83361029
               4.23263175               10.01168461                6.95064855                0.00010000                0.26505470                0.05167231               -0.37039111               -0.03295334                9.41346470               -0.22542376
               5.23399237               10.00375082                6.98019102                0.00010000               -0.06130845                0.13415010               -0.21791476                0.04119283                8.91393101               -0.05029483
               6.23140559                9.99546978                7.00938326                0.00010000               -0.49270472                0.17480609                0.08172573                0.03694338                8.88436066                0.04940515
               7.22413828                9.98641354                7.04111059                0.00010000               -1.06121813                0.23793166                0.44802121               -0.28765703                9.22147491                0.14495113
               8.21018122                9.97182202                7.07855646                0.00010000               -0.79354294               -0.23713900                0.90224542               -0.45028967                5.04365004                0.35826774
               9.20826742                9.96848365                7.02733397                0.00010000               -0.09877191               -0.07053141                0.31486233                0.08749079                0.38305713                0.19364552
              10.20820579                9.96589292                6.97118189                0.00010000               -0.00616354                0.11669551               -0.28994464                0.06813459                0.14215471               -0.24465242
               0.13634135                0.08102248                8.13619152                1.00000000               -0.41008042               -0.45963997                1.57490037               -0.08175862               -0.38788279                0.44303564
               1.13224055                0.05781263                8.10069529                1.00000000               -0.34001271               -0.35341415                1.23178620               -0.05925332               -0.44200548               -0.00595272
               2.12954110                0.03429610                8.06397081                1.00000000               -0.18663759               -0.25251656                0.85811878               -0.04638406               -0.37875166               -0.20358439
               3.12850780                0.01136039                8.02964039                0.00010000                0.29577479               -0.18347056                0.52195968                0.33168778                0.47803312               -0.26886096
               4.13545659               -0.00308955                8.00998942                0.00010000                0.52294247               -0.19456335                0.24120684                0.02522633                1.16213458               -0.00960796
               5.13896664               -0.01209721                7.98903342                0.00010000                0.23269871               -0.02055025               -0.10571833               -0.01061500                0.91769595                0.00615806
               6.14011057               -0.02032085                7.96508170                0.00010000                0.06041390                0.11524200               -0.47021455                0.00371191                0.79612006                0.00705440
               7.14017492               -0.03105132                7.94178923                0.00010000                0.06783347                0.23329805               -0.81752422                0.06762326                0.52396046                0.02925435
               8.14146724               -0.04603532                7.91227136                1.00000000                0.23817444                0.34335479               -1.15116291                0.03044498                0.01291815                0.29565040
               9.14493841               -0.06309843                7.87894059                1.00000000                0.41241460                0.42339685               -1.47488874               -0.04992951               -0.21602934                0.02893625
              10.14971553               -0.08013593                7.84499052                1.00000000                0.47771171                0.51826836               -1.78723795               -0.07857994               -0.25234662               -0.27174760
               0.15873361                1.07642608                8.12465294                1.00000000               -0.37224075               -0.44316954                1.43353105               -0.03560915               -0.02727539                0.60725265
               1.15501121                1.05427849                8.08869617                1.00000000               -0.32151180               -0.33104591                1.08941775               -0.01627159                0.04279807               -0.00037596
               2.15230338                1.03177093                8.05401807                1.00000000               -0.22468561               -0.22490014                0.74698148               -0.00132524                0.28640548               -0.49974830
               3.15051749                1.00952568                8.02295473                0.00010000               -0.24328619               -0.17555474                0.40640380                0.40390010                1.31623491               -0.61142566
               4.14743765                0.99496482                8.00910073                1.00000000               -0.15206733                0.00195631                0.21235472                0.68024722                1.87184477               -0.19685384
               5.14747615                0.98769729                7.99096447                0.00010000                0.10935448                0.08377984               -0.10184744                0.66885117                1.45312693                0.06751898
               6.14962474                0.98083157                7.96958425                1.00000000                0.31161212               -0.05845167               -0.43779202                0.54877198                1.30784038               -0.28511499
               7.15370839                0.97128166                7.94895195                0.00010000                0.40852475                0.27235931               -0.73829752                0.42244812                1.17389158                0.48887248
               8.15779524                0.95739823                7.92473346                1.00000000                0.38905161                0.31764185               -1.02595906                0.12781068                0.57269955                0.37320958
               9.16148942                0.94113554                7.89162758                1.00000000                0.40859990                0.40285992               -1.33324973               -0.00312271                0.08340657                0.07542236
              10.16596724                0.92504675                7.85760883                1.00000000                0.44778144                0.49563181               -1.64533680               -0.03044770                0.03416913               -0.31903049
               0.17992435                2.07215909                8.11618948                1.00000000               -0.33540834               -0.41203024                1.32278953               -0.04240942                0.03480404                0.78419976
               1.17657027                2.05119171                8.07670663                1.00000000               -0.28284751               -0.28849485                0.95164318               -0.02671713                0.08652162               -0.01800208
               2.17426740                2.02979809                8.03812041                1.00000000               -0.15891793               -0.16978527                0.60052554               -0.03169044                0.62742456               -0.88573483
               3.17339191                2.00784929                8.00946856                0.00010000               -0.16887346               -0.14438771                0.26800121                0.59213759                2.27344440               -1.18142272
               4.17088993                1.99694958                8.00403109                0.00010000               -0.34574935                0.16683123                0.55887910                1.32927619                2.92398849               -0.72674655
               5.16647692                1.98957839                7.99394557                0.00010000               -0.16941458                0.07010533                0.13578041                1.21917325                1.75556941               -0.40525889
               6.16750164                1.97851011                7.96833474                0.00010000                0.27901531               -0.03842684               -0.55144104                1.21725903                2.11326132               -0.02222055
               7.17205723                1.97439586                7.96545472                0.00010000                0.33339641                0.04456250               -0.59460327                0.86955866                2.24048657                0.31998128
               8.17416957                1.96031751                7.93877574                0.00010000                0.25851034                0.28070630               -0.88015976                0.13055480                0.73477952                0.71774395
               9.17722743                1.94495877                7.90532176                1.00000000                0.35572964                0.36996948               -1.18783365                0.01321376                0.27138138                0.30492548
              10.18128416                1.92977670                7.86942151                1.00000000                0.40567260                0.45065431               -1.51673846               -0.02578728                0.14571428               -0.33229623
               0.19982018                3.06818548                8.10800850                1.00000000               -0.29823173               -0.38247531                1.21446284               -0.04585443                0.02952409                0.79921117
               1.19683786                3.04850859                8.06426729                1.00000000               -0.24040947               -0.24615561                0.80810375               -0.03038453                0.03432625               -0.04154736
               2.19501199                3.02837523                8.02046484                1.00000000               -0.08145506               -0.11103281                0.40160684               -0.08487568                0.77036420               -0.93014099
               3.19520876                3.00663793                7.99147105                0.00010000               -0.13589533                0.09660775                0.07589633                0.52338619                2.94026544               -0.86830667
               4.19229408                2.99830145                7.99129232                0.00010000               -0.24548409                0.17126687               -0.01159556                1.18579221                3.95168303               -0.84718963
               5.19029908                2.98909940                7.98523073                0.00010000               -0.15708163                0.04912841               -0.13270946                1.27854208                3.52745310               -0.66766219
               6.18915245                2.98006303                7.97862729                0.00010000               -0.05034577                0.13970775               -0.33348537                1.20378321                3.30954416                0.20959577
               7.18929216                2.97217291                7.96933900                0.00010000                0.03454888               -0.07932342               -0.52512299                0.88903662                3.03927063                0.05726141
               8.18984343                2.96301235                7.95815497                0.00010000                0.15011740                0.25834512               -0.72650395                0.35308920                1.73018929                1.23616726
               9.19229451                2.94853493                7.92263938                1.00000000                0.29861019                0.33011557               -1.01051773                0.01873550                0.25025506                0.43951628
              10.19581563                2.93405983                7.88198080                1.00000000                0.35211204                0.40747571               -1.37683724               -0.03216186               -0.01298754               -0.27967322
               0.21836103                4.06450959                8.09972802                1.00000000               -0.25881997               -0.35315794                1.10349002               -0.04502873                0.03052176                0.78381927
               1.21577283                4.04626860                8.05176632                1.00000000               -0.19602384               -0.20087822                0.65855671               -0.02665076                0.03540417               -0.04238155
               2.21444055                4.02757744                8.00373825                0.32433837               -0.09197077               -0.05130228                0.21288477                0.04538428                1.47018348               -0.84148377
               3.21393341                4.00978145                7.98453837                0.00010000               -0.11481218                0.35742206               -0.20407526                0.47149802                3.81847909               -0.12671446
               4.21214431                4.00037492                7.98436094                0.00010000               -0.18236178                0.21910240               -0.16153883                0.94193064                4.62630165               -0.42084642
               5.21028618                3.99056096                7.98355727                0.00010000               -0.18202577                0.17114164               -0.22011372                0.95515224                4.48465616               -0.27179338
               6.20850379                3.98130427                7.98244438                0.00010000               -0.16987690                0.13924165               -0.29755282                0.95148939                4.39206700               -0.00760965
               7.20688864                3.97280940                7.98142226                0.00010000               -0.18172316                0.09798047               -0.38462639                0.88285940                4.42835658                0.50247527
               8.20486933                3.96548442                7.98226938                0.00010000               -0.01669891                0.20291106               -0.45475123                0.38712398                2.26682877                1.26543245
               9.20655466                3.95156108                7.93891110                1.00000000                0.23608933                0.27241191               -0.82984127                0.00389396                0.02804068                0.37530719
              10.20959112                3.93792622                7.89506834                1.00000000                0.30364545                0.36268988               -1.22337096               -0.03104748               -0.00156390               -0.27992881
               0.23540157                5.06112232                8.09118338                1.00000000               -0.21645756               -0.32179016                0.98590769               -0.04653991                0.06187790                0.74742919
               1.23323699                5.04449103                8.03929734                0.00010000               -0.14973707               -0.15214078                0.50554351               -0.02873731                0.09346362               -0.07865440
               2.23240683                5.02734918                7.98787763                0.00010000               -0.06978763                0.00737557                0.03618336                0.17938915                2.37004144               -0.83431452
               3.23184124                5.01378637                7.98162708                0.00010000               -0.10268203                0.32542084               -0.15617642                0.51327558                4.75839045               -0.23538338
               4.23035319                5.00268349                7.98021785                0.00010000               -0.16842347                0.24673691               -0.22999062                0.70728485                5.11494410               -0.31509874
               5.22847277                4.99252223                7.98314518                0.00010000               -0.22096933                0.20876825               -0.23805779                0.75199682                5.32219262               -0.18692286
               6.22593380                4.98284786                7.98775336                0.00010000               -0.28517840                0.16684062               -0.24301952                0.74314742                5.39399700                0.09999840
               7.22276920                4.97413252                7.99389560                0.00010000               -0.35497899                0.13188103               -0.24143574                0.73146967                5.48960672                0.51941318
               8.21883422                4.96707057                8.00196410                0.00010000               -0.14193057                0.11885696               -0.22306974                0.33717140                2.77116515                0.99778221
               9.21993059                4.95398317                7.95489696                0.00010000                0.18150978                0.20991512               -0.64256146               -0.00129574                0.00821615                0.33909913
              10.22246442                4.94131363                7.90772194                1.00000000                0.25338245                0.31367799               -1.06425427               -0.03163028               -0.00186652               -0.31547957
               0.25069281                6.05807378                8.08213898                1.00000000               -0.17215866               -0.28204409                0.85925199               -0.04917953                0.06748100                0.69739239
               1.24897122                6.04322579                8.02606029                0.00010000               -0.09799071               -0.09911266                0.33174414               -0.03627555                0.14288169               -0.16156195
               2.24873299                6.02772495                7.97133008                0.00010000               -0.00533047                0.07042308               -0.18097399                0.19683792                2.94451333               -0.95912242
               3.24886461                6.01628987                7.97143470                0.00010000               -0.05894239                0.24957172               -0.24937359                0.49941824                5.74898097               -0.69450897
               4.24755415                6.00530966                7.97546728                0.00010000               -0.18514345                0.27133670               -0.26020134                0.55919545                5.99567964               -0.43517217
               5.24516174                5.99473632                7.98300167                0.00010000               -0.28988464                0.23483288               -0.22794291                0.55985484                6.19716637               -0.19177300
               6.24175645                5.98464108                7.99331381                0.00010000               -0.39332096                0.18478618               -0.17148455                0.54616332                6.34506357                0.11802150
               7.23729532                5.97544702                8.00587333                0.00010000               -0.49971735                0.11976945               -0.09712836                0.54853930                6.48131179                0.49314329
               8.23176211                5.96786156                8.02068098                0.00010000               -0.25048186                0.04065538                0.00001238                0.25006946                3.27711582                0.92420467
               9.23228569                5.95575939                7.97044888                0.00010000                0.12677388                0.14713749               -0.45099587               -0.00647954                0.02267745                0.30120423
              10.23429758                5.94419978                7.92011029                1.00000000                0.20118971                0.26279003               -0.89831031               -0.03068947                0.01256746               -0.34739156
               0.26411397                7.05548144                8.07252766                1.00000000               -0.12536533               -0.23224626                0.72143662               -0.04832798                0.04274577                0.65568419
               1.26286032                7.04250878                8.01191374                0.00010000               -0.04172310               -0.04446673                0.14364925               -0.03903664                0.13472775               -0.22149100
               2.26327951                7.02875764                7.95299345                0.00010000                0.06922921                0.13786034               -0.42479604                0.17810298                3.45012389               -1.09132607
               3.26424490                7.01877781                7.95890969                0.00010000               -0.00944334                0.26523420               -0.36578861                0.41018360                6.73795249               -0.93001951
               4.26309064                7.00811023                7.96876159                0.00010000               -0.19532284                0.28006728               -0.28923471                0.37839651                6.97520789               -0.59255977
               5.26033844                6.99721889                7.98222814                0.00010000               -0.34721329                0.25233680               -0.20479469                0.36163036                7.16148089               -0.23657946
               6.25614637                6.98654359                7.99854558                0.00010000               -0.49094639                0.19578339               -0.09376162                0.33719100                7.30674576                0.10116006
               7.25051951                6.97652791                8.01745610                0.00010000               -0.63115662                0.09717692                0.04869616                0.32520807                7.46328318                0.46458852
               8.24352324                6.96788368                8.03897946                0.00010000               -0.35283663               -0.03616794                0.22357010                0.13184289                3.78412874                0.88371773
               9.24346278                6.95692592                7.98571670                0.00010000                0.07233026                0.08853396               -0.26340866               -0.01138470                0.03371386                0.27037054
              10.24496985                6.94656943                7.93210912                0.00010000                0.15070645                0.21389504               -0.74137839               -0.03085746                0.01259714               -0.38215896
               0.27567157                8.05342886                8.06253573                0.00010000               -0.07572848               -0.17927318                0.57548881               -0.04542089                0.03013058                0.63382436
               1.27491428                8.04233645                7.99745128                0.00010000                0.01772279                0.01302923               -0.05467525               -0.03333728                0.10772919               -0.24445961
               2.27602602                8.03048216                7.93380158                0.00010000                0.14007073                0.21251145               -0.69082577                0.14398331                3.85767138               -1.10050831
               3.27771570                8.02159455                7.94401304                0.00010000                0.03274846                0.25219489               -0.39036172                0.23876927                7.72350082               -1.16615761
               4.27668099                8.01091100                7.96067796                0.00010000               -0.18773543                0.24707594               -0.27689823                0.17192267                8.06352322               -0.63996293
               5.27396099                7.99978306                7.98075572                0.00010000               -0.37448699                0.24555338               -0.17840534                0.18185969                8.17328192               -0.23885270
               6.26919125                7.98855675                8.00321664                0.00010000               -0.57507989                0.21881738               -0.01855039                0.14578602                8.27167651                0.07721385
               7.26245939                7.97739055                8.02846896                0.00010000               -0.75951511                0.09648683                0.19097450                0.05992115                8.45278983                0.40032444
               8.25400095                7.96713820                8.05696619                0.00010000               -0.45435762               -0.11386318                0.44678981               -0.01604148                4.30086609                0.82833939
               9.25337224                7.95753006                8.00071261                0.00010000                0.01962274                0.03092899               -0.08324035               -0.01040377                0.03978731                0.25947760
              10.25439341                7.94847768                7.94379335                0.00010000                0.10211665                0.17142300               -0.59592053               -0.03165271                0.00579132               -0.40252093
               0.28539036                9.05189597                8.05233626                0.00010000               -0.02500888               -0.13144939                0.42663448               -0.03936511                0.03103307                0.52317649
               1.28514027                9.04276936                7.98283343                0.00010000                0.07553576                0.07628157               -0.26046317               -0.01801880                0.13693725               -0.22594239
               2.28690107                9.03300787                7.91536931                0.00010000                0.17255845                0.28698239               -0.95734601                0.04121083                4.18310465               -0.79091879
               3.28859144                9.02382170                7.92714987                0.00010000                0.07197550                0.14195492               -0.13814012                0.04647217                8.75981065               -0.96205731
               4.28834058                9.01305175                7.95275809                0.00010000               -0.11307755                0.17711250               -0.25100730                0.03292257                9.25883719               -0.43768380
               5.28632989                9.00212996                7.97921228                0.00010000               -0.34429927                0.21755423               -0.15823673                0.07912289                9.12446988               -0.14955615
               6.28145460                8.99091993                8.00717221                0.00010000               -0.65966992                0.23279787                0.04423126                0.02488785                9.16564525                0.04884037
               7.27313649                8.97845764                8.03820535                0.00010000               -0.91958482                0.19684278                0.31737601               -0.13444493                9.43148517                0.24782506
               8.26306290                8.96560642                8.07413281                0.00010000               -0.56106310               -0.18428936                0.66076596               -0.21471804                4.88498137                0.58989290
               9.26191523                8.95754450                8.01578724                0.00010000               -0.03106667               -0.02956340                0.09944450               -0.00565565                0.08070099                0.23721793
              10.26244157                8.94999789                7.95536706                0.00010000                0.05263411                0.13374997               -0.44686555               -0.03111756               -0.02064837               -0.33851852
               0.29313749               10.05079987                8.03993465                0.00010000                0.03045203               -0.10961046                0.26404189                0.08093458                0.32484854                0.42548113
               1.29344201               10.04386208                7.96879544                0.00010000                0.13302045                0.10927224               -0.45153429                0.10127074                0.57835717               -0.20503558
               2.29579790               10.03622180                7.90270243                0.00010000                0.25796280                0.32139333               -1.13688295               -0.08173929                4.78999187               -0.53106062
               3.29860127               10.02443365                7.91620502                0.00010000                0.16166468                0.06119458               -0.10529861               -0.08744495                9.52879740               -0.56070751
               4.29903119               10.01445325                7.94768811                0.00010000               -0.04630040                0.14015055               -0.27102769                0.05408557               10.08182021               -0.19932803
               5.29767526               10.00413414                7.97835030                0.00010000               -0.28349352                0.20041887               -0.15905175                0.07250976                9.83437009               -0.04209482
               6.29336132                9.99321271                8.01018201                0.00010000               -0.62956234                0.22927719                0.08502561                0.05033564                9.87386433                0.06190016
               7.28508401                9.98132741                8.04534322                0.00010000               -1.13707936                0.28697670                0.40819636               -0.29326271               10.25155789                0.17248830
               8.27061974                9.96345241                8.08713059                0.00010000               -0.81081806               -0.21540067                0.82024394               -0.46374747                5.57700714                0.40150142
               9.26886765                9.95693880                8.03026717                0.00010000               -0.08777343               -0.06057026                0.27421351                0.08025547                0.40453531                0.21684542
              10.26886427                9.95115268                7.96831302                0.00010000               -0.00033839                0.11547822               -0.28735333                0.06365762                0.15586434               -0.27030730
               0.16945150                0.09791004                9.15177138                1.00000000               -0.40281052               -0.44950955                1.54292029               -0.07862280               -0.43023582                0.48362560
               1.16542340                0.07049135                9.11293031                1.00000000               -0.33365940               -0.34808016                1.21478187               -0.05710983               -0.50109852               -0.00024251
               2.16277831                0.04277905                9.07253257                1.00000000               -0.18242112               -0.25084365                0.85275503               -0.04455060               -0.43462233               -0.19970272
               3.16177497                0.01575351                9.03491022                0.00010000                0.30194703               -0.18447920                0.52897456                0.35923100                0.46219281               -0.30503644
               4.16881725               -0.00210321                9.01238850                0.00010000                0.51368408               -0.17167116                0.23855280                0.01237420                1.13059141                0.00168031
               5.17204866               -0.01396745                8.98799538                0.00010000                0.21592136               -0.01190980               -0.10175880               -0.00581401                0.85276575                0.01042052
               6.17313568               -0.02495479                8.96043462                0.00010000                0.05934932                0.11201061               -0.45914118                0.00425796                0.72687694               -0.00036915
               7.17323564               -0.03832054                8.93364779                0.00010000                0.06454398                0.22690574               -0.80919217                0.06603883                0.46447532                0.02906414
               8.17442656               -0.05610641                8.90080534                1.00000000                0.22907237                0.34146010               -1.14034602                0.03677621               -0.03410375                0.30747888
               9.17781709               -0.07621403                8.86425709                1.00000000                0.40556141                0.41930656               -1.46060310               -0.05019653               -0.25286736                0.02706949
              10.18253779               -0.09634420                8.82720851                1.00000000                0.47206997                0.51153695               -1.76908211               -0.07923056               -0.28384696               -0.30354996
               0.19608396                1.09341494                9.13882407                1.00000000               -0.36661657               -0.43334813                1.40295102               -0.03346745               -0.03668674                0.66219311
               1.19241779                1.06701055                9.09951810                1.00000000               -0.31911137               -0.32602409                1.07481621               -0.01353157                0.03204242                0.00803290
               2.18970173                1.04027062                9.06148461                1.00000000               -0.23046880               -0.22439916                0.74414741                0.00557062                0.27563189               -0.51038067
               3.18780841                1.01390872                9.02706277                1.00000000               -0.29501245               -0.17727789                0.41257658                0.45682067                1.37481430               -0.65429375
               4.18380148                0.99618008                9.01120512                0.00010000               -0.21960527                0.05761987                0.20825349                0.59690463                1.94226467                0.06115618
               5.18341631                0.98591345                8.98995773                0.00010000                0.07766612                0.09960815               -0.09939185                0.56798395                1.45907045                0.16160607
               6.18535480                0.97616531                8.96525853                0.00010000                0.30277658               -0.05571955               -0.42757125                0.47203723                1.31788166               -0.33173238
               7.18947184                0.96394852                8.94160563                0.00010000                0.41931337                0.26471849               -0.73001927                0.44133980                1.19809146                0.51646892
               8.19374107                0.94730819                8.91452099                1.00000000                0.39810881                0.31572446               -1.01528622                0.14404892                0.58693336                0.39424426
               9.19743402                0.92797904                8.87836145                1.00000000                0.40672925                0.39966065               -1.31942519               -0.00227771                0.08461341                0.07506656
              10.20187565                0.90877117                8.84124744                1.00000000                0.44416378                0.48724506               -1.62755701               -0.03093882                0.03309311               -0.35719986
               0.22159093                2.08924307                9.12925257                1.00000000               -0.32938391               -0.40369734                1.29202860               -0.03792310                0.03238732                0.85598986
               1.21829709                2.06397087                9.08616490                1.00000000               -0.27996855               -0.28492138                0.93989431               -0.02059307                0.09282343               -0.00947778
               2.21599156                2.03829107                9.04417947                1.00000000               -0.16475835               -0.17200833                0.60830813               -0.01692664                0.64947717               -0.93939403
               3.21500192                2.01220795                9.01222563                0.00010000               -0.36204694               -0.15171844                0.28080033                0.70735799                2.66496980               -1.25601903
               4.20875062                1.99904919                9.01076686                0.00010000               -0.57894099                0.19395197                0.66222012                1.45042914                3.04535335               -0.78371500
               5.20342310                1.98802471                8.99478253                0.00010000               -0.21046335                0.08363524                0.04114858                1.26302993                1.52881059               -0.46048133
               6.20454135                1.97393081                8.96350512                0.00010000                0.37482297               -0.06220366               -0.44808251                1.28346439                2.13468259                0.03386826
               7.21091956                1.96697383                8.95942476                0.00010000                0.43678355                0.01994488               -0.60830163                0.93142454                2.37898856                0.33964758
               8.21327702                1.95020808                8.93001610                0.00010000                0.26944942                0.28680760               -0.87046138                0.16975528                0.78297270                0.74869109
               9.21630855                1.93177919                8.89351124                1.00000000                0.35288615                0.37131472               -1.17428331                0.02335991                0.29253606                0.32152736
              10.22033475                1.91340070                8.85434691                1.00000000                0.40261952                0.44011449               -1.49935983               -0.02288056                0.15661154               -0.37102664
               0.24586990                3.08534099                9.11998654                1.00000000               -0.29119633               -0.37656684                1.18313647               -0.04083678                0.02753172                0.87271067
               1.24295793                3.06131212                9.07230519                1.00000000               -0.23718917               -0.24440939                0.79927311               -0.02450964                0.03080453               -0.03832095
               2.24112611                3.03683045                9.02456239                0.00010000               -0.08802399               -0.11400603                0.41561990               -0.07352237                0.80524833               -1.00783553
               3.24119745                3.01087435                8.99236981                0.00010000               -0.20664025                0.07818066                0.09993666                0.61580871                3.12702352               -1.02458420
               4.23699331                3.00005912                8.99131876                0.00010000               -0.37010857                0.14499422                0.01821185                1.45416303                4.25831231               -1.19507827
               5.23379528                2.98758615                8.98417933                0.00010000               -0.24591719                0.04395005               -0.09879182                1.48697382                3.73375044               -0.83219005
               6.23207496                2.97492124                8.97524374                0.00010000               -0.09861059                0.12461814               -0.33453634                1.39219166                3.47591518                0.27387094
               7.23182307                2.96434742                8.96407578                0.00010000                0.01279296               -0.09273533               -0.52363322                1.02558465                3.22413197                0.08639089
               8.23233082                2.95304434                8.95086553                0.00010000                0.14427584                0.27161986               -0.72314269                0.42694274                1.85478003                1.32543641
               9.23470859                2.93540533                8.91259550                1.00000000                0.29220921                0.33354445               -0.99863813                0.03078997                0.29392466                0.47152490
              10.23817501                2.91757346                8.86830343                1.00000000                0.34664207                0.39915173               -1.36013359               -0.03073857               -0.01215200               -0.30570459
               0.26883193                4.08171174                9.11058995                1.00000000               -0.25144897               -0.34885012                1.07074239               -0.04058043                0.02796196                0.85507396
               1.26631744                4.05908268                9.05832073                1.00000000               -0.19365238               -0.19985908                0.65212603               -0.02166084                0.03091989               -0.04347809
               2.26495888                4.03601095                9.00597665                0.44794689               -0.11140077               -0.05380145                0.23259487                0.04564590                1.46245532               -0.90920710
               3.26408943                4.01377157                8.98237851                0.00010000               -0.19184026                0.37115217               -0.22272402                0.52047313                4.07612218               -0.17896709
               4.26112208                4.00194907                8.98285366                0.00010000               -0.28944829                0.20431357               -0.14190507                1.06478077                5.06278283               -0.48918729
               5.25830046                3.98890371                8.98143809                0.00010000               -0.27490799                0.16572311               -0.20326619                1.04903271                4.84293836               -0.33421797
               6.25562392                3.97642318                8.97948457                0.00010000               -0.24961529                0.16262938               -0.29271354                1.04712713                4.72118865               -0.00469584
               7.25330815                3.96511913                8.97752999                0.00010000               -0.24329770                0.11593557               -0.38921245                1.00787469                4.75027021                0.55958588
               8.25075796                3.95564047                8.97765975                0.00010000               -0.04564632                0.21008443               -0.46364820                0.45743235                2.43850489                1.39483157
               9.25239523                3.93845007                8.93066095                1.00000000                0.23128762                0.27280315               -0.82040834                0.01338111                0.04011023                0.41071708
              10.25538372                3.92138374                8.88292183                1.00000000                0.29884889                0.35899283               -1.20727618               -0.02916230               -0.00108741               -0.29718851
               0.29031639                5.07836399                9.10085481                1.00000000               -0.20908878               -0.31716525                0.95040712               -0.04254688                0.06512518                0.81358534
               1.28822550                5.05731494                9.04433262                0.00010000               -0.14831226               -0.15101798                0.50134619               -0.02496638                0.10077144               -0.09141883
               2.28735015                5.03575442                8.98839045                0.00010000               -0.12783571                0.00491010                0.06389136                0.20721467                2.50910770               -0.91796178
               3.28566879                5.01829739                8.98011196                0.00010000               -0.20966830                0.36143002               -0.15513190                0.56021802                5.09219031               -0.18023735
               4.28315678                5.00414539                8.97798924                0.00010000               -0.26834790                0.24236092               -0.21636501                0.79034943                5.54532334               -0.32968707
               5.28030183                4.99090061                8.98082349                0.00010000               -0.31773462                0.21545067               -0.22511011                0.82436129                5.77562176               -0.19627375
               6.27680209                4.97817383                8.98532834                0.00010000               -0.37692819                0.18765636               -0.23903036                0.81893343                5.83780345                0.11698496
               7.27276327                4.96666613                8.99143750                0.00010000               -0.43267829                0.15244136               -0.24664599                0.82735794                5.92972545                0.57803689
               8.26814852                4.95724603                8.99967504                0.00010000               -0.17651623                0.11808590               -0.23329570                0.39633968                2.99008516                1.10290086
               9.26923294                4.94086140                8.94850004                0.00010000                0.17879560                0.20791879               -0.63596885                0.00740026                0.00979618                0.37879833
              10.27172443                4.92475332                8.89715894                1.00000000                0.24914912                0.31297414               -1.04832930               -0.02955340               -0.00259320               -0.32596993
               0.31007909                6.07536843                9.09052487                1.00000000               -0.16514049               -0.27582845                0.82049837               -0.04513446                0.06769316                0.75635669
               1.30842768                6.05606232                9.02936590                0.00010000               -0.09791825               -0.09782899                0.32948542               -0.03248100                0.14856860               -0.19077307
               2.30812072                6.03610915                8.96969886                0.00010000               -0.07624348                0.06847230               -0.14753373                0.23698636                3.17101443               -1.07690112
               3.30690281                6.02100017                8.96911201                0.00010000               -0.18974390                0.25836691               -0.21950421                0.58005712                6.21355846               -0.72606570
               4.30432585                6.00679629                8.97298792                0.00010000               -0.30717823                0.27619310               -0.23793248                0.65234610                6.50544221               -0.43240186
               5.30075925                5.99321272                8.98078999                0.00010000               -0.40443879                0.24988554               -0.21336193                0.64399860                6.73162004               -0.18171157
               6.29623707                5.98017630                8.99160505                0.00010000               -0.49880696                0.20896834               -0.16736029                0.61992746                6.88581961                0.14654469
               7.29078311                5.96816795                9.00485116                0.00010000               -0.58737889                0.13928233               -0.10404604                0.62608418                7.02434396                0.55271068
               8.28448949                5.95800219                9.02058516                0.00010000               -0.28735842                0.03725590               -0.01640432                0.29621135                3.54557558                1.02334557
               9.28503594                5.94260845                8.96596221                0.00010000                0.12596556                0.14415000               -0.44903854                0.00143139                0.02518375                0.33993279
              10.28700880                5.92764322                8.91125323                1.00000000                0.19728613                0.26274239               -0.88014077               -0.02801980                0.01810245               -0.35996379
               0.32802592                7.07284742                9.07951834                0.00010000               -0.11907511               -0.22454203                0.68003197               -0.04392507                0.04069064                0.70763863
               1.32683517                7.05535836                9.01336434                0.00010000               -0.04369431               -0.04369045                0.14667514               -0.03403966                0.13523795               -0.26139109
               2.32715203                7.03712387                8.94899047                0.00010000               -0.01261874                0.13385042               -0.37863234                0.22142570                3.75840684               -1.23285281
               3.32658279                7.02346473                8.95548631                0.00010000               -0.15804414                0.25634283               -0.32513234                0.50857656                7.34997972               -0.94054334
               4.32399115                7.00966925                8.96604406                0.00010000               -0.33904997                0.29256516               -0.25924455                0.50135032                7.59002391               -0.57132723
               5.31980179                6.99589833                8.98028465                0.00010000               -0.48728708                0.28165771               -0.18518269                0.46472798                7.78119875               -0.21606655
               6.31424541                6.98235319                8.99762704                0.00010000               -0.61713627                0.23019589               -0.08795303                0.41090091                7.93875979                0.13295816
               7.30745907                6.96945178                9.01787542                0.00010000               -0.73065761                0.12205592                0.03849401                0.38352488                8.10619978                0.52341790
               8.29963225                6.95799115                9.04106132                0.00010000               -0.39192623               -0.03710681                0.19607634                0.16243529                4.10100651                0.98332774
               9.29962054                6.94374440                8.98308489                0.00010000                0.07311221                0.08631845               -0.26480899               -0.00582390                0.03248212                0.30144872
              10.30109450                6.93000817                8.92481690                0.00010000                0.14739569                0.21326262               -0.72371843               -0.02818447                0.01624794               -0.40920420
               0.34417871                8.07087759                9.06805857                0.00010000               -0.07082583               -0.17032984                0.53309964               -0.04100678                0.02653936                0.68187490
               1.34347045                8.05518852                8.99696241                0.00010000                0.01320815                0.01162351               -0.04306833               -0.02809367                0.09941394               -0.29206593
               2.34444287                8.03878616                8.92723941                0.00010000                0.05292557                0.20083932               -0.62537352                0.18698407                4.28905257               -1.25320160
               3.34452896                8.02612702                8.94019360                0.00010000               -0.12618043                0.25807657               -0.38082896                0.38293622                8.50157034               -1.03191909
               4.34191926                8.01264760                8.95807859                0.00010000               -0.35795444                0.28674020               -0.25446123                0.33485015                8.74238212               -0.58078719
               5.33736987                7.99884588                8.97913946                0.00010000               -0.55088115                0.29626476               -0.15160628                0.29395707                8.85982533               -0.21355855
               6.33090164                7.98478022                9.00306975                0.00010000               -0.72771070                0.26899815               -0.01028895                0.21025656                8.99276227                0.10487846
               7.32281566                7.97060907                9.03028347                0.00010000               -0.87280283                0.13323418                0.17572418                0.09404222                9.19801632                0.45102531
               8.31344558                7.95726005                9.06121366                0.00010000               -0.49566057               -0.10821336                0.40644747               -0.00347970                4.66465012                0.92215733
               9.31290244                7.94433482                8.99981251                0.00010000                0.02359968                0.03171868               -0.09504332               -0.00821959                0.03018886                0.28693094
              10.31391757                7.93190847                8.93790265                0.00010000                0.10151296                0.17138774               -0.58277143               -0.02930408                0.00452134               -0.43515652
               0.35858393                9.06944082                9.05636841                0.00010000               -0.02192072               -0.12099946                0.38441600               -0.03591779                0.02343658                0.56388521
               1.35836472                9.05559083                8.98034813                0.00010000                0.06846353                0.07071209               -0.23718629               -0.01501439                0.12295087               -0.26980825
               2.35995320                9.04114065                8.90626782                0.00010000                0.10076768                0.26474946               -0.86821013                0.11108761                4.83843422               -0.90323615
               3.36038008                9.02862626                8.92487881                0.00010000               -0.09919522                0.22560009               -0.29317328                0.20079985                9.66607095               -0.76410428
               4.35796930                9.01540406                8.95048464                0.00010000               -0.34158864                0.25952008               -0.23284682                0.17004892                9.88667661               -0.37914193
               5.35354831                9.00182362                8.97786006                0.00010000               -0.56409783                0.28935046               -0.12444589                0.15725520                9.86459217               -0.13246475
               6.34668734                8.98773316                9.00766712                0.00010000               -0.83441136                0.29539838                0.05428263                0.06405776                9.97419035                0.06569072
               7.33686008                8.97211646                9.04124926                0.00010000               -1.04252140                0.24892440                0.29617789               -0.12505365               10.28086078                0.27771022
               8.32583691                8.95582688                9.08042861                0.00010000               -0.60261738               -0.17017810                0.60416397               -0.21929274                5.30462481                0.65022308
               9.32480773                8.94437877                9.01665165                0.00010000               -0.02379023               -0.02370552                0.07514514               -0.00588540                0.07071286                0.26176677
              10.32536111                8.93343592                8.95093965                0.00010000                0.05533782                0.13431850               -0.44169312               -0.02859526               -0.02312039               -0.36437275
               0.37116033               10.06845760                9.04236629                0.00010000                0.03099989               -0.09832233                0.22663313                0.07215574                0.33708309                0.45853936
               1.37147033               10.05660276                8.96445441                0.00010000                0.12344281                0.10119242               -0.41804625                0.09173808                0.60282037               -0.24151190
               2.37362919               10.04408115                8.89185346                0.00010000                0.14056093                0.29404954               -1.03891001                0.06941220                5.60187131               -0.60105242
               3.37428155               10.03063903                8.91429220                0.00010000               -0.07531540                0.20127624               -0.28227448                0.07798976               10.51615457               -0.38961232
               4.37212288               10.01783800                8.94522799                0.00010000               -0.30478381                0.24339399               -0.25376583                0.11505137               10.73381648               -0.15886835
               5.36818587               10.00463289                8.97700998                0.00010000               -0.51164649                0.28092656               -0.12267921                0.10626662               10.64588212               -0.02743606
               6.36188995                9.99068819                9.01108377                0.00010000               -0.79825072                0.29550341                0.09489629                0.06799479               10.76687383                0.07659813
               7.35222086                9.97558756                9.04927451                0.00010000               -1.25462673                0.34711001                0.38363577               -0.30550666               11.19697774                0.19556823
               8.33679742                9.95385649                9.09496134                0.00010000               -0.85225831               -0.19703861                0.75322277               -0.49029221                6.06451345                0.43267134
               9.33517569                9.94386071                9.03281825                0.00010000               -0.07830257               -0.05180604                0.23855380                0.07371389                0.42260857                0.23612842
              10.33523137                9.93459484                8.96543482                0.00010000                0.00556719                0.11589222               -0.29077871                0.06043913                0.16648403               -0.29038414
               0.20541878                0.11658960               10.16704993                1.00000000               -0.39613903               -0.44008459                1.51443039               -0.07643575               -0.47050130                0.52117208
               1.20145739                0.08463220               10.12499093                1.00000000               -0.32750198               -0.34276381                1.19782754               -0.05616818               -0.55922160                0.00610724
               2.19886874                0.05239797               10.08102591                1.00000000               -0.17808318               -0.24815537                0.84507408               -0.04362087               -0.49097251               -0.19339716
               3.19789572                0.02095456               10.04021988                0.00010000                0.30572625               -0.18301620                0.53050050                0.38539713                0.43734934               -0.33868726
               4.20498326               -0.00068918               10.01476047                0.00010000                0.50400578               -0.15012363                0.23673540                0.00207082                1.09245486                0.01471037
               5.20797584               -0.01581348                9.98699824                0.00010000                0.20062175               -0.00442529               -0.09727030               -0.00151261                0.78888186                0.01568925
               6.20899570               -0.02997605                9.95589887                0.00010000                0.05589393                0.11024770               -0.44751027                0.00526600                0.65553103               -0.00694542
               7.20909372               -0.04638572                9.92560539                0.00010000                0.05900826                0.22197869               -0.79759468                0.06435463                0.40227930                0.02925986
               8.21017586               -0.06731705                9.88946444                1.00000000                0.21920864                0.33894003               -1.12643513                0.04122202               -0.08039666                0.31895728
               9.21347789               -0.09076574                9.84972853                1.00000000                0.39799464                0.41484701               -1.44403231               -0.05065117               -0.28827796                0.02490730
              10.21813575               -0.11428478                9.80960888                1.00000000                0.46578653                0.50491330               -1.75011311               -0.07976789               -0.31400570               -0.33464674
               0.23661182                1.11218876               10.15271196                1.00000000               -0.36203031               -0.42365910                1.37641752               -0.03198716               -0.04577136                0.71297538
               1.23299152                1.08120456               10.11019250                1.00000000               -0.31702398               -0.32085646                1.06049521               -0.01149511                0.01991108                0.01678647
               2.23027135                1.04991641               10.06890102                1.00000000               -0.23491270               -0.22327709                0.73773146                0.01236575                0.26066451               -0.51554935
               3.22829327                1.01912440               10.03120626                1.00000000               -0.34416761               -0.17663428                0.41444148                0.50506818                1.42003767               -0.69331307
               4.22338799                0.99780958               10.01326580                0.00010000               -0.28445604                0.09254110                0.20467127                0.46373486                2.00449176                0.31014069
               5.22260415                0.98414226                9.98897663                0.00010000                0.04732397                0.09803234               -0.09660833                0.48279409                1.46645824                0.21315736
               6.22433447                0.97112643                9.96103283                0.00010000                0.29018075               -0.04108396               -0.41755072                0.41245873                1.32662561               -0.34806114
               7.22840776                0.95583407                9.93435156                0.00010000                0.42218104                0.25521904               -0.71981859                0.44891138                1.22046810                0.53429106
               8.23277809                0.93607235                9.90442774                1.00000000                0.40237409                0.31319242               -1.00278591                0.15576719                0.60170423                0.41488858
               9.23645524                0.91338273                9.86523908                1.00000000                0.40395124                0.39605021               -1.30463946               -0.00192751                0.08668526                0.07457893
              10.24085712                0.89076435                9.82505769                1.00000000                0.44018744                0.47924768               -1.61033898               -0.03137378                0.03287586               -0.39493131
               0.26674743                2.10811642               10.14203005                1.00000000               -0.32476029               -0.39432284                1.26533917               -0.03405114                0.03071868                0.92189358
               1.26349983                2.07821507               10.09550452                1.00000000               -0.27756098               -0.28091093                0.92806082               -0.01487098                0.10020310               -0.00083122
               2.26119621                2.04793243               10.05028658                1.00000000               -0.16979551               -0.17475364                0.61114619               -0.00060991                0.66670302               -0.98509104
               3.26010392                2.01742188               10.01508457                0.00010000               -0.59780570               -0.15655150                0.28974872                0.79644068                3.02808361               -1.32399320
               4.24924010                2.00116164               10.01727549                0.00010000               -0.78945200                0.22517503                0.58054209                1.54940512                3.21667706               -0.87419700
               5.24431488                1.98614716                9.99476854                0.00010000               -0.18435165                0.08288872               -0.02205363                1.32427934                1.39335188               -0.47359149
               6.24555306                1.96920227                9.95937309                0.00010000                0.44055712               -0.07827163               -0.40049611                1.35056640                2.22371484                0.05375272
               7.25312602                1.95871866                9.95328869                0.00010000                0.50947409               -0.00192885               -0.61558939                0.97448918                2.48772241                0.36045946
               8.25574255                1.93894680                9.92136651                0.00010000                0.28106599                0.29025378               -0.85946319                0.20389098                0.84090898                0.78031413
               9.25874734                1.91715526                9.88183609                1.00000000                0.35012465                0.37164943               -1.16097961                0.03166131                0.31438050                0.33757279
              10.26274504                1.89530017                9.83943431                1.00000000                0.39976992                0.43032404               -1.48371592               -0.02052901                0.16798410               -0.40919070
               0.29573351                3.10430230               10.13167123                1.00000000               -0.28554116               -0.36868122                1.15561931               -0.03603202                0.02665750                0.93882547
               1.29287810                3.07558634               10.08025275                1.00000000               -0.23405855               -0.24217281                0.79014974               -0.01881266                0.02891939               -0.03541494
               2.29105234                3.04642134               10.02877724                0.00010000               -0.09426159               -0.11835949                0.42535473               -0.05786487                0.83548923               -1.07889922
               3.29099287                3.01599337                9.99346978                0.00010000               -0.27007642                0.05190391                0.11674021                0.71833356                3.30602847               -1.19530929
               4.28565081                3.00231308                9.99165655                0.00010000               -0.49718802                0.13795238                0.03728295                1.74534743                4.54252486               -1.55261103
               5.28104911                2.98580004                9.98325489                0.00010000               -0.34382557                0.05426399               -0.09672850                1.67235301                3.92808548               -0.94969930
               6.27877430                2.96956099                9.97193656                0.00010000               -0.14480445                0.09617423               -0.32698479                1.56390280                3.63872274                0.31017154
               7.27815302                2.95579549                9.95886633                0.00010000               -0.01774930               -0.10396305               -0.51658415                1.14546398                3.40709288                0.12625039
               8.27841931                2.94187743                9.94369212                0.00010000                0.12910404                0.28123703               -0.70919141                0.48930767                1.97699656                1.40567949
               9.28073510                2.92081572                9.90266662                1.00000000                0.28687057                0.33578127               -0.98769659                0.04204282                0.33633502                0.50197585
              10.28415672                2.89937083                9.85477813                1.00000000                0.34216268                0.39133849               -1.34602250               -0.02936013               -0.01081016               -0.33046034
               0.32345871                4.10074280               10.12114287                1.00000000               -0.24541770               -0.34215978                1.04171281               -0.03637178                0.02651519                0.91685661
               1.32100453                4.07337161               10.06480884                1.00000000               -0.19134136               -0.19844266                0.64537001               -0.01694419                0.02778025               -0.04541466
               2.31963188                4.04556524               10.00839015                0.56987194               -0.12128437               -0.05768041                0.24802079                0.04228218                1.42826884               -0.96918968
               3.31857885                4.01845996                9.98008389                0.00010000               -0.26457525                0.37273757               -0.22844276                0.57244228                4.31049618               -0.24026808
               4.31434038                4.00392069                9.98152284                0.00010000               -0.40324093                0.18212044               -0.12787855                1.18349041                5.49517404               -0.57566963
               5.31051403                3.98723244                9.97949195                0.00010000               -0.37523575                0.17224116               -0.18928663                1.14010344                5.17570399               -0.40074923
               6.30683566                3.97112575                9.97659011                0.00010000               -0.33975808                0.17530492               -0.28516318                1.13542614                5.02711232                0.00346506
               7.30371887                3.95663940                9.97363801                0.00010000               -0.31635951                0.12882984               -0.38636620                1.11548914                5.05656820                0.61935740
               8.30050847                3.94457154                9.97299642                0.00010000               -0.08120378                0.21628765               -0.46703401                0.51927786                2.60880866                1.51319287
               9.30209479                3.92387089                9.92250293                1.00000000                0.22695688                0.27210780               -0.81205216                0.02314588                0.05710078                0.44460548
              10.30504761                3.90312694                9.87092281                1.00000000                0.29528204                0.35460023               -1.19448756               -0.02749382               -0.00017986               -0.31117022
               0.34974844                5.09745911               10.11019153                1.00000000               -0.20316695               -0.31027057                0.91907503               -0.03886622                0.06940915                0.86823610
               1.34771678                5.07161749               10.04932426                0.00010000               -0.14694027               -0.14965019                0.49682617               -0.02136484                0.10968939               -0.10546735
               2.34680964                5.04526773                9.98915546                0.00010000               -0.18152582                0.00108388                0.08653621                0.23029608                2.61893679               -0.99300364
               3.34408626                5.02344812                9.97852444                0.00010000               -0.31307541                0.39671249               -0.17364755                0.59778176                5.39878025               -0.10377034
               4.34054813                5.00595549                9.97589055                0.00010000               -0.37200748                0.23430544               -0.20602102                0.87206854                5.96459391               -0.34191391
               5.33664611                4.98924486                9.97864298                0.00010000               -0.42361354                0.22042417               -0.21188500                0.88872929                6.20443591               -0.20447115
               6.33207586                4.97306709                9.98297275                0.00010000               -0.48145472                0.20737620               -0.23107866                0.88516190                6.25519827                0.13846642
               7.32701702                4.95837209                9.98896268                0.00010000               -0.52512385                0.17119500               -0.24625296                0.91096536                6.34879161                0.63912357
               8.32157338                4.94620318                9.99729818                0.00010000               -0.21872008                0.11853236               -0.24160962                0.44699400                3.20464736                1.20332056
               9.32264261                4.92625787                9.94217758                0.00010000                0.17606810                0.20511514               -0.62873618                0.01430823                0.01541872                0.41474901
              10.32509475                4.90646284                9.88675536                1.00000000                0.24521321                0.31078003               -1.03255927               -0.02800438               -0.00272305               -0.33349418
               0.37436462                6.09453739               10.09854895                1.00000000               -0.15960133               -0.26792958                0.78688696               -0.04151116                0.06789812                0.80264930
               1.37276861                6.07037861               10.03264999                0.00010000               -0.09787257               -0.09665230                0.32733314               -0.02871520                0.15429594               -0.22002400
               2.37240717                6.04558691                9.96837940                0.00010000               -0.14609434                0.06461496               -0.11883347                0.27658135                3.37776117               -1.18318613
               3.36984672                6.02639420                9.96704462                0.00010000               -0.32110800                0.27186109               -0.20024037                0.65622610                6.64229652               -0.72961320
               4.36598501                6.00860680                9.97070863                0.00010000               -0.43348541                0.28187574               -0.22237763                0.73956828                6.98210161               -0.41516792
               5.36117701                5.99164093                9.97873443                0.00010000               -0.52866696                0.26516137               -0.19902417                0.71999073                7.23397661               -0.16264562
               6.35541167                5.97527328                9.98996660                0.00010000               -0.61874641                0.23354786               -0.15953151                0.68386582                7.39527402                0.18100322
               7.34880209                5.96006330               10.00379241                0.00010000               -0.69245517                0.15959346               -0.10584068                0.69305606                7.54043553                0.61334488
               8.34156257                5.94694219               10.02035290                0.00010000               -0.33403937                0.03592797               -0.02968625                0.33352076                3.80394017                1.11475411
               9.34212130                5.92797319                9.96146811                0.00010000                0.12575164                0.14233590               -0.44939883                0.00572936                0.02867132                0.37600201
              10.34407760                5.90934254                9.90250747                1.00000000                0.19563027                0.26365442               -0.87053213               -0.02626342                0.02363690               -0.36954812
               0.39723578                7.09210051               10.08612830                0.00010000               -0.11428341               -0.21605521                0.64505178               -0.04010481                0.03881571                0.74683257
               1.39609294                7.06968444               10.01484724                0.00010000               -0.04550538               -0.04336346                0.14982566               -0.02936848                0.13579771               -0.29836094
               2.39632567                7.04656003                9.94542080                0.00010000               -0.09510232                0.12769286               -0.33843347                0.26848071                4.04164410               -1.35557831
               3.39419090                7.02888534                9.95240705                0.00010000               -0.31164469                0.25847342               -0.29676306                0.60470879                7.91509591               -0.94978542
               4.39009278                7.01159301                9.96357670                0.00010000               -0.49057269                0.31239426               -0.23902212                0.61302578                8.16036459               -0.54097287
               5.38437944                6.99454809                9.97852449                0.00010000               -0.63809883                0.31477771               -0.16943778                0.55671837                8.35965607               -0.18315238
               6.37733080                6.97773805                9.99678652                0.00010000               -0.75851076                0.26704813               -0.08017726                0.47533441                8.53092478                0.17238180
               7.36920923                6.96156396               10.01822598                0.00010000               -0.84984451                0.14869612                0.03340160                0.43287051                8.71214929                0.58199189
               8.36033391                6.94692174               10.04290098                0.00010000               -0.44261914               -0.03640671                0.17449088                0.18714874                4.40356259                1.07178110
               9.36035685                6.92910459                9.98042052                0.00010000                0.07484349                0.08643637               -0.27177279               -0.00100439                0.03364448                0.33182433
              10.36183078                6.91173592                9.91763475                0.00010000                0.14739337                0.21546276               -0.71964584               -0.02556926                0.01957861               -0.42861512
               0.41839467                8.09021628               10.07319773                0.00010000               -0.06729503               -0.16172797                0.49827956               -0.03730106                0.02358121                0.71759100
               1.41772172                8.06951134                9.99658991                0.00010000                0.00906059                0.00983807               -0.03194085               -0.02342889                0.09224781               -0.33372419
               2.41857588                8.04814077                9.92129411                0.00010000               -0.04068986                0.18845313               -0.56812265                0.24328742                4.66702154               -1.38061888
               3.41690792                8.03156367                9.93639646                0.00010000               -0.29965502                0.27778380               -0.37745012                0.51095271                9.21278070               -0.96647486
               4.41258278                8.01485468                9.95558874                0.00010000               -0.53707918                0.33632486               -0.24733336                0.46864457                9.38736898               -0.52619644
               5.40616634                7.99793648                9.97772359                0.00010000               -0.73401470                0.35310239               -0.13646352                0.39096844                9.50320534               -0.17601889
               6.39790249                7.98061424               10.00301086                0.00010000               -0.89452669                0.32408404               -0.00278738                0.26595773                9.66261035                0.14018011
               7.38827581                7.96303722               10.03198345                0.00010000               -1.00687895                0.17284213                0.16618600                0.11913957                9.89402287                0.49990462
               8.37776491                7.94621405               10.06509514                0.00010000               -0.54943905               -0.10292700                0.37348736                0.00418967                5.00857869                1.00328624
               9.37728703                7.92970192                9.99881175                0.00010000                0.02693218                0.03347540               -0.10605542               -0.00503260                0.02503482                0.31034930
              10.37830355                7.91365180                9.93213792                0.00010000                0.10165278                0.17211720               -0.57589192               -0.02639308                0.00702055               -0.46117380
               0.43789964                9.08886595               10.06002458                0.00010000               -0.01997659               -0.11206977                0.35072690               -0.03306243                0.01743059                0.59433899
               1.43769988                9.06988120                9.97808971                0.00010000                0.06197209                0.06539801               -0.21584528               -0.01236668                0.11153836               -0.30677752
               2.43913908                9.05032910                9.89800511                0.00010000               -0.00019184                0.24443478               -0.79070852                0.19907308                5.35869074               -0.99417894
               3.43769604                9.03444102                9.92128641                0.00010000               -0.30231115                0.31254689               -0.38938698                0.33161558               10.50372472               -0.66278173
               4.43309286                9.01831950                9.94810115                0.00010000               -0.56283927                0.34672435               -0.24753776                0.27880375               10.54569345               -0.32882804
               5.42643925                9.00161014                9.97672336                0.00010000               -0.77718263                0.36745510               -0.11083293                0.22355061               10.56075724               -0.10575338
               6.41754921                8.98421973               10.00825787                0.00010000               -1.02235227                0.36485615                0.06141474                0.09712223               10.71977183                0.08744404
               7.40599221                8.96502080               10.04412891                0.00010000               -1.18981000                0.30755202                0.28197093               -0.12431719               11.06778806                0.30497416
               8.39375301                8.94486320               10.08621609                0.00010000               -0.65868801               -0.15868358                0.55883863               -0.23226691                5.69673633                0.70007801
               9.39281845                8.92977410               10.01729015                0.00010000               -0.01749225               -0.01868734                0.05402374               -0.00628080                0.06287891                0.28164114
              10.39340316                8.91517827                9.94653319                0.00010000                0.05847149                0.13514246               -0.44171602               -0.02672123               -0.02516288               -0.38656936
               0.45570293               10.08797489               10.04446731                0.00010000                0.03083207               -0.08910678                0.19721816                0.06476960                0.34598343                0.48343450
               1.45601125               10.07081930                9.96043451                0.00010000                0.11473010                0.09380964               -0.38808388                0.08386601                0.62177210               -0.27139454
               2.45799753               10.05302947                9.88192423                0.00010000               -0.02307103                0.27003717               -0.95398324                0.23560995                6.23926837               -0.65587906
               3.45554983               10.03781461                9.91055953                0.00010000               -0.35038930                0.33735914               -0.42138161                0.22336378               11.43785736               -0.31389507
               4.45098974               10.02178917                9.94261280                0.00010000               -0.54063493                0.34696656               -0.27483984                0.16323661               11.42716511               -0.12767660
               5.44473713               10.00528558                9.97589672                0.00010000               -0.72777374                0.36754463               -0.10899412                0.13589699               11.40837014               -0.00971334
               6.43643427                9.98791136               10.01207994                0.00010000               -0.97955669                0.36916344                0.10177721                0.08364005               11.59162992                0.09200765
               7.42514599                9.96918827               10.05301594                0.00010000               -1.40339974                0.41674642                0.36721389               -0.32817071               12.07258926                0.21535193
               8.40836627                9.94304038               10.10219504                0.00010000               -0.91498269               -0.18228182                0.70057743               -0.53167826                6.51540242                0.45603708
               9.40684634                9.92932817               10.03503824                0.00010000               -0.07027392               -0.04459278                0.20811621                0.06850239                0.43817616                0.25201782
              10.40696079                9.91635465                9.96249745                0.00010000                0.01144542                0.11763778               -0.29910316                0.05841033                0.17479690               -0.30616426
               0.24415947                0.13700941               11.18205999                1.00000000               -0.38964896               -0.43150823                1.48909664               -0.07510414               -0.50774896                0.55581534
               1.24026298                0.10021037               11.13688686                1.00000000               -0.32147802               -0.33776754                1.18170789               -0.05602872               -0.61538176                0.01265639
               2.23772991                0.06316089               11.08943405                1.00000000               -0.17377899               -0.24619222                0.84022137               -0.04303353               -0.54755062               -0.18659618
               3.23678740                0.02700701               11.04552023                1.00000000                0.30790430               -0.18292379                0.53332649                0.40667094                0.40791320               -0.37017382
               4.24388800                0.00118034               11.01712321                0.00010000                0.49502457               -0.13124634                0.23633021               -0.00757814                1.05131820                0.02831431
               5.24668789               -0.01761045               10.98604998                0.00010000                0.18755803                0.00167475               -0.09196187                0.00195867                0.72559428                0.02174656
               6.24763916               -0.03536161               10.95148442                0.00010000                0.05138823                0.10914834               -0.43497732                0.00646077                0.58321994               -0.01286705
               7.24771566               -0.05522769               10.91769590                0.00010000                0.05281636                0.21787260               -0.78288045                0.06245073                0.33822566                0.03002653
               8.24869548               -0.07965386               10.87827663                1.00000000                0.20957184                0.33577519               -1.10996161                0.04375043               -0.12670009                0.33053777
               9.25190709               -0.10673698               10.83537645                1.00000000                0.39007461                0.41000378               -1.42547740               -0.05097711               -0.32313315                0.02276536
              10.25649698               -0.13393475               10.79220625                1.00000000                0.45898817                0.49818679               -1.72951283               -0.07987967               -0.34359041               -0.36530178
               0.28020747                1.13269432               11.16635242                1.00000000               -0.35805126               -0.41438639                1.35309841               -0.03131795               -0.05379632                0.75965407
               1.27662695                1.09683269               11.12072801                1.00000000               -0.31531065               -0.31581899                1.04696644               -0.01068553                0.00692732                0.02522900
               2.27390125                1.06069897               11.07623924                1.00000000               -0.23912833               -0.22239287                0.73133041                0.01803703                0.24350839               -0.51727811
               3.27184439                1.02517778               11.03535160                1.00000000               -0.38901534               -0.17712225                0.41689167                0.54780912                1.45761901               -0.72931844
               4.26612095                0.99986787               11.01529855                0.00010000               -0.34329674                0.09970826                0.20228703                0.33703590                2.06054712                0.49086581
               5.26497845                0.98240630               10.98802556                0.00010000                0.01957189                0.09425322               -0.09357862                0.41833285                1.47403415                0.24422173
               6.26651238                0.96572987               10.95690752                0.00010000                0.27539188               -0.02681301               -0.40764170                0.37005390                1.33404656               -0.35561085
               7.27048629                0.94695104               10.92720926                0.00010000                0.41876254                0.24479690               -0.70792656                0.44694754                1.24104884                0.54566566
               8.27488763                0.92370389               10.89446527                1.00000000                0.40257405                0.31019196               -0.98942682                0.16321693                0.61645759                0.43570168
               9.27853777                0.89736306               10.85226866                1.00000000                0.40041583                0.39200425               -1.28917055               -0.00177564                0.08915891                0.07428757
              10.28289595                0.87104712               10.80904066                1.00000000                0.43581808                0.47156000               -1.59278346               -0.03154359                0.03306475               -0.43220922
               0.31525637                2.12872168               11.15455935                1.00000000               -0.32117419               -0.38448187                1.24198482               -0.03114207                0.02978052                0.98176994
               1.31204463                2.09389399               11.10472612                1.00000000               -0.27554009               -0.27665958                0.91648187               -0.01026453                0.10852899                0.00719225
               2.30974557                2.05871303               11.05640240                1.00000000               -0.17349761               -0.17750356                0.61037319                0.01440968                0.68160692               -1.02398636
               3.30857468                2.02346457               11.01802061                0.00010000               -0.81726888               -0.16044674                0.29541887                0.85278975                3.30895729               -1.38729303
               4.29340019                2.00317450               11.02237770                0.00010000               -0.96910646                0.24458395                0.44834965                1.63738974                3.42897915               -0.94822373
               5.28919255                1.98427462               10.99434146                0.00010000               -0.14523482                0.07312292               -0.05283917                1.40130791                1.33485960               -0.47147852
               6.29049549                1.96410213               10.95549520                0.00010000                0.47440208               -0.09111142               -0.38217885                1.40596148                2.32153919                0.06104349
               7.29868059                1.94966825               10.94711297                0.00010000                0.55261543               -0.02139667               -0.61708501                1.00854682                2.58962398                0.38454425
               8.30154780                1.92654998               10.91282683                0.00010000                0.29238854                0.29120620               -0.84906240                0.23088453                0.90558786                0.81611759
               9.30452836                1.90110310               10.87029164                1.00000000                0.34750921                0.37074766               -1.14823926                0.03789837                0.33666648                0.35369028
              10.30849799                1.87549645               10.82467260                1.00000000                0.39696280                0.42143178               -1.46887512               -0.01867451                0.17964688               -0.44665797
               0.34924000                3.12500469               11.14309893                1.00000000               -0.28096904               -0.35965536                1.13147887               -0.03182244                0.02683324                0.99751181
               1.34643031                3.09129950               11.08810819                1.00000000               -0.23105669               -0.23955531                0.78088684               -0.01373260                0.02860209               -0.03313917
               2.34461887                3.05714889               11.03306949                0.00010000               -0.09958000               -0.12320457                0.43146929               -0.04135106                0.86157257               -1.14365598
               3.34443871                3.02196884               10.99470461                0.00010000               -0.32800866                0.02234906                0.12756685                0.81013174                3.47025007               -1.37040571
               4.33805869                3.00475955               10.99206442                0.00010000               -0.61808655                0.15135928                0.03579088                2.00586145                4.79796681               -1.84969094
               5.33207698                2.98386876               10.98224476                0.00010000               -0.44103578                0.06130125               -0.10700767                1.83514091                4.12067446               -1.02873606
               6.32923798                2.96390765               10.96870405                0.00010000               -0.19338021                0.06770802               -0.32067537                1.70894755                3.80608865                0.33363111
               7.32820938                2.94652310               10.95374410                0.00010000               -0.05837537               -0.11291593               -0.50759962                1.24864957                3.58710741                0.17211504
               8.32807047                2.92952802               10.93668170                0.00010000                0.10699477                0.28741413               -0.69470221                0.53881617                2.09771068                1.48329932
               9.33034927                2.90477801               10.89284157                1.00000000                0.28326518                0.33640582               -0.97788204                0.05151119                0.37489557                0.53182873
              10.33373577                2.87947575               10.84138298                1.00000000                0.33865036                0.38433311               -1.33384785               -0.02810778               -0.00907439               -0.35429660
               0.38203029                4.12152857               11.13142421                1.00000000               -0.24045203               -0.33410281                1.01625103               -0.03261328                0.02610289                0.96979511
               1.37962577                4.08910288               11.07122813                1.00000000               -0.18905401               -0.19675301                0.63837796               -0.01272900                0.02590757               -0.04822041
               2.37824921                4.05624894               11.01093706                0.69957874               -0.12295577               -0.06219016                0.25945893                0.03592514                1.37935080               -1.02223112
               3.37716665                4.02391155               10.97780965                0.00010000               -0.33158525                0.36462100               -0.21976074                0.62116709                4.52037768               -0.31589897
               4.37161750                4.00620169               10.98029609                0.00010000               -0.52096915                0.16808851               -0.12204348                1.29302579                5.91485605               -0.66759085
               5.36674727                3.98550064               10.97765236                0.00010000               -0.47987032                0.18499756               -0.18152416                1.22429855                5.49177038               -0.45815953
               6.36202010                3.96545629               10.97378131                0.00010000               -0.43570312                0.18295098               -0.27711679                1.21288335                5.31978041                0.01596701
               7.35803321                3.94740993               10.96980267                0.00010000               -0.39754382                0.13855492               -0.37991115                1.20231328                5.35004531                0.67954211
               8.35406922                3.93229826               10.96831907                0.00010000               -0.12111792                0.22139723               -0.46734143                0.56886926                2.77571317                1.62253397
               9.35561085                3.90783122               10.91441990                1.00000000                0.22355646                0.27065938               -0.80547811                0.03098600                0.07664888                0.47854996
              10.35854035                3.88318311               10.85903207                1.00000000                0.29295006                0.35115139               -1.18540230               -0.02587864                0.00048813               -0.32081568
               0.41343911                5.11832263               11.11923631                1.00000000               -0.19837472               -0.30219640                0.89185727               -0.03558502                0.07450575                0.91295455
               1.41145536                5.08736444               11.05426914                0.00010000               -0.14552033               -0.14820110                0.49196144               -0.01800782                0.11983207               -0.12039944
               2.41052870                5.05590509               10.99012118                0.00010000               -0.22730293               -0.00344297                0.10415572                0.24644664                2.69265852               -1.06018156
               3.40690930                5.02926126               10.97663901                0.00010000               -0.40992921                0.43068729               -0.21479548                0.62345457                5.68274496               -0.01922858
               4.40233012                5.00812132               10.97386882                0.00010000               -0.48004795                0.23025459               -0.20158024                0.94840050                6.38697462               -0.35278835
               5.39730835                4.98756871               10.97658579                0.00010000               -0.53718826                0.22888309               -0.20169776                0.94394445                6.61628891               -0.20990248
               6.39158635                4.96756667               10.98070677                0.00010000               -0.59473383                0.22631558               -0.22231696                0.93949831                6.65298639                0.16372893
               7.38541367                4.94929420               10.98651244                0.00010000               -0.62798936                0.18808100               -0.24294694                0.97808061                6.74949114                0.70170717
               8.37902657                4.93395596               10.99484284                0.00010000               -0.26647621                0.11981049               -0.24828463                0.48601872                3.41482025                1.30036021
               9.38008414                4.91019120               10.93592531                0.00010000                0.17439284                0.20271647               -0.62572092                0.01933815                0.02641957                0.44977283
              10.38251442                4.88649878               10.87650775                1.00000000                0.24302790                0.30948779               -1.02266852               -0.02611857                0.00103212               -0.33765952
               0.44323496                6.11548464               11.10626261                1.00000000               -0.15518124               -0.25936662                0.75818273               -0.03831620                0.06810830                0.83874060
               1.44168315                6.08613886               11.03591256                0.00010000               -0.09768208               -0.09566070                0.32504408               -0.02506551                0.16009855               -0.24872979
               2.44128132                6.05618008               10.96732219                0.00010000               -0.21318190                0.05962488               -0.09514989                0.31414192                3.56347852               -1.27901187
               3.43741951                6.03252530               10.96510720                0.00010000               -0.45016281                0.29279592               -0.19484968                0.72231027                7.03873203               -0.70342769
               4.43227807                6.01080678               10.96854036                0.00010000               -0.56193495                0.29241850               -0.21614783                0.81519432                7.43643357               -0.38906621
               5.42618082                5.99007830               10.97680950                0.00010000               -0.65967492                0.28387028               -0.18811957                0.78262879                7.71457585               -0.13852111
               6.41908457                5.96998260               10.98841442                0.00010000               -0.74876458                0.25949522               -0.15132629                0.73346522                7.88127140                0.21937825
               7.41120552                5.95117155               11.00273435                0.00010000               -0.80959839                0.18031898               -0.10508868                0.74428941                8.03363065                0.67501507
               8.40289260                5.93469447               11.01999144                0.00010000               -0.38753637                0.03642794               -0.04188410                0.35981971                4.05482714                1.20280628
               9.40345480                5.91188555               10.95697423                0.00010000                0.12551081                0.14230230               -0.45130952                0.00769558                0.03534622                0.40784484
              10.40540282                5.88937287               10.89384258                1.00000000                0.19480209                0.26533170               -0.86792598               -0.02410885                0.03045517               -0.38123064
               0.47136435                7.11313530               11.09241937                0.00010000               -0.11057323               -0.20757534                0.61588026               -0.03685710                0.03712524                0.77634889
               1.47025862                7.08545123               11.01636085                0.00010000               -0.04696207               -0.04336467                0.15257582               -0.02509227                0.13642700               -0.33222406
               2.47042511                7.05709759               10.94222180                0.00010000               -0.17649029                0.12046983               -0.30458195                0.31806865                4.30004300               -1.46220551
               3.46672881                7.03511718               10.94955105                0.00010000               -0.46720542                0.26964362               -0.27940382                0.69712687                8.43887041               -0.95867865
               4.46108100                7.01396969               10.96126362                0.00010000               -0.64718571                0.33962199               -0.22744793                0.70951877                8.69877895               -0.50871060
               5.45378510                6.99324611               10.97689590                0.00010000               -0.79592950                0.35241615               -0.15873836                0.63089588                8.90988954               -0.14585544
               6.44516241                6.97275657               10.99602349                0.00010000               -0.90987550                0.30649366               -0.07322290                0.52319470                9.09456859                0.21542836
               7.43558759                6.95290058               11.01854345                0.00010000               -0.98267234                0.17663425                0.03081900                0.46671274                9.28985977                0.64020284
               8.42550896                6.93468452               11.04455114                0.00010000               -0.50139612               -0.03418998                0.15697650                0.20164564                4.69398513                1.15353625
               9.42555966                6.91303724               10.97764943                0.00010000                0.07743266                0.08933160               -0.28414119                0.00132297                0.03480599                0.36040313
              10.42705762                6.89180541               10.91042398                0.00010000                0.14979516                0.22068431               -0.72702749               -0.02304219                0.02161311               -0.44578248
               0.49786596                8.11133314               11.07802416                0.00010000               -0.06469452               -0.15386388                0.47001829               -0.03426003                0.02112275                0.74434941
               1.49721902                8.08527157               10.99632360                0.00010000                0.00553917                0.00797260               -0.02215076               -0.01936595                0.08611136               -0.36997700
               2.49797675                8.05858948               10.91587696                0.00010000               -0.13645339                0.17646812               -0.51988654                0.30759042                5.00092685               -1.48722410
               3.49448995                8.03791817               10.93264460                0.00010000               -0.48186184                0.30451905               -0.37126816                0.63197311                9.86648924               -0.94295298
               4.48833951                8.01759922               10.95313192                0.00010000               -0.72390471                0.39168729               -0.24439032                0.57868349               10.00710132               -0.48517816
               5.48001185                7.99712663               10.97641019                0.00010000               -0.92227574                0.41446593               -0.12861831                0.46674478               10.12039446               -0.13746082
               6.46989399                7.97611248               11.00301400                0.00010000               -1.07000135                0.38281936                0.00213834                0.30462164               10.29901572                0.17802704
               7.45861183                7.95470424               11.03360719                0.00010000               -1.15525704                0.21414355                0.15947080                0.12841142               10.55383820                0.54703938
               8.44678885                7.93401067               11.06868341                0.00010000               -0.61257317               -0.09779914                0.34758788                0.00346926                5.33793654                1.07503130
               9.44636036                7.91367218               10.99769140                0.00010000                0.03083915                0.03739250               -0.12059449               -0.00177920                0.02339268                0.33289737
              10.44740564                7.89378655               10.92638481                0.00010000                0.10452716                0.17697973               -0.58293166               -0.02285617                0.01169455               -0.48164235
               0.52280228                9.11005802               11.06338295                0.00010000               -0.01873259               -0.10461560                0.32415862               -0.03075220                0.01265052                0.61746994
               1.52261496                9.08561068               10.97603123                0.00010000                0.05640161                0.06068430               -0.19749586               -0.01006187                0.10239593               -0.33792824
               2.52393032                9.06062695               10.89045365                0.00010000               -0.11282136                0.22679197               -0.72604438                0.29548353                5.79069887               -1.06808076
               3.52035853                9.04120756               10.91709107                0.00010000               -0.52420522                0.39483521               -0.42852792                0.45183376               11.27611708               -0.61704213
               4.51344621                9.02180344               10.94553388                0.00010000               -0.78758984                0.43309789               -0.26139948                0.36586821               11.21595692               -0.29431241
               5.50460673                9.00153543               10.97564340                0.00010000               -0.98844904                0.44826428               -0.10754104                0.27418997               11.23803541               -0.07939266
               6.49367723                8.98041296               11.00889541                0.00010000               -1.21745584                0.43858616                0.06433486                0.11786791               11.42763347                0.11038940
               7.48025762                8.95718345               11.04688868                0.00010000               -1.35334144                0.37081542                0.27120555               -0.13693537               11.81032761                0.33021537
               8.46661040                8.93272854               11.09160538                0.00010000               -0.72547076               -0.14956764                0.52393155               -0.25520281                6.06925218                0.74289693
               9.46574820                8.91378509               11.01773212                0.00010000               -0.01193247               -0.01336574                0.03506378               -0.00535403                0.05866454                0.29761112
              10.46637175                8.89534501               10.94210533                0.00010000                0.06235506                0.13782503               -0.44920052               -0.02384552               -0.02439832               -0.40649919
               0.54614560               10.10924082               11.04631066                0.00010000                0.03032511               -0.08171964                0.17443430                0.05877440                0.35261439                0.50253436
               1.54644885               10.08648525               10.95669273                0.00010000                0.10719689                0.08745737               -0.36262445                0.07761365                0.63699704               -0.29603069
               2.54828954               10.06312532               10.87277380                0.00010000               -0.20493558                0.24983644               -0.88312175                0.40240286                6.75918692               -0.69924577
               3.54235014               10.04581487               10.90586457                0.00010000               -0.64802675                0.46073119               -0.48664721                0.35595368               12.29632178               -0.28197728
               4.53532900               10.02626118               10.93973120                0.00010000               -0.77320016                0.44577383               -0.29544154                0.20213080               12.14888160               -0.10822457
               5.52688613               10.00609191               10.97483010                0.00010000               -0.93628352                0.45564786               -0.10677175                0.15909120               12.15332643                0.00609002
               6.51660333                9.98488420               11.01311931                0.00010000               -1.16642977                0.44712422                0.10429835                0.09404162               12.37608207                0.10659566
               7.50355754                9.96212054               11.05661879                0.00010000               -1.57600869                0.49370911                0.35470292               -0.36325177               12.89874344                0.23231234
               8.48508316                9.93101932               11.10897289                0.00010000               -0.99603623               -0.17092174                0.66116362               -0.58850847                6.94056036                0.47548911
               9.48363681                9.91340487               11.03698057                0.00010000               -0.06371291               -0.03802268                0.18206114                0.06504778                0.45179062                0.26417704
              10.48380890                9.89654305               10.95945276                0.00010000                0.01720839                0.11980448               -0.31078164                0.05753305                0.18077806               -0.32117024
               0.28561005                0.15912104               12.19683186                1.00000000               -0.38343659               -0.42385579                1.46661149               -0.07433168               -0.54290884                0.58789660
               1.28177568                0.11720303               12.14862509                1.00000000               -0.31628505               -0.33331495                1.16693147               -0.05651093               -0.66665344                0.01960161
               2.27928435                0.07505568               12.09783034                1.00000000               -0.17054277               -0.24531686                0.83967076               -0.04237762               -0.59993075               -0.18456779
               3.27836483                0.03388835               12.05088641                1.00000000                0.30977655               -0.18506898                0.54027058                0.42568859                0.37208724               -0.40451709
               4.28547988                0.00352643               12.01948708                0.00010000                0.48808420               -0.11540253                0.23727983               -0.01639390                1.00521611                0.04232697
               5.28812651               -0.01932972               11.98515900                0.00010000                0.17671457                0.00649346               -0.08600446                0.00463353                0.66320529                0.02829271
               6.28901417               -0.04107959               11.94719933                0.00010000                0.04697499                0.10830212               -0.42196313                0.00764374                0.51110525               -0.01829888
               7.28906601               -0.06481191               11.90994778                0.00010000                0.04735695                0.21422184               -0.76602766                0.06029821                0.27295263                0.03136089
               8.28996131               -0.09308357               11.86726521                1.00000000                0.20097983                0.33197529               -1.09159229                0.04450668               -0.17398420                0.34222693
               9.29308561               -0.12409485               11.82121898                1.00000000                0.38215156                0.40481346               -1.40538211               -0.05106061               -0.35824545                0.02087807
              10.29760434               -0.15525963               11.77501862                1.00000000                0.45187326                0.49134528               -1.70727004               -0.07947126               -0.37311481               -0.39561163
               0.32678474                1.15488248               12.17977393                1.00000000               -0.35414803               -0.40578582                1.33245581               -0.03128651               -0.06105652                0.80281131
               1.32324326                1.11386988               12.13113182                1.00000000               -0.31334099               -0.31121507                1.03428609               -0.01141488               -0.00542496                0.03359349
               2.32051792                1.07260251               12.08352763                1.00000000               -0.24284587               -0.22166143                0.72710941                0.02086411                0.22778382               -0.52002516
               3.31838634                1.03203766               12.03954409                1.00000000               -0.42964699               -0.17826721                0.42170026                0.58564128                1.48970181               -0.76661117
               4.31192498                1.00237240               12.01731154                0.00010000               -0.39552396                0.09524322                0.20055316                0.23582496                2.10932736                0.61202026
               5.31047586                0.98073521               11.98710506                0.00010000               -0.00466365                0.09140571               -0.09071381                0.36995444                1.48144320                0.26567228
               6.31183170                0.96000343               11.95287999                0.00010000                0.25975628               -0.01468996               -0.39823330                0.33966292                1.34060396               -0.36065623
               7.31567098                0.93733031               11.92019303                0.00010000                0.41080728                0.23433081               -0.69513504                0.43768004                1.25973901                0.55333513
               8.32004785                0.91023618               11.88463920                1.00000000                0.39960255                0.30681452               -0.97571646                0.16686467                0.63041616                0.45678481
               9.32366304                0.87995328               11.83945567                1.00000000                0.39632816                0.38755037               -1.27330075               -0.00165336                0.09165768                0.07453021
              10.32797441                0.84965382               11.79320202                1.00000000                0.43113767                0.46421582               -1.57468720               -0.03135981                0.03336131               -0.46887776
               0.36700951                2.15100532               12.16686975                1.00000000               -0.31821495               -0.37474010                1.22135375               -0.02931283                0.02947437                1.03639670
               1.36382736                2.11097873               12.11383416                1.00000000               -0.27378250               -0.27241724                0.90540084               -0.00732755                0.11701344                0.01462706
               2.36153386                2.07062245               12.06249404                1.00000000               -0.17598004               -0.17944750                0.60693928                0.02568593                0.69439500               -1.05850044
               3.36030776                2.03032300               12.02099295                0.00010000               -1.00175163               -0.16207241                0.29769673                0.89127237                3.51925867               -1.44770106
               4.34149883                2.00543129               12.02624249                0.00010000               -1.12065905                0.25142384                0.34571247                1.71602070                3.63810092               -0.99821238
               5.33789458                1.98249839               11.99371175                0.00010000               -0.11432451                0.05896011               -0.06828594                1.47712124                1.32762851               -0.47041391
               6.33921233                1.95862661               11.95172951                0.00010000                0.48461424               -0.10279654               -0.37337643                1.44706698                2.41470477                0.06827189
               7.34758686                1.93987471               11.94094699                0.00010000                0.57316479               -0.03911070               -0.61473090                1.03363188                2.69075450                0.41267644
               8.35067563                1.91305272               11.90438526                0.00010000                0.30240229                0.29074952               -0.83989968                0.25048297                0.97414538                0.85574392
               9.35363491                1.88365616               11.85887130                1.00000000                0.34502222                0.36853744               -1.13617682                0.04203248                0.35949092                0.37071287
              10.35757608                1.85402468               11.81005681                1.00000000                0.39411682                0.41357995               -1.45446269               -0.01724771                0.19156809               -0.48318967
               0.40625165                3.14738768               12.15430081                1.00000000               -0.27720762               -0.35019999                1.11024737               -0.02844281                0.02777961                1.04968288
               1.40347958                3.10842154               12.09587049                1.00000000               -0.22821452               -0.23662426                0.77160489               -0.00958219                0.02957445               -0.03146197
               2.40168736                3.06901356               12.03740663                0.00010000               -0.10383195               -0.12767607                0.43464840               -0.02609028                0.88387873               -1.20231863
               3.40140294                3.02879621               11.99602112                0.00010000               -0.38086808               -0.00577133                0.13366020                0.88534720                3.61516801               -1.53903262
               4.39407000                3.00740088               11.99237237                0.00010000               -0.72899850                0.16665872                0.02535696                2.22070860                5.03038834               -2.07804444
               5.38682297                2.98191442               11.98111474                0.00010000               -0.53366361                0.06149153               -0.11773124                1.97581267                4.31365007               -1.08484393
               6.38339673                2.95794750               11.96552306                0.00010000               -0.24527284                0.04078815               -0.31591179                1.82511532                3.97684127                0.35597574
               7.38191751                2.93654810               11.94871434                0.00010000               -0.10603349               -0.12063987               -0.49884473                1.33494127                3.76435739                0.22419134
               8.38127606                2.91605117               11.92979807                0.00010000                0.08071062                0.29041753               -0.68416257                0.57529046                2.21766330                1.56221632
               9.38353172                2.88732403               11.88310898                1.00000000                0.28081730                0.33509939               -0.96919869                0.05770509                0.41105560                0.56264126
              10.38689241                2.85792542               11.82810118                1.00000000                0.33606817                0.37805867               -1.32325477               -0.02701352               -0.00717425               -0.37728794
               0.44437292                4.14400132               12.14146789                1.00000000               -0.23630906               -0.32539406                0.99396589               -0.02944558                0.02658459                1.01513046
               1.44200983                4.10624625               12.07757640                1.00000000               -0.18677714               -0.19482341                0.63118029               -0.00917125                0.02514455               -0.05170965
               2.44063738                4.06806893               12.01357932                0.81656083               -0.11912282               -0.06672901                0.26733029                0.02834548                1.32590593               -1.06931127
               3.43962738                4.03020758               11.97568868                0.00010000               -0.39212947                0.34848949               -0.20054793                0.66430602                4.70528266               -0.41436611
               4.43279479                4.00876447               11.97908197                0.00010000               -0.63815827                0.16272833               -0.12364850                1.38957475                6.31474679               -0.75333912
               5.42686421                3.98372822               11.97586146                0.00010000               -0.58569151                0.19876251               -0.17819909                1.29944399                5.79891384               -0.50202719
               6.42108096                3.95944237               11.97104777                0.00010000               -0.53410995                0.18805325               -0.27031939                1.27729479                5.60488475                0.03355602
               7.41618201                3.93746191               11.96603979                0.00010000               -0.48377293                0.14632302               -0.37288223                1.26859734                5.63429630                0.74091769
               8.41140550                3.91886107               11.96364959                0.00010000               -0.16336239                0.22434210               -0.46637580                0.60385438                2.93961059                1.72778852
               9.41291476                3.89035814               11.90639337                1.00000000                0.22137651                0.26874848               -0.80085618                0.03495783                0.09745124                0.51202475
              10.41583303                3.86158586               11.84721477                1.00000000                0.29182687                0.34868592               -1.17948504               -0.02432384                0.00063181               -0.32925739
               0.48117289                5.14087979               12.12802867                1.00000000               -0.19443402               -0.29360925                0.86832420               -0.03277382                0.08019362                0.94947865
               1.47922855                5.10452507               12.05916349                0.00010000               -0.14399721               -0.14669706                0.48668723               -0.01498227                0.13084235               -0.13585072
               2.47829294                5.06767898               11.99123857                0.26150571               -0.26175156               -0.00814337                0.11710493                0.25428246                2.72315143               -1.12046721
               3.47399351                5.03576600               11.97422853                0.00010000               -0.49760461                0.46030180               -0.27509099                0.63761416                5.94614941                0.05956662
               4.46834085                5.01065545               11.97185894                0.00010000               -0.59297858                0.23331030               -0.20326977                1.01701273                6.82452344               -0.36187125
               5.46213394                4.98588967               11.97460902                0.00010000               -0.65659556                0.24160840               -0.19568469                0.98916928                7.01810682               -0.21095439
               6.45520894                4.96170856               11.97852641                0.00010000               -0.71315919                0.24508722               -0.21460292                0.98080931                7.03815807                0.19285607
               7.44787076                4.93947456               11.98410374                0.00010000               -0.73760130                0.20353376               -0.23878043                1.02725582                7.13654959                0.76576239
               8.44045691                4.92053802               11.99233249                0.00010000               -0.31823319                0.12144738               -0.25309292                0.51190845                3.62034173                1.39556999
               9.44150610                4.89269900               11.92966316                0.00010000                0.17467959                0.20239136               -0.63026452                0.02117176                0.04006366                0.48544688
              10.44395050                4.86489914               11.86630199                1.00000000                0.24444088                0.31079221               -1.02442569               -0.02413787                0.00746936               -0.34232536
               0.51642689                6.13812913               12.11371261                1.00000000               -0.15158881               -0.25069246                0.73382151               -0.03556096                0.06831160                0.86683060
               1.51491101                6.10331231               12.03915088                0.00010000               -0.09723962               -0.09480719                0.32235729               -0.02162821                0.16597419               -0.27653775
               2.51448210                6.06790606               11.96647640                0.00010000               -0.27539085                0.05410885               -0.07650435                0.34723486                3.72552640               -1.36556493
               3.50940319                6.03941361               11.96314763                0.00010000               -0.57353604                0.32041853               -0.20560276                0.77287921                7.40609297               -0.64376338
               4.50301138                6.01343067               11.96638568                0.00010000               -0.69043543                0.30858933               -0.21908607                0.87647185                7.87919285               -0.35704425
               5.49559448                5.98856039               11.97497204                0.00010000               -0.79495613                0.30703150               -0.18159804                0.82984317                8.18308812               -0.11125043
               6.48711226                5.96434412               11.98694007                0.00010000               -0.88484012                0.28692331               -0.14449472                0.76689343                8.35156809                0.26029936
               7.47789768                5.94153259               12.00169064                0.00010000               -0.93465159                0.20103096               -0.10370679                0.77769609                8.50974377                0.73769943
               8.46841923                5.92129002               12.01951522                0.00010000               -0.44602994                0.03812388               -0.05233616                0.37620558                4.30024395                1.28912347
               9.46897708                5.89440597               11.95244192                0.00010000                0.12653902                0.14482414               -0.45873024                0.00928532                0.04420964                0.43890665
              10.47095001                5.86780170               11.88514895                1.00000000                0.19729277                0.26894534               -0.87687667               -0.02225542                0.03640030               -0.39564300
               0.55009532                7.13586594               12.09844591                0.00010000               -0.10762653               -0.19947191                0.59172532               -0.03413349                0.03561669                0.79867984
               1.54901906                7.10262893               12.01789876                0.00010000               -0.04794961               -0.04354412                0.15451874               -0.02123225                0.13717967               -0.36314471
               2.54913633                7.06876115               11.93932917                0.00010000               -0.25462881                0.11291900               -0.27709615                0.36683782                4.53489271               -1.55542581
               3.54392648                7.04217437               11.94681897                0.00010000               -0.62064117                0.28754914               -0.27220719                0.78228175                8.92713006               -0.96202402
               4.53672351                7.01682723               11.95902774                0.00010000               -0.80545593                0.37250917               -0.22309786                0.79018848                9.21491487               -0.47424290
               5.52781736                6.99203030               11.97534972                0.00010000               -0.95744471                0.39396825               -0.15256444                0.68587355                9.44228636               -0.10744370
               6.51757461                6.96744703               11.99532206                0.00010000               -1.06692922                0.34793730               -0.06806886                0.55192125                9.63961469                0.25968817
               7.50647878                6.94349518               12.01884236                0.00010000               -1.12334880                0.20501023                0.02903474                0.48194749                9.84773299                0.69809039
               8.49510764                6.92130049               12.04604051                0.00010000               -0.56493292               -0.03147949                0.14157578                0.20602547                4.97565330                1.23236921
               9.49518012                6.89559549               11.97473770                0.00010000                0.08031499                0.09356002               -0.29797920                0.00269728                0.03573222                0.38685145
              10.49671394                6.87027804               11.90309420                0.00010000                0.15338169                0.22679510               -0.73980766               -0.02171318                0.02248351               -0.46346625
               0.58221826                8.13413970               12.08259809                0.00010000               -0.06271073               -0.14685429                0.44724507               -0.03178881                0.01907542                0.76474209
               1.58159115                8.10244142               11.99614689                0.00010000                0.00275773                0.00622892               -0.01415689               -0.01586118                0.08089904               -0.40168556
               2.58227341                8.07016444               11.91089638                0.00010000               -0.23042047                0.16547430               -0.48057547                0.37400314                5.30060678               -1.57733024
               3.57698274                8.04516460               11.92897110                0.00010000               -0.66570946                0.33529190               -0.36392432                0.74640431               10.47308298               -0.93708642
               4.56895922                8.02088086               11.95070093                0.00010000               -0.91452940                0.45033743               -0.24196928                0.67056584               10.60529346               -0.45353145
               5.55869215                7.99643976               11.97515123                0.00010000               -1.11367106                0.47860364               -0.12431975                0.52215390               10.72031521               -0.10130941
               6.54668580                7.97130286               12.00305363                0.00010000               -1.25044950                0.44375873                0.00490602                0.32375114               10.91469092                0.21553025
               7.53368316                7.94563279               12.03517286                0.00010000               -1.31231889                0.25591643                0.15405185                0.11837871               11.19014310                0.59261592
               8.52043943                7.92066043               12.07204690                0.00010000               -0.68148452               -0.09344194                0.32714070               -0.00843247                5.65756517                1.14145270
               9.52005347                7.89627717               11.99639986                0.00010000                0.03555998                0.04208353               -0.13853631               -0.00055755                0.02203277                0.35615192
              10.52115062                7.87233760               11.92047929                0.00010000                0.10971511                0.18511469               -0.60111013               -0.02121428                0.01374178               -0.49952516
               0.61285609                9.13292886               12.06650775                0.00010000               -0.01789993               -0.09847705                0.30337065               -0.02889477                0.00880759                0.63548169
               1.61267709                9.10275351               11.97413979                0.00010000                0.05185646                0.05671299               -0.18246305               -0.00806629                0.09515219               -0.36446272
               2.61389322                9.07207064               11.88348422                0.00010000               -0.22694724                0.21199071               -0.67377568                0.39313572                6.16631941               -1.12896731
               3.60813815                9.04888021               11.91271585                0.00010000               -0.75167788                0.47317316               -0.43719147                0.56497321               11.99158756               -0.59608570
               4.59885966                9.02583398               11.94287316                0.00010000               -1.01498562                0.51745947               -0.26673466                0.43823902               11.87958526               -0.27087391
               5.58783844                9.00160237               11.97457254                0.00010000               -1.20015300                0.52971156               -0.10662551                0.31058054               11.90330210               -0.05637895
               6.57485660                8.97632221               12.00954456                0.00010000               -1.41748243                0.51463041                0.06478330                0.12462746               12.11363243                0.13230094
               7.55948879                8.94861350               12.04955302                0.00010000               -1.52809988                0.43707471                0.26238133               -0.16532141               12.52504421                0.35384199
               8.54429461                8.91943166               12.09669472                0.00010000               -0.79984952               -0.14226383                0.49770495               -0.29000356                6.43069221                0.78195743
               9.54349180                8.89643716               12.01799142                0.00010000               -0.00629080               -0.00811750                0.01604609               -0.00512542                0.05724414                0.31227674
              10.54416879                8.87398034               11.93754918                0.00010000                0.06769937                0.14493878               -0.46688218               -0.02161417               -0.02369351               -0.42291212
               0.64199107               10.13217015               12.04795600                0.00010000                0.02969749               -0.07587041                0.15700631                0.05405065                0.35777475                0.51763581
               1.64228805               10.10357568               11.95318202                0.00010000                0.10091771                0.08221779               -0.34176378                0.07280006                0.64984077               -0.31670521
               2.64400942               10.07440425               11.86426180                0.00010000               -0.38845911                0.23336123               -0.82568066                0.56423910                7.20603854               -0.73428925
               3.63451886               10.05462806               11.90082659                0.00010000               -0.95037900                0.57478506               -0.50575704                0.47936126               13.09678902               -0.26730511
               4.62500184               10.03123005               11.93670396                0.00010000               -1.00516603                0.53960645               -0.30405845                0.23451451               12.87413624               -0.09626900
               5.61441554               10.00703399               11.97376128                0.00010000               -1.14173136                0.54316194               -0.10650986                0.17598189               12.88856832                0.01872433
               6.60216722                9.98159547               12.01416591                0.00010000               -1.35741279                0.52732663                0.10431714                0.09807612               13.13723215                0.11942191
               7.58726729                9.95437428               12.06010999                0.00010000               -1.76757575                0.57607800                0.34426924               -0.41116599               13.69383203                0.24687646
               8.56681570                9.91781515               12.11541832                0.00010000               -1.09325018               -0.16165017                0.63153829               -0.66086349                7.35157108                0.49466199
               9.56540228                9.89611482               12.03867947                0.00010000               -0.05918624               -0.03223337                0.15928188                0.06210986                0.46800404                0.27282680
              10.56563198                9.87523638               11.95628181                0.00010000                0.02296948                0.12560408               -0.32833495                0.05847437                0.19155921               -0.33204047
               0.32971484                0.18288320               13.21139222                1.00000000               -0.37834048               -0.41705337                1.44682240               -0.07385533               -0.57563227                0.61788732
               1.32593143                0.13558893               13.16022549                1.00000000               -0.31224346               -0.32934335                1.15397424               -0.05708025               -0.71250617                0.02613789
               2.32346997                0.08807495               13.10622747                1.00000000               -0.16795123               -0.24401864                0.83812984               -0.04191201               -0.64643686               -0.18612665
               3.32257241                0.04160131               13.05632564                1.00000000                0.31248803               -0.18622899                0.54493142                0.44335946                0.33281476               -0.43914318
               4.32971973                0.00637794               13.02186880                0.00010000                0.48336696               -0.10250716                0.23953515               -0.02422078                0.95454447                0.05646367
               5.33223975               -0.02093670               12.98432989                0.00010000                0.16763788                0.01036980               -0.07980570                0.00656914                0.60157297                0.03514256
               6.33307249               -0.04708892               12.94304516                0.00010000                0.04345381                0.10754839               -0.40919935                0.00868678                0.44012454               -0.02335965
               7.33310882               -0.07509098               12.90237535                0.00010000                0.04360534                0.21095025               -0.74851497                0.05788422                0.20713217                0.03325564
               8.33394459               -0.10755730               12.85644479                1.00000000                0.19399743                0.32768418               -1.07230298                0.04378153               -0.22273205                0.35395618
               9.33698877               -0.14279279               12.80726881                1.00000000                0.37454015                0.39941310               -1.38437928               -0.05089072               -0.39410847                0.01935071
              10.34143540               -0.17821378               12.75806085                1.00000000                0.44466240                0.48451557               -1.68386487               -0.07859118               -0.40286028               -0.42560759
               0.37627055                1.17871266               13.19300154                1.00000000               -0.35057959               -0.39802298                1.31429510               -0.03160624               -0.06768589                0.84306033
               1.37276475                1.13229550               13.14141373                1.00000000               -0.31129461               -0.30705326                1.02261750               -0.01243634               -0.01654101                0.04157743
               2.37004466                1.08563476               13.09078142                1.00000000               -0.24551230               -0.22054614                0.72313850                0.02241174                0.21375270               -0.52427112
               3.36785451                1.03973902               13.04378561                1.00000000               -0.46490642               -0.17838947                0.42502809                0.61785486                1.51664454               -0.80321324
               4.36074653                1.00535287               13.01930961                0.00010000               -0.44078205                0.08857446                0.19914869                0.15758216                2.15196562                0.69521353
               5.35903887                0.97916699               12.98621128                0.00010000               -0.02550197                0.08966794               -0.08826562                0.33260223                1.48872922                0.28280289
               6.36023649                0.95398657               12.94894285                0.00010000                0.24414953               -0.00432890               -0.38975836                0.31666993                1.34696689               -0.36471570
               7.36392186                0.92701853               12.91330656                0.00010000                0.39984137                0.22457211               -0.68246012                0.42320387                1.27677426                0.55920909
               8.36823332                0.89571954               12.87495094                1.00000000                0.39431233                0.30316458               -0.96207206                0.16723067                0.64318324                0.47810867
               9.37180810                0.86120134               12.82680264                1.00000000                0.39185773                0.38284234               -1.25734334               -0.00151534                0.09395368                0.07552518
              10.37607047                0.82663138               12.77754691                1.00000000                0.42623677                0.45736399               -1.55622160               -0.03084898                0.03361089               -0.50482152
               0.42191704                2.17492274               13.17898642                1.00000000               -0.31564373               -0.36562294                1.20316225               -0.02820320                0.02960201                1.08670310
               1.41876061                2.12944787               13.12283413                1.00000000               -0.27211826               -0.26837394                0.89489909               -0.00537424                0.12500485                0.02163229
               2.41647468                2.08366403               13.06854118                1.00000000               -0.17746026               -0.18087630                0.60200239                0.03434048                0.70516119               -1.08990606
               3.41521140                2.03803352               13.02397454                0.00010000               -1.15156390               -0.16232826                0.29801042                0.92036099                3.68264875               -1.50495652
               4.39344340                2.00814943               13.02929195                0.00010000               -1.24766541                0.25031553                0.28003887                1.78247211                3.82859608               -1.03727391
               5.39025809                1.98085665               12.99297574                0.00010000               -0.09445242                0.04275873               -0.07652871                1.54177512                1.34984164               -0.47182664
               6.39155435                1.95282450               12.94802767                0.00010000                0.47909169               -0.11388348               -0.36817324                1.47412621                2.50181056                0.07856299
               7.39983993                1.92940047               12.93481835                0.00010000                0.57760218               -0.05521977               -0.61045801                1.04905676                2.79195240                0.44485114
               8.40310640                1.89850599               12.89602884                0.00010000                0.31033516                0.28942364               -0.83191381                0.26296854                1.04456418                0.89826201
               9.40604663                1.86486405               12.84756811                1.00000000                0.34259735                0.36537172               -1.12482425                0.04433421                0.38297742                0.38927738
              10.40995834                1.83093350               12.79558334                1.00000000                0.39117124                0.40703280               -1.44047362               -0.01618447                0.20374941               -0.51869611
               0.46665623                3.17140020               13.16530387                1.00000000               -0.27402482               -0.34097109                1.09159764               -0.02582282                0.02921606                1.09650609
               1.46391598                3.12692802               13.10354028                1.00000000               -0.22552088               -0.23360869                0.76250733               -0.00631748                0.03149757               -0.03021589
               2.46214581                3.08201724               13.04176246                0.00010000               -0.10698269               -0.13166287                0.43559001               -0.01275952                0.90271362               -1.25541954
               3.46177633                3.03649246               12.99737782                0.00010000               -0.42864856               -0.03083520                0.13645167                0.94500991                3.74374477               -1.69452709
               4.45357284                3.01035918               12.99257156                0.00010000               -0.82885165                0.17494520                0.01651004                2.39129820                5.24603172               -2.25658922
               5.44519929                2.98002217               12.97989013                0.00010000               -0.61988189                0.05545797               -0.12539735                2.09256848                4.50557504               -1.12725783
               6.44117520                2.95170890               12.96238581                0.00010000               -0.29888931                0.01497761               -0.31174313                1.91385381                4.14938917                0.38187050
               7.43922151                2.92591413               12.94376721                0.00010000               -0.15730503               -0.12807897               -0.49131447                1.40382529                3.93857214                0.28283225
               8.43802910                2.90150801               12.92299845                0.00010000                0.05228858                0.29068126               -0.67726541                0.59980502                2.33661151                1.64374041
               9.44026728                2.86850877               12.87345760                1.00000000                0.27893951                0.33267377               -0.96169341                0.06060430                0.44648408                0.59555108
              10.44360789                2.83477203               12.81491789                1.00000000                0.33406126                0.37318257               -1.31401589               -0.02608202               -0.00535143               -0.39956948
               0.51034496                4.16810332               13.15130353                1.00000000               -0.23277338               -0.31663584                0.97446337               -0.02690621                0.02777957                1.05423830
               1.50801722                4.12477569               13.08385174                1.00000000               -0.18449540               -0.19275331                0.62383277               -0.00631076                0.02530117               -0.05570151
               2.50665505                4.08103077               13.01628367                0.89728796               -0.11237829               -0.07092848                0.27212105                0.02110032                1.27490753               -1.11149045
               3.50576966                4.03741682               12.97379869                0.00010000               -0.44576985                0.32505943               -0.17621621                0.70265786                4.86792512               -0.54335687
               4.49773965                4.01164833               12.97782312                0.00010000               -0.75049573                0.16105075               -0.12878062                1.47081245                6.69175938               -0.83074728
               5.49075974                3.98196581               12.97408838                0.00010000               -0.69000940                0.21084382               -0.17696384                1.36397210                6.10174295               -0.53369857
               6.48393947                3.95312406               12.96837492                0.00010000               -0.63212139                0.19112958               -0.26485239                1.32763353                5.88535234                0.05687462
               7.47811732                3.92683889               12.96234503                0.00010000               -0.57158049                0.15222354               -0.36674124                1.31563167                5.91199247                0.80513769
               8.47250786                3.90431961               12.95899155                0.00010000               -0.20613092                0.22468628               -0.46557542                0.62617591                3.10147961                1.83320592
               9.47399470                3.87151753               12.89840278                1.00000000                0.22011647                0.26714064               -0.79835545                0.03630895                0.11933551                0.54443077
              10.47691019                3.83839715               12.83544237                1.00000000                0.29154867                0.34730288               -1.17635017               -0.02312419                0.00063159               -0.34011481
               0.55277335                5.16506749               13.13660279                1.00000000               -0.19110391               -0.28496470                0.84791223               -0.03046865                0.08624186                0.97950033
               1.55086231                5.12307295               13.06400289                0.00010000               -0.14233300               -0.14514278                0.48093189               -0.01236039                0.14241215               -0.15156633
               2.54992669                5.08059867               12.99246328                0.29310712               -0.28251955               -0.01262914                0.12585648                0.25303719                2.70650457               -1.17500516
               3.54521192                5.04299365               12.97113719                0.00010000               -0.57432986                0.48213842               -0.34450997                0.64219841                6.18913532                0.12045732
               4.53844009                5.01358019               12.96980343                0.00010000               -0.71044547                0.24243800               -0.20969941                1.07716281                7.28463618               -0.36972885
               5.53100301                4.98423904               12.97267209                0.00010000               -0.77926474                0.25733917               -0.19311431                1.02398654                7.41475437               -0.20719085
               6.52285480                4.95553149               12.97641471                0.00010000               -0.83322147                0.26344431               -0.20869859                1.00887112                7.41566562                0.22605652
               7.51433858                4.92895860               12.98173683                0.00010000               -0.84904107                0.21740166               -0.23511692                1.05890957                7.51415551                0.83192456
               8.50587398                4.90600174               12.98978099                0.00010000               -0.37113300                0.12246526               -0.25777368                0.52656644                3.82119341                1.49124914
               9.50691592                4.87385159               12.92332002                0.00010000                0.17560934                0.20358091               -0.63804486                0.02134530                0.05335774                0.52041792
              10.50938616                4.84171809               12.85601924                1.00000000                0.24702424                0.31353203               -1.03188287               -0.02302107                0.01362589               -0.35087032
               0.59372466                6.16240402               13.12093904                1.00000000               -0.14858178               -0.24220393                0.71315679               -0.03323711                0.06845868                0.88886856
               1.59223884                6.12187284               13.04235971                0.00010000               -0.09647769               -0.09403183                0.31903927               -0.01845979                0.17185140               -0.30327367
               2.59179510                6.08077819               12.96579210                0.00010000               -0.33033679                0.04852137               -0.06277014                0.37314046                3.86006863               -1.44417019
               3.58563210                6.04705959               12.96099515                0.00010000               -0.68787956                0.35297894               -0.23387677                0.80399092                7.74735514               -0.54921217
               4.57803751                6.01649709               12.96415864                0.00010000               -0.81719610                0.32946934               -0.22954029                0.92307318                8.32052793               -0.32067568
               5.56928818                5.98711260               12.97317754                0.00010000               -0.93200900                0.33395027               -0.17917797                0.86146732                8.64667022               -0.08144393
               6.55939733                5.95839294               12.98552452                0.00010000               -1.02314612                0.31526469               -0.13973958                0.78407940                8.81209464                0.30341930
               7.54882526                5.93118692               13.00066021                0.00010000               -1.06255645                0.22107831               -0.10287594                0.79305945                8.97414811                0.80170701
               8.53814620                5.90676892               13.01894471                0.00010000               -0.50600017                0.03992400               -0.06201247                0.38274692                4.54106830                1.37463956
               9.53870525                5.87558915               12.94779963                0.00010000                0.12852777                0.14823740               -0.47008891                0.01017853                0.05249706                0.47179629
              10.54071676                5.84466779               12.87630505                1.00000000                0.20115028                0.27438306               -0.89115392               -0.02172967                0.03855879               -0.40895286
               0.63317098                7.16022341               13.10425388                0.00010000               -0.10520271               -0.19189424                0.57177763               -0.03184886                0.03427972                0.81581530
               1.63211895                7.12119232               13.01945123                0.00010000               -0.04841143               -0.04380045                0.15541042               -0.01772225                0.13810002               -0.39143177
               2.63220275                7.08156909               12.93667987                0.00010000               -0.32730587                0.10548142               -0.25571789                0.41152408                4.74693380               -1.63765549
               3.62557283                7.05005322               12.94410691                0.00010000               -0.76771012                0.31099878               -0.27615448                0.85577216                9.38505738               -0.95287047
               4.61684855                7.02016958               12.95680166                0.00010000               -0.96181632                0.40930399               -0.22540182                0.85462825                9.71701519               -0.43485723
               5.60633651                6.99091805               12.97384461                0.00010000               -1.11932418                0.43825096               -0.15024781                0.72222429                9.96423475               -0.06812741
               6.59446206                6.96183678               12.99466211                0.00010000               -1.22563570                0.39038175               -0.06499857                0.56154837               10.17309631                0.30462854
               7.58182379                6.93338017               13.01912415                0.00010000               -1.26676872                0.23294870                0.02685225                0.47797961               10.39188755                0.75631555
               8.56912669                6.90680022               13.04738265                0.00010000               -0.63015859               -0.02916997                0.12734881                0.20015620                5.25210573                1.31032891
               9.56922062                6.87681633               12.97168985                0.00010000                0.08337969                0.09761748               -0.31205014                0.00344557                0.03830115                0.41316210
              10.57079428                6.84720575               12.89562783                0.00010000                0.15736615                0.23366358               -0.75502244               -0.02081571                0.02404059               -0.48004723
               0.67114986                8.15856614               13.08696906                0.00010000               -0.06111570               -0.14068293                0.42893883               -0.02976203                0.01737476                0.78067431
               1.67053871                8.12099683               12.99604046                0.00010000                0.00074054                0.00469910               -0.00811076               -0.01278725                0.07654071               -0.42973512
               2.67116467                8.08288781               12.90626545                0.00010000               -0.31958236                0.15565461               -0.44949848                0.43803150                5.57322036               -1.65466892
               3.66414706                8.05327956               12.92536612                0.00010000               -0.84497128                0.36885671               -0.35959196                0.85119329               11.04178939               -0.93386786
               4.65426525                8.02468317               12.94829254                0.00010000               -1.10407984                0.51066727               -0.24077759                0.74653654               11.18573929               -0.42459193
               5.64206546                7.99587762               12.97392379                0.00010000               -1.30495350                0.54398755               -0.12214356                0.55911360               11.30788158               -0.06674418
               6.62816618                7.96620058               13.00311212                0.00010000               -1.43220253                0.50549571                0.00600357                0.32378076               11.51738972                0.25233104
               7.61342141                7.93584589               13.03668822                0.00010000               -1.47265095                0.29714961                0.14885214                0.08847480               11.81169429                0.63776202
               8.59871316                7.90618552               13.07522622                0.00010000               -0.75263897               -0.09019734                0.30938313               -0.03226214                5.97144458                1.20736375
               9.59836863                7.87754150               12.99492068                0.00010000                0.04042242                0.04673421               -0.15711901               -0.00132298                0.02079602                0.37966413
              10.59952161                7.84934106               12.91436261                0.00010000                0.11529754                0.19392439               -0.62234168               -0.02063972                0.01381133               -0.51798030
               0.70771436                9.15740975               13.06945036                0.00010000               -0.01728273               -0.09345453                0.28714297               -0.02738648                0.00568529                0.64995536
               1.70754153                9.12128630               12.97238197                0.00010000                0.04831445                0.05349270               -0.17065695               -0.00632052                0.08949286               -0.38746610
               2.70868064                9.08468219               12.87697814                0.00010000               -0.33700929                0.19982798               -0.63257717                0.48725632                6.50462223               -1.18017140
               3.70080134                9.05743036               12.90834724                0.00010000               -0.97497101                0.54838632               -0.43386536                0.66987157               12.66120980               -0.58291603
               4.68918122                9.03038292               12.94019919                0.00010000               -1.23999846                0.59955087               -0.26640907                0.49896132               12.52880501               -0.25249931
               5.67600137                9.00179780               12.97351089                0.00010000               -1.41059119                0.61056503               -0.10559406                0.33469339               12.55751718               -0.03591841
               6.66096940                8.97194670               13.01019108                0.00010000               -1.61965139                0.59146884                0.06407181                0.11792200               12.78591063                0.15296625
               7.64360835                8.93932316               13.05213630                0.00010000               -1.70917783                0.50491149                0.25435930               -0.20950348               13.22376619                0.37695955
               8.62678584                8.90499627               13.10155948                0.00010000               -0.87848631               -0.13600782                0.47662579               -0.33700996                6.78763562                0.82119720
               9.62603862                8.87775102               13.01805305                0.00010000               -0.00017440               -0.00280934               -0.00461972               -0.00736347                0.05777602                0.32905604
              10.62678236                8.85108424               12.93276768                0.00010000                0.07437365                0.15479593               -0.49192869               -0.02098899               -0.02414144               -0.43915179
               0.74284904               10.15669705               13.04945078                0.00010000                0.02908212               -0.07127043                0.14376857                0.05043188                0.36203772                0.53002645
               1.74313986               10.12206668               12.94985745                0.00010000                0.09583508                0.07803836               -0.32515549                0.06919959                0.66127649               -0.33447411
               2.74476574               10.08688437               12.85626019                0.00010000               -0.56480535                0.22021876               -0.78016956                0.71753997                7.60688689               -0.76343789
               3.73184375               10.06424729               12.89574943                0.00010000               -1.24443538                0.68169307               -0.50391341                0.59373178               13.84956460               -0.25823033
               4.71987703               10.03667419               12.93365003                0.00010000               -1.23240967                0.62912640               -0.30380130                0.26166224               13.58853079               -0.08785521
               5.70719556               10.00808892               12.97269990                0.00010000               -1.34388867                0.62911158               -0.10526059                0.18720688               13.61332290                0.02897919
               6.69299926                9.97802995               13.01520566                0.00010000               -1.55068962                0.60832582                0.10313386                0.09574626               13.88306809                0.13053754
               7.67618177                9.94594412               13.06350418                0.00010000               -1.97270778                0.66209637                0.33448307               -0.47088732               14.46995661                0.25995179
               8.65354510                9.90346536               13.12160365                0.00010000               -1.20241850               -0.15309070                0.60626557               -0.74701472                7.75862704                0.51511312
               9.65213340                9.87748531               13.04016621                0.00010000               -0.05548581               -0.02657075                0.13737894                0.05805863                0.49083274                0.28444871
              10.65243539                9.85243698               12.95288606                0.00010000                0.03019906                0.13527437               -0.35646968                0.06047035                0.20675609               -0.34363069
               0.37643086                0.20826013               14.22576831                1.00000000               -0.37405498               -0.41106565                1.42947082               -0.07350342               -0.60544929                0.64584885
               1.37269031                0.15534931               14.17170457                1.00000000               -0.30877018               -0.32565246                1.14214777               -0.05752124               -0.75372033                0.03188321
               2.37025546                0.10222523               14.11459294                1.00000000               -0.16552616               -0.24218587                0.83422084               -0.04162439               -0.68836028               -0.18847902
               3.36937979                0.05018556               14.06178504                1.00000000                0.31555351               -0.18610619                0.54556990                0.45856910                0.29377761               -0.47072192
               4.37656653                0.00977409               14.02427778                0.00010000                0.48009177               -0.09205665                0.24219480               -0.03155269                0.90212428                0.07055442
               5.37898162               -0.02238966               13.98356289                0.00010000                0.16023388                0.01350810               -0.07387601                0.00774453                0.54047638                0.04230671
               6.37977120               -0.05334217               13.93901534                0.00010000                0.04137007                0.10687794               -0.39745971                0.00947817                0.37073787               -0.02813598
               7.37980902               -0.08600922               13.89497748                0.00010000                0.04210034                0.20807057               -0.73165376                0.05520659                0.14139587                0.03573120
               8.38061321               -0.12301675               13.84581915                1.00000000                0.18891777                0.32310580               -1.05307526                0.04190784               -0.27289220                0.36569265
               9.38358738               -0.16277551               13.79353140                1.00000000                0.36749196                0.39399928               -1.36317619               -0.05048212               -0.43090801                0.01814947
              10.38796305               -0.20274391               13.74134133                1.00000000                0.43756710                0.47788093               -1.65995541               -0.07733676               -0.43298646               -0.45540572
               0.42860664                1.20414948               14.20605983                1.00000000               -0.34740937               -0.39115425                1.29837834               -0.03190513               -0.07353750                0.88060827
               1.42513255                1.15209279               14.15158417                1.00000000               -0.30927773               -0.30322470                1.01179582               -0.01318616               -0.02637124                0.04889631
               2.42242109                1.09980337               14.09799040                1.00000000               -0.24707533               -0.21909668                0.71823702                0.02364619                0.20117615               -0.52926760
               3.42019104                1.04832450               14.04804466                1.00000000               -0.49412393               -0.17769484                0.42587613                0.64401677                1.54011091               -0.83791338
               4.41253861                1.00885353               14.02129452                0.00010000               -0.47869212                0.08248867                0.19788898                0.09619694                2.19021226                0.75652934
               5.41061720                0.97774542               13.98533975                0.00010000               -0.04314228                0.08863371               -0.08627195                0.30235746                1.49589105                0.29837520
               6.41167577                0.94772660               13.94508482                0.00010000                0.22905884                0.00485427               -0.38249745                0.29803967                1.35359689               -0.36816098
               7.41519838                0.91607148               13.90654383                0.00010000                0.38698332                0.21601529               -0.67065139                0.40517063                1.29257016                0.56442731
               8.41941543                0.88021431               13.86539776                1.00000000                0.38738796                0.29936039               -0.94888170                0.16484757                0.65471029                0.49959330
               9.42294614                0.84116448               13.81430880                1.00000000                0.38713277                0.37811292               -1.24163389               -0.00134173                0.09592853                0.07725283
              10.42715809                0.80203490               13.76207759                1.00000000                0.42119495                0.45118486               -1.53770995               -0.03008149                0.03374108               -0.54018133
               0.47990613                2.20043705               14.19093299                1.00000000               -0.31334358               -0.35743923                1.18716530               -0.02739738                0.03006793                1.13332933
               1.47677270                2.14928482               14.13173214                1.00000000               -0.27047295               -0.26465878                0.88501809               -0.00376804                0.13243333                0.02817276
               2.47449667                2.09784329               14.07453409                1.00000000               -0.17813662               -0.18203441                0.59620163                0.04149271                0.71450219               -1.11871947
               3.47320996                2.04663166               14.02695315                0.00010000               -1.27135634               -0.16214909                0.29693961                0.94291313                3.81710135               -1.55964875
               4.44906955                2.01142387               14.03184326                0.00010000               -1.35271343                0.24422026                0.24015300                1.83455281                4.00084338               -1.07211823
               5.44615569                1.97938301               13.99218118                0.00010000               -0.08318065                0.02556024               -0.08113928                1.59170290                1.38785404               -0.47381803
               6.44740593                1.94675491               13.94436605                0.00010000                0.46345208               -0.12444755               -0.36493322                1.48798729                2.58421833                0.09268160
               7.45542474                1.91831108               13.92873783                0.00010000                0.57056141               -0.06967066               -0.60566053                1.05467406                2.89292116                0.48064082
               8.45881716                1.88297046               13.88774698                0.00010000                0.31576086                0.28744809               -0.82491190                0.26890682                1.11560662                0.94293874
               9.46173995                1.84478675               13.83637482                1.00000000                0.34017181                0.36179483               -1.11422937                0.04525776                0.40711059                0.40947866
              10.46562060                1.80627978               13.78124734                1.00000000                0.38806438                0.40200498               -1.42703896               -0.01536155                0.21615241               -0.55339940
               0.53036315                3.19700069               14.17613276                1.00000000               -0.27122075               -0.33249403                1.07529548               -0.02380965                0.03108218                1.13897128
               1.52765095                3.14679961               14.11112064                1.00000000               -0.22295253               -0.23076039                0.75384942               -0.00374957                0.03423850               -0.02930732
               2.52590410                3.09616268               14.04611843                0.00010000               -0.10911061               -0.13524983                0.43517346               -0.00130966                0.91871367               -1.30369913
               3.52546873                3.04508152               13.99875015                0.00010000               -0.47128911               -0.05252987                0.13724595                0.99058606                3.86082858               -1.83513931
               4.51647832                3.01373793               13.99270257                0.00010000               -0.91742580                0.17468934                0.01151544                2.52229276                5.44997816               -2.40435720
               5.50712022                2.97825662               13.97860679                0.00010000               -0.69854400                0.04446416               -0.12980816                2.18456450                4.69486300               -1.16046890
               6.50250744                2.94523765               13.95928819                0.00010000               -0.35219505               -0.01019718               -0.30799907                1.97734376                4.32212242                0.41307042
               7.50007632                2.91467807               13.93888805                0.00010000               -0.20947691               -0.13580200               -0.48528915                1.45530531                4.10924042                0.34769577
               8.49831790                2.88596327               13.91625276                0.00010000                0.02328241                0.28860983               -0.67298673                0.61412453                2.45426876                1.72838073
               9.50054196                2.84840038               13.86387511                1.00000000                0.27734437                0.32987911               -0.95539735                0.06112154                0.48203787                0.63048883
              10.50386479                2.81007500               13.80182086                1.00000000                0.33228248                0.37012122               -1.30585356               -0.02524448               -0.00353762               -0.42192536
               0.57983209                4.19378717               14.16095716                1.00000000               -0.22963780               -0.30832033                0.95745730               -0.02503670                0.02953620                1.08828958
               1.57753572                4.14466961               14.09005306                1.00000000               -0.18217584               -0.19069189                0.61636921               -0.00417561                0.02624260               -0.06017227
               2.57618858                4.09513830               14.01902175                0.93263545               -0.10446424               -0.07461200                0.27453059                0.01480405                1.23029018               -1.15002045
               3.57544643                4.04558107               13.97216435                0.00010000               -0.49241416                0.29485886               -0.15089269                0.73733482                5.01316612               -0.70534231
               4.56634029                4.01491765               13.97650636                0.00010000               -0.85495839                0.15937060               -0.13388026                1.53557912                7.04584214               -0.90254320
               5.55834726                3.98027229               13.97232219                0.00010000               -0.79044668                0.22000307               -0.17629773                1.41654225                6.40178263               -0.55600325
               6.55053136                3.94655097               13.96575073                0.00010000               -0.72710172                0.19212216               -0.26049161                1.36364127                6.16215572                0.08588546
               7.54380523                3.91559504               13.95870497                0.00010000               -0.65770103                0.15598960               -0.36207167                1.34514798                6.18424373                0.87320527
               8.53737734                3.88874265               13.95433808                0.00010000               -0.24772871                0.22232862               -0.46576140                0.63844874                3.26125894                1.94027952
               9.53885066                3.85138433               13.89042626                1.00000000                0.21945693                0.26550661               -0.79732328                0.03662950                0.14178219                0.57664124
              10.54176648                3.81368221               13.82368776                1.00000000                0.29158233                0.34720299               -1.17478957               -0.02222255                0.00041465               -0.35292801
               0.62809753                5.19083429               14.14498692                1.00000000               -0.18812247               -0.27658743                0.83018147               -0.02871862                0.09234411                1.00445913
               1.62621630                5.14298578               14.06878213                0.00010000               -0.14043994               -0.14355586                0.47439661               -0.01022931                0.15418145               -0.16736504
               2.62528873                5.09467044               13.99375570                0.29975905               -0.28901161               -0.01661201                0.13052443                0.24261868                2.64501064               -1.22508259
               3.62043607                5.05097869               13.96733833                0.00010000               -0.63950282                0.49392954               -0.40949286                0.63961119                6.41135038                0.15393898
               4.61249867                5.01692534               13.96766495                0.00010000               -0.83091613                0.25506348               -0.21867352                1.12886193                7.76817834               -0.37850272
               5.60381775                4.98265668               13.97074674                0.00010000               -0.90205788                0.27433516               -0.19270919                1.04847469                7.80878020               -0.19930367
               6.59445752                4.94908010               13.97435244                0.00010000               -0.95150790                0.28070649               -0.20462732                1.02406500                7.78798407                0.26335462
               7.58478759                4.91779786               13.97940140                0.00010000               -0.95799646                0.22921802               -0.23281519                1.07424797                7.88388626                0.90092570
               8.57529759                4.89040984               13.98717702                0.00010000               -0.42262971                0.12192467               -0.26322611                0.53182435                4.01783789                1.58811779
               9.57633500                4.85371051               13.91690227                0.00010000                0.17634995                0.20438707               -0.64517150                0.02126232                0.06689712                0.55490247
              10.57882459                4.81701906               13.84566433                1.00000000                0.24895888                0.31659234               -1.03844659               -0.02195270                0.02056448               -0.36149868
               0.67495474                6.18825542               14.12797574                1.00000000               -0.14597651               -0.23410266                0.69565315               -0.03125768                0.06845038                0.90647039
               1.67349498                6.14179850               14.04553166                0.00010000               -0.09533532               -0.09331172                0.31496980               -0.01553019                0.17759357               -0.32882331
               2.67304803                6.09480606               13.96522100                0.00010000               -0.37556124                0.04321283               -0.05375975                0.38958795                3.96235472               -1.51580685
               3.66598375                6.05545966               13.95847009                0.00010000               -0.79042461                0.38836498               -0.27936264                0.81413182                8.06536493               -0.42435326
               4.65723954                6.02001892               13.96179487                0.00010000               -0.94108726                0.35354240               -0.24509042                0.95633884                8.76993985               -0.28167213
               5.64716201                5.98575900               13.97138848                0.00010000               -1.06840296                0.36324078               -0.18000857                0.87850158                9.10965259               -0.04940978
               6.63587148                5.95216510               13.98414528                0.00010000               -1.16007795                0.34359525               -0.13720804                0.78599446                9.26633314                0.34888839
               7.62396045                5.92017940               13.99963312                0.00010000               -1.18851538                0.23978058               -0.10340758                0.79122248                9.42933545                0.86766772
               8.61210118                5.89118115               14.01827497                0.00010000               -0.56468806                0.04078630               -0.07217500                0.37895704                4.77776752                1.46137773
               9.61266669                5.85547207               13.94304014                0.00010000                0.13045825                0.15135826               -0.48160836                0.00994409                0.06077500                0.50592667
              10.61471034                5.82001406               13.86732587                1.00000000                0.20436550                0.28002414               -0.90411020               -0.02109193                0.03998325               -0.42241012
               0.72038622                7.18615223               14.10988146                0.00010000               -0.10311596               -0.18493591                0.55530790               -0.02985781                0.03311022                0.82921531
               1.71935506                7.14111954               14.02100697                0.00010000               -0.04834473               -0.04412570                0.15520946               -0.01434657                0.13921894               -0.41746026
               2.71941933                7.09553470               13.93421481                0.00010000               -0.39246110                0.09833709               -0.23972857                0.44952894                4.93565997               -1.71096815
               3.71150584                7.05874599               13.94129588                0.00010000               -0.90466091                0.33936254               -0.29252342                0.91345926                9.81676201               -0.92492144
               4.70132611                7.02399619               13.95451971                0.00010000               -1.11321165                0.44862849               -0.23410071                0.90261495               10.21268545               -0.38848669
               5.68924161                6.98992150               13.97234476                0.00010000               -1.27845552                0.48397958               -0.15129550                0.74120040               10.48092493               -0.02713265
               6.67575700                6.95595200               13.99402209                0.00010000               -1.38228074                0.43277132               -0.06415476                0.55348283               10.69909979                0.35076992
               7.66159599                6.92259347               14.01937940                0.00010000               -1.40864710                0.25982361                0.02339821                0.45580337               10.92607760                0.81595880
               8.64758406                6.89122557               14.04858749                0.00010000               -0.69475124               -0.02751356                0.11345515                0.18394476                5.52456840                1.38985298
               9.64770097                6.85673768               13.96849670                0.00010000                0.08673634                0.10175900               -0.32705925                0.00301467                0.04154343                0.44077332
              10.64931878                6.82261954               13.88799375                0.00010000                0.16178159                0.24120427               -0.77214338               -0.02018177                0.02540827               -0.49670590
               0.76442296                8.18455670               14.09117687                0.00010000               -0.05973854               -0.13529928                0.41416379               -0.02805380                0.01598986                0.79341774
               1.76382558                8.14091598               13.99598468                0.00010000               -0.00054014                0.00338232               -0.00395976               -0.00998952                0.07301998               -0.45493902
               2.76441216                8.09677280               13.90190641                0.00010000               -0.40170700                0.14688889               -0.42561517                0.49659966                5.82302643               -1.72225274
               3.75579144                8.06224691               13.92177926                0.00010000               -1.01479142                0.40462909               -0.36155660                0.94270726               11.57987929               -0.92411129
               4.74411633                8.02899149               13.94588538                0.00010000               -1.28806178                0.57151571               -0.24256281                0.80688406               11.75309153               -0.39302270
               5.73003020                7.99543859               13.97270836                0.00010000               -1.49235842                0.60931953               -0.12215698                0.57921577               11.88649444               -0.03178525
               6.71426917                7.96082052               14.00317370                0.00010000               -1.61136270                0.56679972                0.00534479                0.30648467               12.11130331                0.28939547
               7.69780295                7.92537588               14.03814990                0.00010000               -1.63166503                0.33716347                0.14275742                0.04050307               12.42303561                0.68410153
               8.68163586                7.89063087               14.07823456                0.00010000               -0.82349724               -0.08737000                0.29203582               -0.06610505                6.28171871                1.27588975
               9.68133301                7.85750725               13.99325748                0.00010000                0.04535601                0.05175336               -0.17596439               -0.00272920                0.02057729                0.40472778
              10.68254299                7.82483814               13.90803245                0.00010000                0.12099797                0.20271567               -0.64429143               -0.02001623                0.01406299               -0.53768982
               0.80710658                9.18344625               14.07225061                0.00010000               -0.01674106               -0.08934314                0.27436915               -0.02612987                0.00313094                0.66193139
               1.80693917                9.14118719               13.97072665                0.00010000                0.04569048                0.05096234               -0.16178226               -0.00475900                0.08518744               -0.40783375
               2.80802039                9.09847247               13.87083268                0.00010000               -0.43989420                0.18992975               -0.60076281                0.57472046                6.81667533               -1.22428745
               3.79814129                9.06683857               13.90403854                0.00010000               -1.18741428                0.62060809               -0.42852072                0.76414522               13.29490928               -0.56858203
               4.78427211                9.03542651               13.93754498                0.00010000               -1.45721986                0.67898850               -0.26472835                0.54874845               13.16259742               -0.23463964
               5.76899689                9.00210789               13.97246066                0.00010000               -1.61613516                0.68984818               -0.10500098                0.34788299               13.20119626               -0.01625291
               6.75194941                8.96728800               14.01082600                0.00010000               -1.82005948                0.66782702                0.06215921                0.09919964               13.44820543                0.17322248
               7.73259570                8.92933674               14.05464021                0.00010000               -1.89094141                0.57308497                0.24576306               -0.26721809               13.91237935                0.40105749
               8.71413058                8.88947817               14.10622724                0.00010000               -0.95782935               -0.13009003                0.45624864               -0.39368242                7.14276100                0.86328132
               9.71343912                8.85777275               14.01789903                0.00010000                0.00630539                0.00351097               -0.02709730               -0.01003931                0.05999225                0.34895904
              10.71425669                8.82667385               13.92771061                0.00010000                0.08175688                0.16444361               -0.51972888               -0.02066893               -0.02545319               -0.45811169
               0.84841848               10.18276984               14.05083137                0.00010000                0.02856875               -0.06764087                0.13364570                0.04772894                0.36579523                0.54056678
               1.84870417               10.14193523               13.94667891                0.00010000                0.09183506                0.07480397               -0.31227888                0.06657751                0.67196961               -0.35014550
               2.85025519               10.10057139               13.84865841                0.00010000               -0.72919300                0.20989187               -0.74475591                0.85967116                7.97746991               -0.78851014
               3.83412031               10.07465907               13.89074832                0.00010000               -1.52165991                0.78204950               -0.49522978                0.69789566               14.56495256               -0.24910719
               4.81982199               10.04257126               13.93062794                0.00010000               -1.44969686                0.71447567               -0.30021723                0.28381200               14.28720276               -0.08039209
               5.80512637               10.00923555               13.97165607                0.00010000               -1.53988408                0.71276625               -0.10389240                0.19323815               14.32632017                0.03800092
               6.78902431                9.97417706               14.01622858                0.00010000               -1.74289776                0.68890675                0.10055585                0.08759112               14.61665265                0.14053261
               7.77026842                9.93683758               14.06679966                0.00010000               -2.18490462                0.75008323                0.32362396               -0.54012794               15.23267202                0.27258874
               8.74532621                9.88802907               14.12754363                0.00010000               -1.31659434               -0.14490922                0.58079767               -0.84344150                8.16594005                0.53792162
               9.74393653                9.85757747               14.04142705                0.00010000               -0.04994094               -0.01952723                0.11192549                0.05463860                0.51828630                0.30080486
              10.74432739                9.82812701               13.94915242                0.00010000                0.03908618                0.14531612               -0.39042845                0.06202486                0.21964588               -0.35987516
               0.42573332                0.23521712               15.23998163                1.00000000               -0.37009238               -0.40569799                1.41378607               -0.07319330               -0.63251429                0.67173878
               1.42203240                0.17646739               15.18306844                1.00000000               -0.30555147               -0.32215340                1.13082041               -0.05789787               -0.79076915                0.03695955
               2.41962229                0.11751044               15.12291188                1.00000000               -0.16346407               -0.24021792                0.82938057               -0.04144682               -0.72642531               -0.19124085
               3.41876312                0.05966765               15.06723704                1.00000000                0.31810377               -0.18550026                0.54452247                0.47120461                0.25643156               -0.49916286
               4.42598437                0.01375555               15.02671270                0.00010000                0.47742987               -0.08375801                0.24470334               -0.03846481                0.84969863                0.08473293
               5.42831172               -0.02364428               14.98285237                0.00010000                0.15441432                0.01604902               -0.06885458                0.00815880                0.47987176                0.04976412
               6.42907266               -0.05979061               14.93509596                0.00010000                0.04106069                0.10632488               -0.38733520                0.00993069                0.30313633               -0.03271596
               7.42913293               -0.09750905               14.88774227                0.00010000                0.04300875                0.20557707               -0.71618849                0.05223662                0.07632318                0.03878837
               8.42993283               -0.13940067               14.83538328                1.00000000                0.18577546                0.31842409               -1.03457267                0.03919356               -0.32413191                0.37738055
               9.43284844               -0.18398461               14.78000528                1.00000000                0.36114889                0.38875857               -1.34232994               -0.04984665               -0.46866429                0.01710935
              10.43715581               -0.22879442               14.72486174                1.00000000                0.43073703                0.47161597               -1.63609077               -0.07578942               -0.46361332               -0.48527558
               0.48375112                1.23116014               15.21896911                1.00000000               -0.34443570               -0.38503631                1.28411727               -0.03208877               -0.07867940                0.91556970
               1.48030676                1.17324586               15.16164964                1.00000000               -0.30717104               -0.29962674                1.00152016               -0.01380515               -0.03494694                0.05555040
               2.47760770                1.11510826               15.10514617                1.00000000               -0.24770768               -0.21744139                0.71274359                0.02440984                0.19027448               -0.53508998
               3.47535261                1.05781264               15.05230313                1.00000000               -0.51760066               -0.17662981                0.42551549                0.66454209                1.56176303               -0.87136302
               4.46725569                1.01291797               15.02326739                0.00010000               -0.50931137                0.07717309                0.19695358                0.04757182                2.22520386                0.80570476
               5.46516638                0.97651621               14.98448585                0.00010000               -0.05756698                0.08787642               -0.08475153                0.27676745                1.50283323                0.31378290
               6.46610435                0.94127264               14.94129290                0.00010000                0.21469714                0.01326876               -0.37652742                0.28199624                1.36066405               -0.37123585
               7.46946033                0.90454672               14.89989353                0.00010000                0.37291010                0.20890543               -0.66003932                0.38477073                1.30745025                0.56948296
               8.47356255                0.86378357               14.85597331                1.00000000                0.37932615                0.29552151               -0.93645663                0.16024795                0.66505271                0.52106715
               9.47704685                0.81990297               14.80196996                1.00000000                0.38225860                0.37359675               -1.22649113               -0.00108900                0.09750528                0.07944327
              10.48120772                0.77592174               14.74679271                1.00000000                0.41608725                0.44583318               -1.51950361               -0.02909562                0.03370295               -0.57537886
               0.54092012                2.22751640               15.20272973                1.00000000               -0.31119352               -0.35023383                1.17295400               -0.02660378                0.03083194                1.17674221
               1.53780818                2.17047486               15.14053449                1.00000000               -0.26882044               -0.26124529                0.87567142               -0.00232322                0.13921348                0.03424088
               2.53554371                2.11316161               15.08046522                1.00000000               -0.17819645               -0.18263322                0.58968418                0.04715297                0.72258448               -1.14533539
               3.53424425                2.05613505               15.02991333                0.00010000               -1.36557319               -0.16170866                0.29425666                0.95967718                3.93433953               -1.61276698
               4.50823224                2.01529901               15.03409501                0.00010000               -1.43759291                0.23454847                0.21626959                1.87191360                4.15943669               -1.10441619
               5.50549239                1.97811325               14.99135296                0.00010000               -0.07750875                0.00777878               -0.08391260                1.62601522                1.43382593               -0.47461142
               6.50668207                1.94047477               14.94072900                0.00010000                0.44125090               -0.13435086               -0.36311654                1.48939289                2.66337092                0.11053921
               7.51431741                1.90666906               14.92270514                0.00010000                0.55497356               -0.08229043               -0.60128777                1.05082084                2.99315376                0.51934920
               8.51778154                1.86650976               14.87953060                0.00010000                0.31855404                0.28504780               -0.81884206                0.26915674                1.18653813                0.98902853
               9.52068849                1.82348732               14.82528352                1.00000000                0.33774106                0.35820696               -1.10454769                0.04527879                0.43174689                0.43097129
              10.52453636                1.78012224               14.76704256                1.00000000                0.38478683                0.39856776               -1.41437103               -0.01461172                0.22873571               -0.58772381
               0.59730212                3.22415547               15.18680978                1.00000000               -0.26870363               -0.32507237                1.06098147               -0.02226287                0.03347581                1.17787189
               1.59461508                3.16802095               15.11861727                1.00000000               -0.22057767               -0.22820513                0.74593519               -0.00152820                0.03797289               -0.02877105
               2.59289057                3.11145560               15.05046593                0.00010000               -0.11031653               -0.13842628                0.43396521                0.00816834                0.93242055               -1.34757528
               3.59240875                3.05457847               15.00012274                0.00010000               -0.50874022               -0.07066274                0.13670032                1.02287291                3.97034912               -1.96120871
               4.58271576                3.01760894               14.99280187                0.00010000               -0.99489117                0.16680370                0.00959268                2.61798658                5.64610216               -2.53327780
               5.57251093                2.97667178               14.97729397                0.00010000               -0.76896857                0.02962798               -0.13169097                2.25176607                4.88055307               -1.18653474
               6.56733639                2.93858562               14.95622583                0.00010000               -0.40345921               -0.03486239               -0.30471946                2.01734308                4.49334472                0.45016835
               7.56444175                2.90290091               14.93406142                0.00010000               -0.26044856               -0.14397071               -0.48087638                1.48981645                4.27568820                0.41815348
               8.56212742                2.86948453               14.90953871                0.00010000               -0.00509017                0.28455950               -0.67088183                0.61982005                2.57033400                1.81594692
               9.56433994                2.82706711               14.85434965                1.00000000                0.27591104                0.32679381               -0.95019142                0.06003672                0.51811153                0.66736137
              10.56764564                2.78389309               14.78880082                1.00000000                0.33056985                0.36864382               -1.29839070               -0.02444635               -0.00161039               -0.44436411
               0.65274388                4.22101495               15.17045268                1.00000000               -0.22663963               -0.30086908                0.94288791               -0.02403461                0.03195239                1.11808792
               1.65047749                4.16591076               15.09617912                1.00000000               -0.17971637               -0.18869540                0.60873071               -0.00298954                0.02827577               -0.06533225
               2.64914956                4.11039309               15.02177428                0.99165581               -0.09645604               -0.07789182                0.27635039                0.00955860                1.19362135               -1.18503133
               3.64854837                4.05472180               14.97078084                0.00010000               -0.53254469                0.25941085               -0.12655508                0.76814598                5.14582488               -0.89637740
               4.63849866                4.01863508               14.97514551                0.00010000               -0.94986687                0.15563446               -0.13689423                1.58317498                7.37875575               -0.97167577
               5.62955103                3.97870581               14.97056242                0.00010000               -0.88494311                0.22574476               -0.17527558                1.45613162                6.69850526               -0.57122639
               6.62079980                3.93977752               14.96316509                0.00010000               -0.81680976                0.19092009               -0.25712200                1.38536318                6.43481545                0.12026962
               7.61321483                3.90378964               14.95510359                0.00010000               -0.73940297                0.15740250               -0.35917803                1.35867090                6.45090193                0.94538125
               8.60601174                3.87220095               14.94967633                0.00010000               -0.28670868                0.21713415               -0.46727275                0.64180018                3.41892923                2.04996351
               9.60748066                3.83002320               14.88245632                1.00000000                0.21918620                0.26343219               -0.79655413                0.03603886                0.16473256                0.60904818
              10.61039547                3.78749512               14.81194658                1.00000000                0.29148045                0.34784568               -1.17298844               -0.02142340               -0.00000400               -0.36702646
               0.70702982                5.21813809               15.15320642                1.00000000               -0.18526575               -0.26880315                0.81530361               -0.02720703                0.09813841                1.02525947
               1.70517716                5.16424705               15.07349082                0.00010000               -0.13795576               -0.14196137                0.46639924               -0.00861826                0.16548780               -0.18318497
               2.70427070                5.10989776               14.99507377                0.29354624               -0.28237416               -0.01950721                0.13010313                0.22369262                2.54692993               -1.27041193
               3.69952968                5.05976669               14.96294734                0.00010000               -0.69377234                0.49465874               -0.45745530                0.63205161                6.61385953                0.15160683
               4.69039525                5.02072163               14.96542996                0.00010000               -0.95192730                0.26869055               -0.22770455                1.17196223                8.26927804               -0.39048580
               5.68049113                4.98118668               14.96881791                0.00010000               -1.02177185                0.29102849               -0.19318644                1.06310936                8.20051651               -0.18820831
               6.66995982                4.94240403               14.97232216                0.00010000               -1.06496989                0.29617716               -0.20227720                1.02709177                8.15543870                0.30459339
               7.65919173                4.90604896               14.97708052                0.00010000               -1.06149727                0.23863141               -0.23234778                1.07453174                8.24638388                0.97316467
               8.64872987                4.87382721               14.98451646                0.00010000               -0.47125890                0.11925253               -0.26903799                0.52847918                4.21034664                1.68688769
               9.64976655                4.83233575               14.91041659                0.00010000                0.17717285                0.20450270               -0.65151419                0.02059916                0.08036376                0.58939278
              10.65227333                4.79085001               14.83525031                1.00000000                0.25067754                0.31975236               -1.04339646               -0.02110009                0.02856388               -0.37395180
               0.75998182                6.21563889               15.13485211                1.00000000               -0.14363734               -0.22657488                0.68080837               -0.02911819                0.06824545                0.92063768
               1.75854545                6.16307153               15.04865910                0.00010000               -0.09390275               -0.09284768                0.31048607               -0.01215606                0.18304045               -0.35314869
               2.75810377                6.11000294               14.96471691                0.00010000               -0.40899589                0.03832804               -0.04799310                0.39498881                4.02820717               -1.58138261
               3.75036553                6.06461497               14.95540789                0.00010000               -0.87929249                0.42394681               -0.33909034                0.80397266                8.36269854               -0.28069208
               4.74051792                6.02400890               14.95925683                0.00010000               -1.06173559                0.37938549               -0.26286042                0.97847623                9.23515142               -0.24222552
               5.72913082                5.98452638               14.96957737                0.00010000               -1.20192825                0.39344207               -0.18307636                0.88268309                9.57370610               -0.01554965
               6.71647935                5.94570106               14.98278036                0.00010000               -1.29242685                0.37098702               -0.13683632                0.77427498                9.71555608                0.39693385
               7.70328228                5.90856227               14.99859206                0.00010000               -1.30924100                0.25667996               -0.10582544                0.77365773                9.87633552                0.93635212
               8.69029453                5.87458600               15.01750121                0.00010000               -0.62062174                0.04052337               -0.08295407                0.36609367                5.01013697                1.55042490
               9.69086985                5.83411325               14.93816746                0.00010000                0.13252116                0.15393541               -0.49288547                0.00914194                0.06870000                0.54160413
              10.69294496                5.79389017               14.85822284                1.00000000                0.20751081                0.28575209               -0.91593481               -0.02055798                0.04120884               -0.43666594
               0.81158217                7.21360659               15.11536004                0.00010000               -0.10121851               -0.17867720                0.54162900               -0.02803870                0.03219832                0.83968846
               1.81056998                7.16239009               15.02255542                0.00010000               -0.04775659               -0.04465822                0.15400719               -0.01090771                0.14078335               -0.44170562
               2.81062704                7.11066432               14.93188530                0.00010000               -0.44834039                0.09109735               -0.22810988                0.47911929                5.09925196               -1.77718122
               3.80160317                7.06824562               14.93825644                0.00010000               -1.02868307                0.37198533               -0.32153108                0.95225827               10.22486821               -0.87357611
               4.79005337                7.02830934               14.95211965                0.00010000               -1.25752748                0.48942745               -0.24846515                0.93449807               10.70889727               -0.33472380
               5.77645262                6.98905552               14.97081870                0.00010000               -1.43219773                0.52998203               -0.15522963                0.74453211               10.99578573                0.01612820
               6.76140942                6.94982377               14.99337902                0.00010000               -1.53363397                0.47417566               -0.06563900                0.52991940               11.21954800                0.39884337
               7.74577995                6.91118256               15.01959211                0.00010000               -1.54543267                0.28524259                0.01809086                0.41764442               11.45186729                0.87813349
               8.73050077                6.87463768               15.04965176                0.00010000               -0.75673585               -0.02612167                0.09866116                0.15886653                5.79316380                1.47263308
               9.73064523                6.83541446               14.96514866                0.00010000                0.09037858                0.10602349               -0.34314006                0.00199061                0.04501523                0.47038539
              10.73230834                6.79656505               14.88018496                0.00010000                0.16631093                0.24901201               -0.78978281               -0.01954341                0.02661443               -0.51358441
               0.86185404                8.21206534               15.09525234                0.00010000               -0.05844762               -0.13063544                0.40201473               -0.02656161                0.01490112                0.80367469
               1.86126956                8.16217837               14.99596126                0.00010000               -0.00117086                0.00226484               -0.00151684               -0.00736148                0.07034252               -0.47803386
               2.86183062                8.11182489               14.89775315                0.00010000               -0.47519415                0.13900604               -0.40767880                0.54757685                6.05195392               -1.78260292
               3.85176568                8.07205468               14.91813498                0.00010000               -1.17163189                0.44220172               -0.37154835                1.01783043               12.09242646               -0.90165741
               4.83839798                8.03379745               14.94344128                0.00010000               -1.46293231                0.63191172               -0.24850750                0.85145095               12.31219993               -0.35537626
               5.82250703                7.99512602               14.97148065                0.00010000               -1.67236423                0.67347560               -0.12477824                0.58393923               12.45877652                0.00520249
               6.80495070                7.95518458               15.00321902                0.00010000               -1.78428882                0.62662472                0.00254381                0.27428262               12.69837459                0.32788691
               7.78682126                7.91426712               15.03954337                0.00010000               -1.78553687                0.37559990                0.13481827               -0.02231268               13.02584291                0.73292786
               8.76923996                7.87406357               15.08106694                0.00010000               -0.89194839               -0.08424226                0.27344456               -0.10759632                6.58878957                1.34836903
               9.76898229                7.83623372               14.99140139                0.00010000                0.05064756                0.05730829               -0.19614793               -0.00416508                0.02120881                0.43222845
              10.77025291                7.79887041               14.90147678                0.00010000                0.12706235                0.21184938               -0.66732773               -0.01924203                0.01448547               -0.55789450
               0.91082489                9.21099388               15.07493774                0.00010000               -0.01616846               -0.08592399                0.26402091               -0.02505832                0.00103697                0.67202308
               1.91066321                9.16243539               14.96914632                0.00010000                0.04386844                0.04904399               -0.15546314               -0.00333950                0.08206656               -0.42626341
               2.91170226                9.11344444               14.86496288                0.00010000               -0.53379899                0.18189110               -0.57657053                0.65346896                7.10872992               -1.26325566
               3.89998723                9.07708966               14.89977682                0.00010000               -1.38456028                0.68954547               -0.42588122                0.84553627               13.90010405               -0.54792029
               4.88401105                9.04094757               14.93490462                0.00010000               -1.66214741                0.75514922               -0.26473615                0.58753643               13.78279943               -0.21436388
               5.86674428                9.00252503               14.97141087                0.00010000               -1.81285455                0.76660502               -0.10609851                0.35114869               13.83528569                0.00413625
               6.84775396                8.96235626               15.01143426                0.00010000               -2.01447906                0.74254326                0.05834360                0.07037773               14.10196465                0.19404501
               7.82645470                8.91869456               15.05705157                0.00010000               -2.06858605                0.64049374                0.23530143               -0.33522605               14.59231062                0.42724016
               8.80638224                8.87295283               15.11068446                0.00010000               -1.03498041               -0.12362798                0.43377472               -0.45686891                7.49565558                0.90905395
               9.80575509                8.83656063               15.01751110                0.00010000                0.01339411                0.01058234               -0.05167965               -0.01213775                0.06391135                0.37087131
              10.80665012                8.80080204               14.92237311                0.00010000                0.08950355                0.17427252               -0.54832945               -0.01962691               -0.02629793               -0.47749668
               0.95846985               10.21034686               15.05212370                0.00010000                0.02823588               -0.06470159                0.12561666                0.04573421                0.36930181                0.54978963
               1.95875221               10.16315924               14.94361187                0.00010000                0.08879398                0.07238553               -0.30259686                0.06469279                0.68234681               -0.36430493
               2.96024573               10.11546271               14.84136507                0.00010000               -0.87894681                0.20182700               -0.71753242                0.98866422                8.32687621               -0.81078888
               3.94117327               10.08584559               14.88584483                0.00010000               -1.77661958                0.87559278               -0.48643963                0.79049068               15.25094451               -0.23678201
               4.92471334               10.04890043               14.92764568                0.00010000               -1.65259777                0.79528578               -0.29728893                0.30085500               14.96981819               -0.07227547
               5.90812132               10.01045812               14.97062205                0.00010000               -1.72623067                0.79330847               -0.10406287                0.19445461               15.02728526                0.04670133
               6.89018873                9.97003544               15.01721677                0.00010000               -1.93005787                0.76791809                0.09574181                0.07442040               15.33876439                0.15004724
               7.86952016                9.92707700               15.06997666                0.00010000               -2.39761062                0.83824398                0.31029778               -0.61567512               15.98332235                0.28547183
               8.84223651                9.87159101               15.13321961                0.00010000               -1.43149155               -0.13618242                0.55265737               -0.94615442                8.57208948                0.56417672
               9.84089033                9.83644537               15.04240472                0.00010000               -0.04294788               -0.01152607                0.08196405                0.05176652                0.54846924                0.31850382
              10.84137756                9.80235586               14.94507749                0.00010000                0.04872255                0.15538198               -0.42543817                0.06379210                0.23285923               -0.37678790
               0.47760695                0.26371996               16.25404403                1.00000000               -0.36622754               -0.40071857                1.39896316               -0.07288203               -0.65717619                0.69577376
               1.47394468                0.19892611               16.19432098                1.00000000               -0.30242999               -0.31883584                1.11981228               -0.05821779               -0.82413946                0.04135982
               2.47155835                0.13393185               16.13118055                1.00000000               -0.16185372               -0.23836106                0.82439033               -0.04132475               -0.76072578               -0.19450459
               3.47070760                0.07007013               16.07267549                1.00000000                0.31934113               -0.18491812                0.54349888                0.48112444                0.22159565               -0.52430721
               4.47794517                0.01835938               16.02917185                0.00010000                0.47440980               -0.07740655                0.24675193               -0.04509341                0.79749920                0.09909655
               5.48019580               -0.02466134               15.98218580                0.00010000                0.14994266                0.01818240               -0.06539701                0.00776803                0.41949989                0.05730730
               6.48094403               -0.06639038               15.93126864                0.00010000                0.04261841                0.10592217               -0.37899800                0.01000127                0.23757061               -0.03724352
               7.48104817               -0.10953598               15.88065371                0.00010000                0.04617674                0.20342460               -0.70222897                0.04894042                0.01245450                0.04241214
               8.48186756               -0.15664919               15.82512770                1.00000000                0.18437348                0.31375205               -1.01700583                0.03591384               -0.37607332                0.38891012
               9.48473564               -0.20636268               15.76668480                1.00000000                0.35551519                0.38377960               -1.32205579               -0.04898874               -0.50732630                0.01597723
              10.48897787               -0.25631137               15.70861951                1.00000000                0.42422309                0.46578681               -1.61251404               -0.07399053               -0.49482858               -0.51559620
               0.54167198                1.25971277               16.23174218                1.00000000               -0.34154300               -0.37943716                1.27091253               -0.03218804               -0.08330309                0.94819925
               1.53825655                1.19573775               16.17161458                1.00000000               -0.30494453               -0.29620490                0.99167428               -0.01438670               -0.04252858                0.06140308
               2.53557309                1.13154824               16.11224527                1.00000000               -0.24757363               -0.21575115                0.70713811                0.02471850                0.18103058               -0.54195723
               3.53330508                1.06822095               16.05655497                1.00000000               -0.53565604               -0.17567061                0.42545474                0.67982148                1.58246369               -0.90380140
               4.52485997                1.01758531               16.02523359                0.00010000               -0.53283638                0.07208447                0.19681549                0.00865111                2.25775146                0.84835912
               5.52264835                0.97552049               15.98364471                0.00010000               -0.06893061                0.08719970               -0.08373918                0.25429803                1.50917560                0.32933178
               6.52348136                0.93466885               15.93755428                0.00010000                0.20093121                0.02115719               -0.37172927                0.26774583                1.36795067               -0.37438647
               7.52666698                0.89249827               15.89334304                0.00010000                0.35793472                0.20330761               -0.65067269                0.36287645                1.32146619                0.57437607
               8.53064006                0.84648833               15.84666863                1.00000000                0.37049297                0.29174058               -0.92499330                0.15394134                0.67417941                0.54228546
               9.53407684                0.79747511               15.78977898                1.00000000                0.37732959                0.36945884               -1.21213658               -0.00072680                0.09858024                0.08162447
              10.53818665                0.74834650               15.73168752                1.00000000                0.41098092                0.44142872               -1.50185610               -0.02789325                0.03344281               -0.61104322
               0.60491324                2.25613122               16.21439207                1.00000000               -0.30917631               -0.34387947                1.16014229               -0.02563549                0.03155838                1.21718957
               1.60182148                2.19300201               16.14924557                1.00000000               -0.26718596               -0.25790924                0.86681321               -0.00083429                0.14493135                0.03977544
               2.59956952                2.12961682               16.08632777                1.00000000               -0.17772609               -0.18230638                0.58250650                0.05143313                0.72905366               -1.17036140
               3.59826696                2.06655672               16.03283829                0.00010000               -1.43754334               -0.16155560                0.28983882                0.97094673                4.04116641               -1.66451242
               4.57081866                2.01980107               16.03616866                0.00010000               -1.50343670                0.22182835                0.20218033                1.89475488                4.30862052               -1.13432148
               5.56819822                1.97708266               15.99050293                0.00010000               -0.07487467               -0.01020137               -0.08634720                1.64453325                1.48306391               -0.47325943
               6.56932116                1.93403277               15.93710371                0.00010000                0.41439945               -0.14319569               -0.36242434                1.47865190                2.73989591                0.13155239
               7.57648621                1.89453018               15.91671208                0.00010000                0.53241921               -0.09277889               -0.59803965                1.03815343                3.09201394                0.56009393
               8.57996955                1.84918562               15.87137014                0.00010000                0.31883593                0.28240755               -0.81384274                0.26463095                1.25691512                1.03571147
               9.58286293                1.80102649               15.81428387                1.00000000                0.33538407                0.35498515               -1.09610811                0.04484182                0.45662983                0.45319358
              10.58667723                1.75251720               15.75295991                1.00000000                0.38142978                0.39685977               -1.40288083               -0.01374906                0.24140825               -0.62215949
               0.66741769                3.25283518               16.19735239                1.00000000               -0.26634296               -0.31894639                1.04838939               -0.02031197                0.03648471                1.21378970
               1.66475426                3.19057956               16.12603934                1.00000000               -0.21853204               -0.22562946                0.73870733                0.00125358                0.04234108               -0.02935744
               2.66304705                3.12790211               16.05479773                1.00000000               -0.11072426               -0.13934968                0.43219132                0.01500186                0.94398050               -1.38760951
               3.66253977                3.06498984               16.00148416                0.00010000               -0.54089599               -0.08638983                0.13597978                1.04222552                4.07571859               -2.07423414
               4.65222913                3.02202188               15.99289442                0.00010000               -1.06162291                0.15274917                0.01000521                2.68208970                5.83789343               -2.64976760
               5.64130732                2.97531646               15.97597297                0.00010000               -0.83111241                0.01205856               -0.13139775                2.29413103                5.06111469               -1.20584323
               6.63560688                2.93180493               15.95319380                0.00010000               -0.45150608               -0.05863711               -0.30224738                2.03457846                4.66100177                0.49305498
               7.63227720                2.89064269               15.92927052                0.00010000               -0.30852618               -0.15233035               -0.47826043                1.50786834                4.43682785                0.49339397
               8.62943636                2.85213648               15.90283513                0.00010000               -0.03175525                0.27892752               -0.67100618                0.61828888                2.68433456                1.90580310
               9.63164209                2.80457481               15.84487128                1.00000000                0.27469420                0.32359302               -0.94641374                0.05796664                0.55496974                0.70632244
              10.63493024                2.75628369               15.77585304                1.00000000                0.32881515                0.36874925               -1.29162357               -0.02368037                0.00066565               -0.46611417
               0.72901824                4.24975229               16.17981491                1.00000000               -0.22386192               -0.29475709                0.93008936               -0.02259657                0.03407906                1.14481589
               1.72677963                4.18848942               16.10222767                1.00000000               -0.17794782               -0.18687332                0.60277003               -0.00090012                0.03205098               -0.07326391
               2.72545929                4.12682983               16.02454875                1.00000000               -0.08939634               -0.07912670                0.28084996                0.00316326                1.16604482               -1.22219066
               3.72499170                4.06482892               15.96963325                0.00010000               -0.56627317                0.21969701               -0.10423953                0.79217576                5.27275685               -1.10998806
               4.71413383                4.02285605               15.97376847                0.00010000               -1.03469547                0.14912139               -0.13578690                1.61397206                7.69213966               -1.03800579
               5.70429779                3.97732383               15.96881667                0.00010000               -0.97236622                0.22805546               -0.17328683                1.48162668                6.98943723               -0.58056146
               6.69468650                3.93286003               15.96060829                0.00010000               -0.89928790                0.18758813               -0.25496506                1.39282667                6.70169068                0.15939920
               7.68631203                3.89148357               15.95152141                0.00010000               -0.81416495                0.15649983               -0.35857924                1.35739576                6.71108370                1.02159739
               8.67840320                3.85476417               15.94499263                0.00010000               -0.32184906                0.20931129               -0.47081720                0.63734391                3.57475070                2.16281147
               9.67987505                3.80749835               15.87449518                1.00000000                0.21913308                0.26062047               -0.79512559                0.03471782                0.18883722                0.64268552
              10.68278586                3.75989219               15.80022800                1.00000000                0.29108131                0.34900322               -1.16943095               -0.02070691               -0.00079898               -0.38091963
               0.78949150                5.24694004               16.16129299                1.00000000               -0.18327812               -0.26188656                0.80270419               -0.02542398                0.10163472                1.04238493
               1.78765872                5.18684210               16.07811011                0.00010000               -0.13603411               -0.14092461                0.45872373               -0.00545542                0.17510332               -0.19989630
               2.78677081                5.12631958               15.99635776                0.26457540               -0.26508218               -0.02314821                0.12716005                0.19728886                2.42730887               -1.31645732
               3.78235707                5.06938378               15.95818922                0.00010000               -0.73785766                0.48538966               -0.48151288                0.61954131                6.79783585                0.10942361
               4.77201366                5.02500431               15.96311086                0.00010000               -1.07105989                0.28143353               -0.23390419                1.20665305                8.77552242               -0.40619092
               5.76093587                4.97987757               15.96688301                0.00010000               -1.13549932                0.30616928               -0.19378248                1.06836003                8.58824139               -0.17472241
               6.74930367                4.93555670               15.97030690                0.00010000               -1.17074538                0.30934450               -0.20170686                1.01882674                8.51701023                0.34945521
               7.73752097                4.89377269               15.97475445                0.00010000               -1.15676116                0.24556438               -0.23423133                1.06101410                8.60166451                1.04899957
               8.72616845                4.85632271               15.98179626                0.00010000               -0.51562690                0.11450907               -0.27579791                0.51699235                4.39957160                1.78821741
               9.72720843                4.80978722               15.90387198                0.00010000                0.17799893                0.20368680               -0.65619171                0.01925280                0.09427688                0.62394045
              10.72972843                4.76326376               15.82479640                1.00000000                0.25200021                0.32269479               -1.04540087               -0.02045233                0.03702092               -0.38803891
               0.84870566                6.24451456               16.14159191                1.00000000               -0.14146723               -0.21971363                0.66805723               -0.02696632                0.06862277                0.93134778
               1.84729098                6.18567093               16.05174138                0.00010000               -0.09211350               -0.09294129                0.30580404               -0.00804716                0.18924531               -0.37627914
               2.84686339                6.12636687               15.96426114                0.00010000               -0.42965952                0.03176292               -0.04402351                0.38991579                4.05446084               -1.64208802
               3.83869779                6.07453671               15.95168828                0.00010000               -0.95451475                0.45818026               -0.40582988                0.77648200                8.63949139               -0.13387714
               4.82777309                6.02848472               15.95653766                0.00010000               -1.17925967                0.40564810               -0.28000192                0.99193173                9.72081011               -0.20459217
               5.81511260                5.98344721               15.96772695                0.00010000               -1.33025876                0.42316070               -0.18751253                0.87621373               10.03826851                0.01951883
               6.80116792                5.93904692               15.98140856                0.00010000               -1.41731491                0.39667591               -0.13858311                0.75092552               10.15966363                0.44775261
               7.78676630                5.89639486               15.99751661                0.00010000               -1.42197018                0.27160711               -0.11046218                0.74235361               10.31537486                1.00838419
               8.77272851                5.85705435               16.01661588                0.00010000               -0.67236242                0.03948992               -0.09493636                0.34497838                5.23818464                1.64239008
               9.77331905                5.81157209               15.93318243                0.00010000                0.13476179                0.15621176               -0.50439824                0.00756862                0.07615045                0.57807993
              10.77542375                5.76634608               15.84900718                1.00000000                0.21046944                0.29150783               -0.92702498               -0.02009827                0.04216087               -0.45264145
               0.90663943                7.24254577               16.12071404                0.00010000               -0.09939674               -0.17310346                0.52988110               -0.02637572                0.03156659                0.84758546
               1.90564546                7.18498327               16.02408711                0.00010000               -0.04680428               -0.04532644                0.15200576               -0.00751489                0.14299104               -0.46490057
               2.90570334                7.12695483               15.92965261                0.00010000               -0.49383022                0.08381484               -0.21980950                0.49891207                5.23522490               -1.83884353
               3.89576886                7.07854738               15.93486526                0.00010000               -1.13807753                0.40783304               -0.36161218                0.97082356               10.61074954               -0.79655342
               4.88294179                7.03311727               15.94955040                0.00010000               -1.39354531                0.53071377               -0.26689370                0.95174872               11.21148621               -0.27476213
               5.86789795                6.98834078               15.96924017                0.00010000               -1.57836252                0.57516248               -0.16145189                0.73441726               11.51074348                0.06174405
               6.85137454                6.94349021               15.99270931                0.00010000               -1.67686747                0.51380526               -0.06946624                0.49350336               11.73494697                0.44941123
               7.83436060                6.89920483               16.01974122                0.00010000               -1.67418784                0.30900628                0.01050021                0.36639379               11.96948144                0.94364645
               8.81789079                6.85711250               16.05056071                0.00010000               -0.81462676               -0.02443990                0.08206018                0.12658779                6.05752484                1.55939102
               9.81806807                6.81291146               15.96163389                0.00010000                0.09438427                0.11086477               -0.36079502                0.00048467                0.04834042                0.50221379
              10.81977847                6.76909391               15.87219809                0.00010000                0.17104046                0.25730103               -0.80816787               -0.01884642                0.02771020               -0.53079030
               0.96330314                8.24105249               16.09921716                0.00010000               -0.05715174               -0.12652097                0.39156389               -0.02527210                0.01409755                0.81180010
               1.96273162                8.18476440               15.99595434                0.00010000               -0.00128108                0.00140181               -0.00053446               -0.00497093                0.06849461               -0.49959331
               2.96327752                8.12804316               15.89375284                0.00010000               -0.53898958                0.13203029               -0.39437406                0.58950604                6.26021807               -1.83767280
               3.95195183                8.08269337               15.91434829                0.00010000               -1.31314276                0.48114689               -0.38971910                1.07443010               12.58250338               -0.86209933
               4.93701466                8.03909900               15.94091523                0.00010000               -1.62619152                0.69087800               -0.25873077                0.88046720               12.86742770               -0.30987130
               5.91942800                7.99495046               15.97021279                0.00010000               -1.84203633                0.73542147               -0.13012664                0.57495216               13.02659554                0.04508934
               6.90017394                7.94932302               16.00322457                0.00010000               -1.94780567                0.68404641               -0.00269787                0.22989904               13.27922656                0.36860325
               7.88047189                7.90257498               16.04084627                0.00010000               -1.93101484                0.41217163                0.12442648               -0.09631750               13.62017752                0.78500678
               8.86155364                7.85656555               16.08370346                0.00010000               -0.95622750               -0.08029651                0.25250244               -0.15461149                6.89217871                1.42524792
               9.86134734                7.81378938               15.98933452                0.00010000                0.05641349                0.06376927               -0.21825860               -0.00564113                0.02238360                0.46253390
              10.86268191                7.77149211               15.89468590                0.00010000                0.13345722                0.22146474               -0.69139582               -0.01831575                0.01500930               -0.57777285
               1.01871017                9.24001535               16.07753103                0.00010000               -0.01547987               -0.08293827                0.25512917               -0.02415321               -0.00068408                0.68061301
               2.01855537                9.18501131               15.96761739                0.00010000                0.04271614                0.04768114               -0.15131293               -0.00208988                0.07997139               -0.44327210
               3.01956449                9.12959544               15.85930127                0.00010000               -0.61768704                0.17540379               -0.55831967                0.72206214                7.38409326               -1.29846143
               4.00620163                9.08817032               15.89552092                0.00010000               -1.56352215                0.75470171               -0.42767307                0.91230710               14.48169469               -0.51749213
               4.98829405                9.04693483               15.93225026                0.00010000               -1.85143293                0.82723174               -0.26786389                0.61526803               14.39182799               -0.18994431
               5.96917297                9.00304921               15.97033869                0.00010000               -1.99730203                0.83983761               -0.10973256                0.34546521               14.46076997                0.02619098
               6.94834801                8.95717114               16.01199287                0.00010000               -2.19906247                0.81449816                0.05201274                0.03350529               14.74746490                0.21610103
               7.92519172                8.90744826               16.05934623                0.00010000               -2.23819261                0.70609247                0.22218969               -0.41022123               15.26307572                0.45601374
               8.90358415                8.85550657               16.11490273                0.00010000               -1.10815134               -0.11616250                0.40831089               -0.52375584                7.84520905                0.95851625
               9.90302869                8.81418684               16.01686543                0.00010000                0.02112795                0.01854662               -0.07865063               -0.01413338                0.06887380                0.39495658
              10.90400671                8.77352321               15.91674402                0.00010000                0.09780205                0.18451908               -0.57812015               -0.01850744               -0.02678311               -0.49701448
               1.07282816               10.23939372               16.05334370                0.00010000                0.02815736               -0.06216278                0.11870818                0.04422941                0.37271798                0.55803206
               2.07310974               10.18571802               15.94062698                0.00010000                0.08657937                0.07067140               -0.29563752                0.06331262                0.69268023               -0.37735505
               3.07455975               10.13155124               15.83430776                0.00010000               -1.01255758                0.19557999               -0.69673835                1.10299534                8.66032634               -0.83111537
               4.05285858               10.09778741               15.88101953                0.00010000               -2.00593102                0.96170893               -0.48025721                0.87031524               15.91293868               -0.21914094
               5.03444113               10.05564363               15.92468216                0.00010000               -1.83787965                0.87088023               -0.29702947                0.31269870               15.63745062               -0.06253945
               6.01610099               10.01174722               15.96957481                0.00010000               -1.89980687                0.86980035               -0.10688544                0.19126998               15.71647163                0.05565763
               6.99644499                9.96561298               16.01814342                0.00010000               -2.10844808                0.84418434                0.08805463                0.05717933               16.04931489                0.15950745
               7.97393203                9.91669683               16.07300561                0.00010000               -2.60525254                0.92485681                0.29389126               -0.69450299               16.72124597                0.29899603
               8.94433994                9.85424230               16.13859678                0.00010000               -1.54419978               -0.12642701                0.52111569               -1.05124701                8.97525545                0.59354133
               9.94304803                9.81416032               16.04306633                0.00010000               -0.03504552               -0.00265282                0.04894594                0.04894333                0.58042301                0.33772061
              10.94363903                9.77518249               15.94064366                0.00010000                0.05909966                0.16592778               -0.46212663                0.06544886                0.24647932               -0.39421167
               0.53203590                0.29373630               17.26796090                1.00000000               -0.36228041               -0.39602153                1.38452359               -0.07245367               -0.68015717                0.71853805
               1.52841309                0.22270740               17.20546469                1.00000000               -0.29913148               -0.31580614                1.10903702               -0.05826966               -0.85460846                0.04499931
               2.52605327                0.15149090               17.13939969                1.00000000               -0.16046801               -0.23690045                0.81914536               -0.04077672               -0.79169562               -0.19853247
               3.52520373                0.08142256               17.07810702                1.00000000                0.31853905               -0.18487331                0.54252778                0.48713803                0.18881451               -0.54533528
               4.53242405                0.02361399               17.03164774                0.00010000                0.47005955               -0.07256507                0.24696151               -0.05223455                0.74404263                0.11323953
               5.53460492               -0.02541597               16.98154443                0.00010000                0.14660546                0.02016849               -0.06384280                0.00639071                0.35924275                0.06441630
               6.53535616               -0.07310676               16.92751600                0.00010000                0.04590160                0.10565929               -0.37206499                0.00971254                0.17456120               -0.04178134
               7.53552296               -0.12203947               16.87369769                0.00010000                0.05120583                0.20153478               -0.68942817                0.04535578               -0.04978207                0.04660549
               8.53638027               -0.17470433               16.81504317                1.00000000                0.18435720                0.30911633               -1.00020508                0.03229436               -0.42839106                0.40017479
               9.53921010               -0.22985343               16.75356417                1.00000000                0.35047682                0.37898254               -1.30220753               -0.04795498               -0.54677845                0.01456302
              10.54338981               -0.28524236               16.69261146                1.00000000                0.41797109                0.46028268               -1.58913840               -0.07192317               -0.52662631               -0.54657118
               0.60234026                1.28977609               17.24438736                1.00000000               -0.33871642               -0.37431612                1.25847140               -0.03225471               -0.08754425                0.97895763
               1.59895310                1.21954934               17.18148313                1.00000000               -0.30261701               -0.29308967                0.98241513               -0.01480876               -0.04935405                0.06634687
               2.59628792                1.14912189               17.11928893                1.00000000               -0.24697661               -0.21444859                0.70215749                0.02516379                0.17366565               -0.55060131
               3.59401357                1.07957382               17.06081222                1.00000000               -0.54834778               -0.17534734                0.42872674                0.68947045                1.60220683               -0.93608813
               4.58532097                1.02288834               17.02720370                0.00010000               -0.54921792                0.06688774                0.19752068               -0.02360728                2.28743843                0.88677377
               5.58302921                0.97478571               16.98281106                0.00010000               -0.07779664                0.08678847               -0.08325088                0.23375895                1.51346865                0.34380870
               6.58376503                0.92794983               16.93385832                0.00010000                0.18730443                0.02865237               -0.36793613                0.25524208                1.37464995               -0.37803758
               7.58677530                0.87997587               16.88688008                0.00010000                0.34225819                0.19914631               -0.64254246                0.34026550                1.33437973                0.57889486
               8.59061020                0.82838684               16.83747344                1.00000000                0.36121344                0.28809098               -0.91455959                0.14641468                0.68198012                0.56303519
               9.59399957                0.77393639               16.77772723                1.00000000                0.37246522                0.36561625               -1.19863434               -0.00025745                0.09906188                0.08331781
              10.59805950                0.71936047               16.71675559                1.00000000                0.40599371                0.43779415               -1.48486631               -0.02646132                0.03292932               -0.64776125
               0.67184430                2.28624998               17.22593258                1.00000000               -0.30731884               -0.33838326                1.14871329               -0.02455470                0.03233304                1.25492987
               1.66877111                2.21684561               17.15787076                1.00000000               -0.26561201               -0.25488182                0.85877134                0.00077072                0.14909546                0.04437152
               2.66653206                2.14720193               17.09211535                1.00000000               -0.17722084               -0.18197351                0.57458840                0.05537193                0.73304430               -1.19476158
               3.66522669                2.07791561               17.03571011                0.00010000               -1.48960233               -0.16374995                0.28481151                0.97813432                4.14254586               -1.71649550
               4.63674001                2.02495175               17.03813862                0.00010000               -1.55040406                0.20627130                0.19291242                1.90340196                4.45129614               -1.16209448
               5.63421861                1.97631980               16.98962601                0.00010000               -0.07345872               -0.02722712               -0.09036416                1.64595878                1.53148237               -0.46966940
               6.63527084                1.92746629               16.93348052                0.00010000                0.38363240               -0.15038405               -0.36248405                1.45587489                2.81280408                0.15479056
               7.64189126                1.88194345               16.91074435                0.00010000                0.50386060               -0.10082067               -0.59636413                1.01764459                3.18849573                0.60205029
               8.64534805                1.83105749               16.86325375                0.00010000                0.31700283                0.27956345               -0.81020796                0.25592989                1.32637346                1.08228754
               9.64823132                1.77745889               16.80336136                1.00000000                0.33321887                0.35229286               -1.08916807                0.04389450                0.48125082                0.47522693
              10.65201243                1.72351353               16.73898495                1.00000000                0.37811103                0.39711296               -1.39271035               -0.01274024                0.25393401               -0.65736163
               0.74065791                3.28300842               17.20777757                1.00000000               -0.26413491               -0.31396552                1.03737248               -0.01788917                0.03947000                1.24636883
               1.73801657                3.21445170               17.13339142                1.00000000               -0.21662784               -0.22354490                0.73213489                0.00437801                0.04678438               -0.03038124
               2.73632536                3.14548242               17.05910975                1.00000000               -0.10950668               -0.14063428                0.43079401                0.01899671                0.95432716               -1.42267109
               3.73582643                3.07629882               17.00284233                0.00010000               -0.56702703               -0.10493191                0.13634854                1.05442162                4.18455251               -2.18006662
               4.72498482                3.02701377               16.99300197                0.00010000               -1.11962940                0.13533918                0.01491375                2.71801836                6.02118817               -2.75128515
               5.71343384                2.97424117               16.97466602                0.00010000               -0.88629703               -0.00676279               -0.13049972                2.31048664                5.23321773               -1.21877706
               6.70725888                2.92494215               16.95018088                0.00010000               -0.49484314               -0.08069375               -0.30145238                2.02881680                4.82279570                0.54096236
               7.70353698                2.87795946               16.92449622                0.00010000               -0.35227601               -0.16028910               -0.47769703                1.50984305                4.59151724                0.57229394
               8.70021336                2.83397811               16.89611859                0.00010000               -0.05577798                0.27192793               -0.67344246                0.61038613                2.79546991                1.99706632
               9.70242142                2.78098225               16.83542137                1.00000000                0.27410356                0.32086568               -0.94526009                0.05576720                0.59242345                0.74709134
              10.70569543                2.72730273               16.76296835                1.00000000                0.32740061                0.37099220               -1.28707535               -0.02288108                0.00379322               -0.48639224
               0.80859995                4.27997067               17.18905446                1.00000000               -0.22152857               -0.28998152                0.91854694               -0.02107843                0.03862161                1.16843401
               1.80638467                4.21237471               17.10823452                1.00000000               -0.17675416               -0.18581469                0.59908614                0.00082288                0.03970003               -0.08377855
               2.80506487                4.14438924               17.02739128                0.00010000               -0.08004434               -0.08130979                0.28720800               -0.00726652                1.14609824               -1.26330329
               3.80478378                4.07581697               16.96869605                0.00010000               -0.59534194                0.18006526               -0.08808302                0.80880748                5.38555854               -1.32218762
               4.79315803                4.02765853               16.97242977                0.00010000               -1.11419099                0.14074275               -0.12850760                1.62973355                7.98271630               -1.09827600
               5.78249996                3.97618454               16.96709669                0.00010000               -1.05145743                0.22703908               -0.17144760                1.49099800                7.27050379               -0.58600135
               6.77212888                3.92585241               16.95806579                0.00010000               -0.97238979                0.18253548               -0.25464006                1.38614181                6.96085384                0.20254744
               7.76305217                3.87873767               16.94793201                0.00010000               -0.87979497                0.15371430               -0.36061330                1.34211600                6.96330496                1.10138568
               8.75453298                3.83649605               16.94025998                0.00010000               -0.35150645                0.19950991               -0.47816634                0.62644725                3.72762860                2.27904518
               9.75602204                3.78387621               16.86655380                1.00000000                0.21904304                0.25725299               -0.79349700                0.03339227                0.21461961                0.67778065
              10.75891385                3.73093337               16.78855796                1.00000000                0.28918078                0.35036600               -1.16218266               -0.02080926               -0.00083931               -0.39263086
               0.87542827                5.27720879               17.16926050                1.00000000               -0.18138162               -0.25629377                0.79122285               -0.02456955                0.10487106                1.05670058
               1.87361445                5.21073541               17.08266530                0.00010000               -0.13452513               -0.14028807                0.45303165               -0.00380539                0.18419620               -0.21970381
               2.87273777                5.14385623               16.99761697                0.23218471               -0.24405798               -0.02614530                0.12614074                0.16729665                2.29989922               -1.36859314
               3.86873329                5.07990013               16.95331708                0.00010000               -0.77629237                0.47222107               -0.47465629                0.60337246                6.95840845                0.03786746
               4.85721192                5.02982862               16.96075187                0.00010000               -1.18366842                0.29094905               -0.23632367                1.23096206                9.27299811               -0.42614904
               5.84505992                4.97878195               16.96494226                0.00010000               -1.23916666                0.31875235               -0.19487930                1.06447854                8.96937383               -0.16015565
               6.83242858                4.92859286               16.96828802                0.00010000               -1.26621313                0.32006455               -0.20313349                1.00029384                8.87142140                0.39766456
               7.81973566                4.88103375               16.97239590                0.00010000               -1.24124085                0.25027547               -0.23881445                1.03528641                8.94899405                1.12891225
               8.80760377                4.83796830               16.97900051                0.00010000               -0.55418562                0.10866487               -0.28589312                0.49764923                4.58566388                1.89358009
               9.80865195                4.78612731               16.89729276                0.00010000                0.17805724                0.20183660               -0.65721198                0.01606366                0.10881249                0.65775257
              10.81116491                4.73431005               16.81434229                1.00000000                0.25129635                0.32511358               -1.04267870               -0.02048417                0.04633004               -0.40335548
               0.94105533                6.27484479               17.14821325                1.00000000               -0.13942049               -0.21378737                0.65655615               -0.02563024                0.06922823                0.93919801
               1.93966112                6.20956895               17.05477518                0.00010000               -0.09046229               -0.09281431                0.30104827               -0.00508388                0.19623894               -0.39964963
               2.93924608                6.14386633               16.96383644                0.00010000               -0.43911441                0.02697626               -0.04160089                0.37540329                4.04195241               -1.70039801
               3.93087884                6.08526139               16.94729130                0.00010000               -1.01753166                0.48772082               -0.46797105                0.73991279                8.89612346                0.00227639
               4.91889545                6.03347751               16.95365680                0.00010000               -1.29267704                0.43039529               -0.29427193                0.99972329               10.22766677               -0.17118330
               5.90502530                5.98255959               16.96582712                0.00010000               -1.45062420                0.45113041               -0.19278938                0.86124287               10.50179314                0.05522910
               6.88988297                5.93225370               16.98000870                0.00010000               -1.53214224                0.42015564               -0.14240840                0.71811578               10.59800774                0.50153191
               7.87438245                5.88374318               16.99638282                0.00010000               -1.52452797                0.28460426               -0.11764337                0.69990781               10.74610667                1.08451989
               8.85939241                5.83866935               17.01560249                0.00010000               -0.71904429                0.03848121               -0.10865334                0.31622899                5.46168333                1.73819958
               9.86000157                5.78791294               16.92807950                0.00010000                0.13731371                0.15896704               -0.51773916                0.00444994                0.08287041                0.61518842
              10.86213868                5.73743564               16.83968235                1.00000000                0.21371158                0.29802351               -0.93962428               -0.01926808                0.04276993               -0.47095268
               1.00546736                7.27293304               17.12595766                0.00010000               -0.09761234               -0.16802173                0.51908545               -0.02507713                0.03127286                0.85325242
               2.00449123                7.20887912               17.02559553                0.00010000               -0.04569853               -0.04563616                0.14941828               -0.00473170                0.14586359               -0.48733998
               3.00455339                7.14439575               16.92748911                0.00010000               -0.52854308                0.07782203               -0.21381404                0.50851856                5.34113229               -1.89746853
               3.99392037                7.08965455               16.93102419                0.00010000               -1.23225992                0.44478207               -0.40903504                0.97076472               10.97519894               -0.69550848
               4.97990819                7.03843653               16.94678178                0.00010000               -1.52058904                0.57113276               -0.28694672                0.95683022               11.72480595               -0.21070189
               5.96350859                6.98780456               16.96758966                0.00010000               -1.71504390                0.61848478               -0.16921741                0.71318743               12.02639149                0.10953623
               6.94560731                6.93699597               16.99198969                0.00010000               -1.80952099                0.55096873               -0.07552296                0.44700296               12.24496555                0.50282224
               7.92731817                6.88672583               17.01980212                0.00010000               -1.79243595                0.33095333                0.00040550                0.30527146               12.47853541                1.01297365
               8.90975859                6.83873793               17.05129296                0.00010000               -0.86717581               -0.02214193                0.06314753                0.08918490                6.31700950                1.65052758
               9.90997465                6.78930665               16.95793276                0.00010000                0.09877753                0.11699609               -0.38035405               -0.00107280                0.05119140                0.53694219
              10.91173414                6.74027052               16.86402160                0.00010000                0.17594863                0.26666902               -0.82786276               -0.01803029                0.02884155               -0.54761268
               1.06866163                8.27148436               17.10308362                0.00010000               -0.05578488               -0.12267206                0.38190546               -0.02425686                0.01352140                0.81822868
               2.06810378                8.20865622               16.99595057                0.00010000               -0.00102993                0.00090964               -0.00075297               -0.00302114                0.06735633               -0.52003627
               3.06864103                8.14542278               16.88986566                0.00010000               -0.59252130                0.12622680               -0.38449574                0.62140104                6.44705740               -1.88890439
               4.05625336                8.09415703               16.91034060                0.00010000               -1.43794961                0.52070187               -0.41462157                1.11145760               13.05158841               -0.80244706
               5.03988204                8.04490017               16.93826667                0.00010000               -1.77618779                0.74726129               -0.27230286                0.89469529               13.42211563               -0.25612429
               6.02072960                7.99492928               16.96887812                0.00010000               -1.99901427                0.79411358               -0.13782795                0.55406917               13.59091964                0.08805431
               6.99990175                7.94327308               17.00316506                0.00010000               -2.09918375                0.73817308               -0.01041304                0.17606851               13.85366669                0.41188824
               7.97874592                7.89036225               17.04203190                0.00010000               -2.06532334                0.44648298                0.11130861               -0.17791912               14.20538567                0.84062146
               8.95859529                7.83822651               17.08611699                0.00010000               -1.01492036               -0.07540448                0.22881788               -0.20503770                7.19122362                1.50645925
               9.95844752                7.79025286               16.98703622                0.00010000                0.06275242                0.07106500               -0.24236314               -0.00704344                0.02391271                0.49617593
              10.95985034                7.74276902               16.88764886                0.00010000                0.14028181                0.23167349               -0.71656888               -0.01722630                0.01567949               -0.59636149
               1.13063849                9.27047960               17.08004033                0.00010000               -0.01460959               -0.08011011                0.24682230               -0.02342719               -0.00210728                0.68805336
               2.13049239                9.20889731               16.96612006                0.00010000                0.04210535                0.04683713               -0.14897402               -0.00106696                0.07871379               -0.45919800
               3.13148060                9.14692029               16.85379649                0.00010000               -0.69101306                0.17023218               -0.54452560                0.77949713                7.64429354               -1.33089505
               4.11667213                9.10006858               16.89122336                0.00010000               -1.72253769                0.81542558               -0.43381479                0.96328793               15.04254589               -0.47481683
               5.09702984                9.05338175               16.92954734                0.00010000               -2.02275343                0.89428340               -0.27420449                0.63216393               14.99163044               -0.16055610
               6.07621706                9.00368683               16.96921622                0.00010000               -2.16670625                0.90848696               -0.11606600                0.33187870               15.07825116                0.05027683
               7.05369572                8.95175943               17.01247451                0.00010000               -2.37053544                0.88257093                0.04294657               -0.00944348               15.38437926                0.23965813
               8.02880635                8.89565549               17.06149536                0.00010000               -2.39642466                0.76879590                0.20617048               -0.48918982               15.92366048                0.48746169
               9.00576722                8.83722984               17.11885067                0.00010000               -1.17575405               -0.10763838                0.37968193               -0.59209611                8.19046144                1.01143903
              10.00529127                8.79072795               17.01593809                0.00010000                0.02950318                0.02725665               -0.10792275               -0.01607285                0.07469631                0.42119465
              11.00635729                8.74490399               16.91081070                0.00010000                0.10660139                0.19516643               -0.60904098               -0.01728869               -0.02700505               -0.51605414
               1.19135766               10.26988216               17.05449786                0.00010000                0.02840943               -0.05974457                0.11204274                0.04299823                0.37614122                0.56556232
               2.19164176               10.20959297               16.93769912                0.00010000                0.08510225                0.06956515               -0.29100791                0.06219939                0.70307935               -0.38956091
               3.19305971               10.14882742               16.82743030                0.00010000               -1.12920535                0.19071301               -0.68083607                1.20154001                8.98072048               -0.85005326
               4.16905765               10.11046555               16.87623969                0.00010000               -2.20763189                1.03969628               -0.47729123                0.93647247               16.55426212               -0.19460545
               5.14890707               10.06278583               16.92170509                0.00010000               -2.00340778                0.94040805               -0.29993979                0.31939658               16.29118815               -0.05066560
               6.12898949               10.01309902               16.96848435                0.00010000               -2.05814219                0.94121917               -0.11266988                0.18417603               16.39414913                0.06512894
               7.10774422                9.96092450               17.01897786                0.00010000               -2.27488844                0.91650611                0.07734550                0.03680782               16.74790579                0.16911062
               8.08349172                9.90573816               17.07585448                0.00010000               -2.80316591                1.00826729                0.27441108               -0.77400067               17.44546446                0.31325562
               9.05168091                9.83607374               17.14364192                0.00010000               -1.65199073               -0.11560957                0.48628462               -1.15564035                9.37387365                0.62562346
              10.05045191                9.79079799               17.04338364                0.00010000               -0.02642119                0.00700419                0.01329081                0.04599402                0.61375479                0.35834586
              11.05115248                9.74667235               16.93583496                0.00010000                0.07005732                0.17683614               -0.50010069                0.06695544                0.26040508               -0.41193827
               0.58899622                0.32523780               18.28173450                1.00000000               -0.35825084               -0.39175498                1.37040045               -0.07152472               -0.70264940                0.74115285
               1.58541371                0.24778921               18.21650172                1.00000000               -0.29570559               -0.31305964                1.09863140               -0.05733450               -0.88410586                0.04794579
               2.58308211                0.17018272               18.14756346                1.00000000               -0.15889346               -0.23621687                0.81274102               -0.03828976               -0.82168513               -0.20406579
               3.58223584                0.09375301               18.08352605                1.00000000                0.31532555               -0.18569185                0.53762655                0.48633661                0.15458449               -0.56226063
               4.58938862                0.02951225               18.03411108                0.00010000                0.46382740               -0.06823417                0.24374964               -0.06083625                0.68793382                0.12587694
               5.59151239               -0.02590628               17.98090894                0.00010000                0.14466838                0.02213563               -0.06371018                0.00392772                0.30057511                0.07083406
               6.59228199               -0.07991063               17.92382734                0.00010000                0.05064841                0.10542130               -0.36580186                0.00921756                0.11486931               -0.04619764
               7.59252536               -0.13496864               17.86686514                0.00010000                0.05756399                0.19981466               -0.67729689                0.04162813               -0.11014821                0.05138125
               8.59343327               -0.19350625               17.80512360                1.00000000                0.18532066                0.30446985               -0.98384184                0.02847783               -0.48077174                0.41119975
               9.59623177               -0.25439756               17.74064065                1.00000000                0.34587428                0.37418311               -1.28250109               -0.04682530               -0.58678212                0.01288994
              10.60035075               -0.31553106               17.67683674                1.00000000                0.41189801                0.45488445               -1.56578004               -0.06957401               -0.55882593               -0.57803410
               0.66572956                1.32132025               18.25691161                1.00000000               -0.33616530               -0.36990983                1.24645151               -0.03179710               -0.09139504                1.00901081
               1.66236790                1.24465862               18.19126288                1.00000000               -0.30061228               -0.29040326                0.97419576               -0.01463930               -0.05487862                0.07022260
               2.65971731                1.16782056               18.12628842                1.00000000               -0.24667282               -0.21409783                0.69917329                0.02732134                0.17037604               -0.56243935
               3.65743445                1.09189610               18.06512950                1.00000000               -0.55537035               -0.17781580                0.43762125                0.69340548                1.61872278               -0.96844013
               4.64860990                1.02882991               18.02918400                0.00010000               -0.55856689                0.06243278                0.19780733               -0.05204813                2.30912238                0.91762844
               5.64626311                0.97431508               17.98197970                0.00010000               -0.08522803                0.08702976               -0.08367531                0.21436279                1.51343220                0.35501415
               6.64690534                0.92114358               17.93019555                0.00010000                0.17381691                0.03583241               -0.36522581                0.24456737                1.37976977               -0.38198121
               7.64973945                0.86702951               17.88049219                0.00010000                0.32635800                0.19618421               -0.63570301                0.31762039                1.34600447                0.58299177
               8.65343250                0.80953845               17.82837744                1.00000000                0.35182387                0.28462348               -0.90511263                0.13807552                0.68847648                0.58326977
               9.65677593                0.74934428               17.76580629                1.00000000                0.36780052                0.36172228               -1.18593228                0.00021556                0.09894235                0.08447768
              10.66078851                0.68901779               17.70199019                1.00000000                0.40125888                0.43441371               -1.46853938               -0.02474968                0.03212407               -0.68531802
               0.74168354                2.31783960               18.23736634                1.00000000               -0.30629202               -0.33397863                1.13803421               -0.02335334                0.03361620                1.29054503
               1.73862062                2.24198115               18.16642099                1.00000000               -0.26462402               -0.25252226                0.85272127                0.00255151                0.15233590                0.04740957
               2.73639106                2.16590077               18.09781954                1.00000000               -0.17630082               -0.18239011                0.56656901                0.05904587                0.73470318               -1.21906513
               3.73509460                2.09019670               18.03853452                0.00010000               -1.52311908               -0.17467662                0.28394346                0.98821482                4.22835728               -1.75768200
               4.70592868                2.03076090               18.04002690                0.00010000               -1.58043136                0.19375570                0.18182938                1.89284614                4.58408192               -1.18872962
               5.70348597                1.97583432               17.98869564                0.00010000               -0.07348854               -0.04224164               -0.09756627                1.62873814                1.57534183               -0.46602017
               6.70445891                1.92080602               17.92985403                0.00010000                0.34984606               -0.15523371               -0.36325413                1.42239902                2.88004087                0.17963865
               7.71048290                1.86895504               17.90478479                0.00010000                0.47105520               -0.10642964               -0.59642963                0.99052955                3.28134850                0.64485112
               8.71388001                1.81218622               17.85516598                0.00010000                0.31369266                0.27665592               -0.80819022                0.24349696                1.39461071                1.12852023
               9.71675675                1.75283689               17.79250050                1.00000000                0.33143629                0.34899606               -1.08372233                0.04179355                0.50529872                0.49627286
              10.72050874                1.69315722               17.72510571                1.00000000                0.37519864                0.39825215               -1.38366291               -0.01178498                0.26627651               -0.69405632
               0.81697939                3.31464067               18.21809984                1.00000000               -0.26216268               -0.31007824                1.02732778               -0.01589947                0.04285518                1.27551190
               1.81435777                3.23960817               18.14068204                1.00000000               -0.21483570               -0.22205880                0.72655878                0.00741349                0.05213580               -0.03212445
               2.81268268                3.16417275               18.06341361                1.00000000               -0.10095795               -0.14221082                0.42980154                0.01615309                0.96360216               -1.45275047
               3.81233861                3.08840256               18.00421113                0.00010000               -0.59267348               -0.11431380                0.13663304                1.05510214                4.25345769               -2.23176138
               4.80082921                3.03270502               17.99319270                0.00010000               -1.17729228                0.11898618                0.01820122                2.72632589                6.18552122               -2.84427039
               5.78879276                2.97347024               17.97336298                0.00010000               -0.92983069               -0.02533785               -0.13283126                2.29598797                5.39388975               -1.22590115
               6.78223260                2.91803891               17.94716476                0.00010000               -0.53114651               -0.10010919               -0.30310903                2.00200106                4.97882860                0.59261597
               7.77816983                2.86490091               17.91971658                0.00010000               -0.39059989               -0.16717222               -0.47933786                1.49668531                4.73958747                0.65418283
               8.77442060                2.81507157               17.88936628                0.00010000               -0.07645146                0.26384674               -0.67827977                0.59386257                2.90271532                2.08862134
               9.77664080                2.75632420               17.82596608                1.00000000                0.27457809                0.31728458               -0.94695719                0.05119866                0.62898358                0.78977186
              10.77991216                2.69698283               17.75011154                1.00000000                0.32713574                0.37542051               -1.28548993               -0.02153550                0.00669611               -0.50279862
               0.89143055                4.31163804               18.19818585                1.00000000               -0.21937444               -0.28627050                0.90802238               -0.01980916                0.04541045                1.18857244
               1.88923681                4.23753997               18.11420939                1.00000000               -0.17554122               -0.18504057                0.59563493                0.00234637                0.05055574               -0.09600106
               2.88791973                4.16305655               18.03029291                0.00010000               -0.07862160               -0.08350988                0.29212084               -0.00976065                1.12858925               -1.30474403
               3.88766438                4.08791042               17.96787159                0.00010000               -0.62661078                0.15716571               -0.06527007                0.80679021                5.47562588               -1.48247322
               4.87538751                4.03314063               17.97119832                0.00010000               -1.17962638                0.12746407               -0.12072915                1.62181845                8.25584326               -1.16213333
               5.86407185                3.97532756               17.96538772                0.00010000               -1.11596281                0.22368888               -0.17216824                1.48288200                7.53962616               -0.58918479
               6.85306826                3.91880383               17.95551549                0.00010000               -1.03439558                0.17640858               -0.25664933                1.36649551                7.21296204                0.24963106
               7.84338394                3.86561160               17.94430914                0.00010000               -0.93671393                0.14996054               -0.36518356                1.31389301                7.20642166                1.18451692
               8.83433398                3.81746316               17.93542930                0.00010000               -0.37572377                0.18901166               -0.48890072                0.60676260                3.87664953                2.39767288
               9.83586946                3.75918258               17.85862524                1.00000000                0.22133894                0.25461931               -0.79974609                0.03022801                0.24447759                0.71869958
              10.83876076                3.70066563               17.77698434                1.00000000                0.28912952                0.35447181               -1.16037634               -0.01950516                0.00533692               -0.39887384
               0.96477934                5.30891526               18.17711745                1.00000000               -0.17931580               -0.25183355                0.78028180               -0.02400018                0.10810773                1.06821844
               1.96298618                5.23590736               18.08717074                0.00010000               -0.13311596               -0.13961362                0.44824001               -0.00284693                0.19306684               -0.24192866
               2.96211702                5.16250256               17.99888058                0.21729110               -0.22979214               -0.02848957                0.12725662                0.14525556                2.18172523               -1.42301515
               3.95839033                5.09154588               17.94869610                0.00010000               -0.81342872                0.44823511               -0.43108589                0.59436373                7.10032799               -0.04843096
               4.94584844                5.03525430               17.95838439                0.00010000               -1.28015683                0.29452615               -0.23779584                1.24006168                9.75082333               -0.45385253
               5.93278720                4.97794402               17.96298542                0.00010000               -1.32849887                0.32884180               -0.19695964                1.05187436                9.34385346               -0.14484052
               6.91927846                4.92156708               17.96624423                0.00010000               -1.34994164                0.32860264               -0.20664830                0.97301116                9.21876468                0.44940714
               7.90578837                4.86790012               17.96997816                0.00010000               -1.31467979                0.25337164               -0.24597416                0.99977181                9.28699793                1.21308193
               8.89298487                4.81885180               17.97607839                0.00010000               -0.58727362                0.10313665               -0.29990775                0.47239897                4.77004282                2.00517352
               9.89404289                4.76141658               17.89072774                0.00010000                0.17855477                0.20266369               -0.66123480                0.01238028                0.12762949                0.69199853
              10.89655596                4.70407227               17.80394283                1.00000000                0.25130712                0.32910461               -1.04630913               -0.01879700                0.05874594               -0.42260207
               1.03696636                6.30660136               18.15472303                1.00000000               -0.13737782               -0.20874053                0.64538992               -0.02487608                0.06972691                0.94491613
               2.03559258                6.23474770               18.05776235                0.00010000               -0.08900168               -0.09231390                0.29652942               -0.00347511                0.20319361               -0.42344012
               3.03518632                6.16248676               17.96342912                0.00010000               -0.43963370                0.02368400               -0.03964482                0.35538672                3.99692951               -1.75729117
               4.02679990                6.09687512               17.94232886                0.00010000               -1.06978606                0.50210142               -0.51466820                0.70671154                9.13702178                0.10867492
               5.01379060                6.03903115               17.95065222                0.00010000               -1.40016716                0.45195279               -0.30406808                1.00266373               10.75205598               -0.14330133
               5.99879656                5.98190439               17.96387116                0.00010000               -1.56091125                0.47682441               -0.19849063                0.83876987               10.96272131                0.09196846
               6.98257238                5.92537588               17.97856039                0.00010000               -1.63509569                0.44116099               -0.14810145                0.67787853               11.02998663                0.55852306
               7.96609465                5.87067903               17.99516374                0.00010000               -1.61534386                0.29575463               -0.12740773                0.64948439               11.16845275                1.16507587
               8.95026550                5.81952589               18.01444282                0.00010000               -0.75990214                0.03783767               -0.12481655                0.28361443                5.68015220                1.83951737
               9.95089660                5.76323585               17.92282765                0.00010000                0.14039748                0.16384998               -0.53403090                0.00210935                0.08851521                0.65177814
              10.95307345                5.70724772               17.83021469                1.00000000                0.21768448                0.30514375               -0.95505670               -0.01773094                0.04310645               -0.49273003
               1.10798914                7.30474045               18.13109575                0.00010000               -0.09578628               -0.16334851                0.50846979               -0.02427217                0.03115349                0.85742046
               2.10703128                7.23406108               18.02707548                0.00010000               -0.04459079               -0.04542794                0.14638194               -0.00300474                0.14908654               -0.50919426
               3.10709733                7.16297624               17.92537633                0.00010000               -0.55255525                0.07354714               -0.20931306                0.50845688                5.41578979               -1.95346298
               4.09598017                7.10158791               17.92668456                0.00010000               -1.31124402                0.47850701               -0.45808021                0.95499071               11.31853476               -0.57767647
               5.08087245                7.04429336               17.94381147                0.00010000               -1.63811561                0.60898949               -0.30598409                0.95107303               12.25066830               -0.14504911
               6.06321786                6.98748051               17.96585582                0.00010000               -1.84055246                0.65902971               -0.17764232                0.68241900               12.54184594                0.15931346
               7.04406140                6.93039030               17.99119885                0.00010000               -1.92949080                0.58500409               -0.08354128                0.39279093               12.74878470                0.55920332
               8.02462805                6.87381522               18.01974933                0.00010000               -1.89805310                0.35075686               -0.01223332                0.23756432               12.97850246                1.08614598
               9.00610033                6.81960856               18.05182366                0.00010000               -0.91323976               -0.01944332                0.04177752                0.04933316                6.57147811                1.74548885
              10.00636325                6.76469358               17.95402681                0.00010000                0.10386407                0.12358601               -0.40152903               -0.00181533                0.05372704                0.57555297
              11.00817762                6.71017514               17.85564084                0.00010000                0.18143651                0.27640281               -0.84897902               -0.01700634                0.03030447               -0.56204353
               1.17783966                8.30333439               18.10685527                0.00010000               -0.05429535               -0.11891397                0.37230495               -0.02355495                0.01310337                0.82357596
               2.17729670                8.23383914               17.99593928                0.00010000               -0.00055088                0.00088563               -0.00194069               -0.00172432                0.06665835               -0.53956151
               3.17782864                8.16395770               17.88606292                0.00010000               -0.63570528                0.12183332               -0.37703228                0.64279289                6.61164236               -1.93714181
               4.16458260                8.10644526               17.90605586                0.00010000               -1.54545899                0.55934941               -0.44336229                1.12873753               13.50033777               -0.72167782
               5.14691946                8.05121094               17.93546917                0.00010000               -1.91172969                0.79959601               -0.28745531                0.89505371               13.97805102               -0.19509207
               6.12634800                7.99508499               17.96745623                0.00010000               -2.14129850                0.84840065               -0.14712827                0.52289926               14.15162389                0.13372240
               7.10409349                7.93707597               18.00301631                0.00010000               -2.23601641                0.78806006               -0.02039432                0.11521194               14.42086492                0.45765011
               8.08162767                7.87769417               18.04307244                0.00010000               -2.18598451                0.47798504                0.09542750               -0.26391088               14.78060723                0.89952320
               9.06037380                7.81913702               18.08827981                0.00010000               -1.06669804               -0.06990689                0.20237167               -0.25681373                7.48549047                1.59123202
              10.06029371                7.76570758               17.98448726                0.00010000                0.06982029                0.07848684               -0.26826300               -0.00809550                0.02582163                0.53295154
              11.06177020                7.71277578               17.88035452                0.00010000                0.14764907                0.24204460               -0.74265869               -0.01599173                0.01646971               -0.61295687
               1.24650855                9.30236217               18.08246747                0.00010000               -0.01350646               -0.07722466                0.23840731               -0.02289776               -0.00330875                0.69475749
               2.24637348                9.23407880               17.96463791                0.00010000                0.04192561                0.04647684               -0.14814082               -0.00035455                0.07804794               -0.47424059
               3.24734706                9.16541290               17.84841076                0.00010000               -0.75358986                0.16624210               -0.53395821                0.82505276                7.88997834               -1.36113810
               4.23130169                9.11277489               17.88684462                0.00010000               -1.86066327                0.87086892               -0.44302115                0.99794066               15.58415376               -0.41840812
               5.21013380                9.06028528               17.92676617                0.00010000               -2.17454325                0.95519384               -0.28292281                0.63872038               15.58325604               -0.12613890
               6.18781082                9.00444852               17.96801737                0.00010000               -2.31886705                0.97142790               -0.12469858                0.31147112               15.68767605                0.07624786
               7.16375645                8.94615150               18.01285180                0.00010000               -2.52610259                0.94562657                0.03126581               -0.05670598               16.01195166                0.26461549
               8.13728877                8.88337492               18.06346964                0.00010000               -2.54028998                0.82747649                0.18727527               -0.56957455               16.57283425                0.52134925
               9.11295066                8.81821042               18.12249637                0.00010000               -1.23630904               -0.09823736                0.34782398               -0.65985683                8.53052986                1.06702220
              10.11256259                8.76626332               18.01470698                0.00010000                0.03853627                0.03642810               -0.13931889               -0.01790022                0.08124837                0.44926773
              11.11372138                8.71501603               17.90456320                0.00010000                0.11587908                0.20597184               -0.64075929               -0.01601435               -0.02697112               -0.53427648
               1.31394846               10.30178990               18.05558455                0.00010000                0.02904252               -0.05722734                0.10492796                0.04186860                0.37963202                0.57263191
               2.31423888               10.23476868               17.93480682                0.00010000                0.08425685                0.06898826               -0.28837625                0.06117206                0.71356655               -0.40107672
               3.31563359               10.16728254               17.82069104                0.00010000               -1.22849250                0.18696427               -0.66858228                1.28335160                9.28962963               -0.86786491
               4.28966903               10.12386264               17.87147370                0.00010000               -2.38066791                1.10877490               -0.47704050                0.98834821               17.17678572               -0.16213814
               5.26802024               10.07031482               17.91868336                0.00010000               -2.14789140                1.00295389               -0.30554744                0.32118928               16.93166272               -0.03653155
               6.24671120               10.01451355               17.96732141                0.00010000               -2.19936316                1.00650239               -0.12111853                0.17372226               17.06028503                0.07510630
               7.22403297                9.95598850               18.01969033                0.00010000               -2.42669712                0.98369991                0.06382273                0.01415951               17.43398889                0.17884352
               8.19817726                9.89424370               18.07849383                0.00010000               -2.98723565                1.08687816                0.25214583               -0.85196182               18.15482883                0.32819923
               9.16428826                9.81717228               18.14832247                0.00010000               -1.75235840               -0.10381419                0.44822737               -1.25661762                9.76650899                0.65975316
              10.16313009                9.76643614               18.04333214                0.00010000               -0.01718862                0.01728179               -0.02460824                0.04289723                0.64804615                0.38006899
              11.16394449                9.71689521               17.93064164                0.00010000                0.08143936                0.18791789               -0.53870554                0.06821829                0.27455928               -0.42971628
               0.64844847                0.35820515               19.29536891                1.00000000               -0.35464463               -0.38806824                1.35707887               -0.06998006               -0.72570557                0.76399536
               1.64490202                0.27414400               19.22743732                1.00000000               -0.29266153               -0.31094800                1.08938394               -0.05460631               -0.91562988                0.05085140
               2.64259524                0.18995965               19.15565451                1.00000000               -0.15771109               -0.23426237                0.80535823               -0.03531981               -0.85818766               -0.21125651
               3.64174780                0.10697044               19.08885955                1.00000000                0.31022965               -0.17738860                0.52994263                0.47576539                0.11377127               -0.57588111
               4.64879983                0.03598568               19.03652273                0.00010000                0.45761826               -0.06605942                0.23914201               -0.07022333                0.63575762                0.13542817
               5.65090017               -0.02614080               18.98027022                0.00010000                0.14487545                0.02400956               -0.06354263                0.00097213                0.24630201                0.07695478
               6.65169734               -0.08676715               18.92019996                0.00010000                0.05617818                0.10506603               -0.35945467                0.00880234                0.05890516               -0.05038442
               7.65202373               -0.14826594               18.86015175                0.00010000                0.06459977                0.19820045               -0.66543984                0.03793416               -0.16861993                0.05670509
               8.65298934               -0.21298801               18.79536633                1.00000000                0.18687908                0.29978564               -0.96770386                0.02457988               -0.53291600                0.42215939
               9.65576131               -0.27992693               18.72791414                1.00000000                0.34158824                0.36930134               -1.26284687               -0.04566143               -0.62701993                0.01121853
              10.65982110               -0.34710993               18.66129586                1.00000000                0.40597893                0.44950789               -1.54250444               -0.06699222               -0.59113601               -0.60942244
               0.73180982                1.35432447               19.26931639                1.00000000               -0.33311063               -0.36662499                1.23464961               -0.03105220               -0.09452367                1.03873204
               1.72847871                1.27103452               19.20096704                1.00000000               -0.29904975               -0.28846801                0.96667747               -0.01224180               -0.05856873                0.07470719
               2.72582882                1.18761702               19.13327239                1.00000000               -0.24931351               -0.21321056                0.69969922                0.03396955                0.17443297               -0.58174865
               3.72349244                1.10519655               19.06956465                1.00000000               -0.55878019               -0.16450489                0.44535555                0.67733653                1.63668698               -1.01589212
               4.71465322                1.03532508               19.03115985                0.00010000               -0.56030696                0.05913913                0.19422360               -0.08182831                2.31900657                0.93724509
               5.71228630                0.97409929               18.98113756                0.00010000               -0.09026417                0.08784568               -0.08586869                0.19782905                1.50899574                0.36220315
               6.71284794                0.91428351               18.92655380                0.00010000                0.16136005                0.04285032               -0.36385338                0.23509668                1.38349837               -0.38536424
               7.71551350                0.85371606               18.87416602                0.00010000                0.31088457                0.19410128               -0.63016585                0.29544422                1.35659078                0.58687902
               8.71906563                0.79000984               18.81937119                1.00000000                0.34260781                0.28135343               -0.89656025                0.12926211                0.69398839                0.60318706
               9.72236566                0.72376609               18.75400859                1.00000000                0.36342808                0.35757444               -1.17401547                0.00057782                0.09833652                0.08555679
              10.72633419                0.65738514               18.68738480                1.00000000                0.39685291                0.43104942               -1.45298219               -0.02277181                0.03105460               -0.72279429
               0.81440732                2.35087265               19.24869326                1.00000000               -0.30426871               -0.33126600                1.12693882               -0.02276062                0.03748933                1.32491686
               1.81136463                2.26837464               19.17492518                1.00000000               -0.26473593               -0.25068536                0.84718002                0.00447933                0.15592896                0.04944428
               2.80911260                2.18569544               19.10344673                1.00000000               -0.18890783               -0.18314919                0.56715002                0.07725931                0.74264898               -1.24972589
               3.80758647                2.10368034               19.04138898                0.00010000               -1.54260373               -0.14350149                0.30831846                0.95485397                4.32916798               -1.83973976
               4.77826052                2.03716846               19.04177521                0.00010000               -1.58440766                0.18159297                0.16084399                1.84129730                4.70579123               -1.21900819
               5.77589832                1.97561611               18.98767469                0.00010000               -0.07390084               -0.05341124               -0.10688532                1.59873383                1.61622493               -0.46420977
               6.77678251                1.91408986               18.92621543                0.00010000                0.31539798               -0.15752457               -0.36556388                1.38169401                2.94179570                0.20634011
               7.78220628                1.85561608               18.89881576                0.00010000                0.43710226               -0.10986452               -0.59825474                0.95814543                3.36989984                0.68892038
               8.78552455                1.79263906               18.84708994                0.00010000                0.30956443                0.27386854               -0.80778338                0.22805116                1.46155313                1.17440318
               9.78839757                1.72722456               18.78168691                1.00000000                0.33014999                0.34434336               -1.07966352                0.03810867                0.52883384                0.51716612
              10.79212755                1.66151105               18.71131169                1.00000000                0.37299835                0.39914887               -1.37580472               -0.01113862                0.27825133               -0.73105786
               0.89635062                3.34769915               19.22832413                1.00000000               -0.26051114               -0.30740688                1.01686094               -0.01514490                0.04722733                1.30234924
               1.89374551                3.26602081               19.14792260                1.00000000               -0.21411565               -0.22043295                0.72185619                0.00894939                0.05887621               -0.03594160
               2.89206831                3.18395404               19.06770578                1.00000000               -0.13145065               -0.14340211                0.42810278                0.05837842                0.97179438               -1.48044790
               3.89111650                3.10232652               19.00557499                0.00010000               -0.62624580               -0.09989004                0.14158102                1.04036592                4.32579670               -2.29693548
               4.87954339                3.03895694               18.99336600                0.00010000               -1.18884580                0.10278575                0.00948399                2.66013947                6.35222527               -2.93211300
               5.86733958                2.97303107               18.97200939                0.00010000               -0.95307740               -0.04188541               -0.13923279                2.26265397                5.55344718               -1.22738802
               6.86048184                2.91113302               18.94411870                0.00010000               -0.56061856               -0.11621462               -0.30683866                1.95859518                5.13225265                0.64746196
               7.85612721                2.85151877               18.91490946                0.00010000               -0.42318378               -0.17248229               -0.48313171                1.47073504                4.88184104                0.73951730
               8.85201817                2.79548722               18.88255299                0.00010000               -0.09356876                0.25491679               -0.68529852                0.56797553                3.00596122                2.18103114
               9.85425584                2.73065296               18.81648223                1.00000000                0.27601324                0.31319847               -0.95118561                0.04199433                0.66463452                0.83124273
              10.85753843                2.66536812               18.73725855                1.00000000                0.32825987                0.38067752               -1.28632457               -0.01974243                0.00859800               -0.51931651
               0.97746109                4.34472451               19.20721491                1.00000000               -0.21723608               -0.28315820                0.89741869               -0.01919269                0.05367708                1.20578042
               1.97528872                4.26396598               19.12014722                1.00000000               -0.17433134               -0.18384666                0.59152952                0.00350147                0.06362696               -0.10981987
               2.97397446                4.18282739               19.03323370                0.00010000               -0.09489171               -0.08471615                0.29526889                0.02475824                1.12509274               -1.34607231
               3.97339089                4.10168254               18.96739065                0.00010000               -0.66078459                0.10738584               -0.02789351                0.82581614                5.57159506               -1.63935730
               4.96075877                4.03922417               18.97001519                0.00010000               -1.22077834                0.11703653               -0.11952057                1.57457659                8.51610079               -1.23164277
               5.94897532                3.97477840               18.96365332                0.00010000               -1.16460289                0.21853156               -0.17492876                1.46394818                7.80424773               -0.58692019
               6.93746671                3.91176556               18.95293280                0.00010000               -1.08542698                0.17015413               -0.26076908                1.33586662                7.46056521                0.30125670
               7.92726678                3.85216644               18.94062834                0.00010000               -0.98584151                0.14610048               -0.37199333                1.27430355                7.44212557                1.27120898
               8.91774988                3.79773739               18.93048197                0.00010000               -0.39551177                0.17855215               -0.50207373                0.57794825                4.01965627                2.51940911
               9.91935655                3.73348853               18.85055888                1.00000000                0.22762457                0.25559569               -0.81909627                0.02357423                0.27427224                0.76584986
              10.92230237                3.66912460               18.76535044                1.00000000                0.29458216                0.36297693               -1.17417883               -0.01783125                0.01600069               -0.40575768
               1.05748383                5.34203598               19.18486614                1.00000000               -0.17711703               -0.24798481                0.76912228               -0.02370272                0.11128451                1.07732089
               2.05571266                5.26234388               19.09163010                0.00010000               -0.13184559               -0.13852846                0.44367887               -0.00230412                0.20204718               -0.26570587
               3.05484692                5.18225972               19.00016210                0.20735710               -0.22383087               -0.03013167                0.12944888                0.13870302                2.09082166               -1.47896609
               4.05123604                5.10447424               18.94469536                0.00010000               -0.84539277                0.38819456               -0.37560810                0.60216178                7.25655819               -0.18917719
               5.03793906                5.04129767               18.95599596                0.00010000               -1.35794420                0.29801154               -0.23710958                1.22814811               10.19875529               -0.48664315
               6.02407716                4.97740170               18.96100307                0.00010000               -1.40639581                0.33750771               -0.19947090                1.03173313                9.71380441               -0.12646750
               7.00981114                4.91453610               18.96415506                0.00010000               -1.42178520                0.33519889               -0.21186179                0.93812459                9.55965087                0.50539674
               7.99564145                4.85444078               18.96747641                0.00010000               -1.37780529                0.25535430               -0.25557930                0.95622251                9.61659388                1.30138971
               8.98225504                4.79905826               18.97300235                0.00010000               -0.61506719                0.09885178               -0.31668649                0.44528791                4.95181031                2.12157447
               9.98334011                4.73576487               18.88406806                0.00010000                0.18273134                0.20804482               -0.67849085                0.01064254                0.14733652                0.73397628
              10.98590966                4.67262766               18.79341611                1.00000000                0.25695570                0.33792114               -1.06747872               -0.01750320                0.06809053               -0.44117889
               1.13637123                6.33976481               19.16112105                1.00000000               -0.13523275               -0.20433847                0.63404977               -0.02458319                0.07008253                0.94909946
               2.13501891                6.26119541               19.06070577                0.00010000               -0.08765375               -0.09127890                0.29208548               -0.00301646                0.20993391               -0.44743189
               3.13461816                6.18222476               18.96304354                0.00010000               -0.43113685                0.02164883               -0.03748957                0.33321008                3.92874933               -1.81307717
               4.12639617                6.10944643               18.93699793                0.00010000               -1.11119462                0.49498883               -0.54334681                0.67897652                9.36167209                0.16113119
               5.11239427                6.04518440               18.94757543                0.00010000               -1.50123065                0.47104630               -0.30972528                0.99466780               11.28465847               -0.12003583
               6.09637156                5.98152856               18.96185731                0.00010000               -1.66020737                0.50020305               -0.20381142                0.80830551               11.41831213                0.13041620
               7.07919012                5.91846954               18.97704667                0.00010000               -1.72512406                0.45940070               -0.15530759                0.63116578               11.45487254                0.61898861
               8.06186908                5.85727352               18.99383466                0.00010000               -1.69292858                0.30496369               -0.13963119                0.59334209               11.58226493                1.24959360
               9.04533155                5.79971443               19.01310616                0.00010000               -0.79345397                0.03762255               -0.14462388                0.25157695                5.89433220                1.94511650
              10.04600000                5.73764943               18.91739888                0.00010000                0.14475872                0.16966158               -0.55313858                0.00302549                0.09479790                0.69009863
              11.04822672                5.67588303               18.82058121                1.00000000                0.22267259                0.31310784               -0.97286021               -0.01651454                0.04485923               -0.51181341
               1.21413097                7.33794921               19.13612705                0.00010000               -0.09385866               -0.15903300                0.49759377               -0.02386903                0.03102001                0.86081125
               2.21319238                7.26051830               19.02852317                0.00010000               -0.04354351               -0.04464240                0.14297785               -0.00230638                0.15219370               -0.53051764
               3.21326010                7.18269269               18.92330285                0.00010000               -0.56682285                0.07103763               -0.20569130                0.49974266                5.46045419               -2.00731607
               4.20185593                7.11437402               18.92186259                0.00010000               -1.37549051                0.50584927               -0.50284700                0.92417980               11.64191584               -0.45387884
               5.18575029                7.05071860               18.94066209                0.00010000               -1.74488979                0.64296117               -0.32183349                0.93400837               12.78715779               -0.08104929
               6.16695813                6.98740576               18.96403681                0.00010000               -1.95303970                0.69568144               -0.18595893                0.64244479               13.05465138                0.21071755
               7.14668949                6.92372411               18.99031887                0.00010000               -2.03473617                0.61517920               -0.09319996                0.33235091               13.24496394                0.61830701
               8.12626341                6.86054005               19.01955745                0.00010000               -1.98894121                0.36794379               -0.02747323                0.16560435               13.46882875                1.16251536
               9.10691067                6.79981071               19.05212851                0.00010000               -0.95156938               -0.01679914                0.01777326                0.00883903                6.82146986                1.84289121
              10.10723202                6.73915810               18.94990218                0.00010000                0.11007534                0.12911473               -0.42428471               -0.00158236                0.05653956                0.61692794
              11.10911218                6.67888982               18.84704202                0.00010000                0.18801588                0.28522475               -0.87120511               -0.01590464                0.03177157               -0.57406914
               1.29075567                8.33658415               19.11052972                0.00010000               -0.05263762               -0.11518717                0.36232385               -0.02313524                0.01275029                0.82846219
               2.29022930                8.26030256               18.99591176                0.00010000                0.00008121                0.00133335               -0.00394329               -0.00104782                0.06606954               -0.55826162
               3.29075730                8.18364551               18.88232502                0.00010000               -0.66877188                0.11883582               -0.37124222                0.65371005                6.75403196               -1.98285956
               4.27685386                8.11956342               18.90147336                0.00010000               -1.63573052                0.59542823               -0.47186443                1.12709930               13.92897248               -0.62117164
               5.25804269                8.05804363               18.93251756                0.00010000               -2.03194624                0.84630925               -0.30210579                0.88253483               14.53515966               -0.12863873
               6.23621494                7.99544219               18.96593555                0.00010000               -2.26699222                0.89704239               -0.15715803                0.48281577               14.70728634                0.18123496
               7.21270284                7.93077313               19.00275717                0.00010000               -2.35601840                0.83268065               -0.03235911                0.04915966               14.97936373                0.50541900
               8.18909457                7.86463240               19.04394045                0.00010000               -2.29062811                0.50605154                0.07678313               -0.35198056               15.34477500                0.96100347
               9.16689028                7.79937845               19.09016442                0.00010000               -1.11026635               -0.06415409                0.17301206               -0.30854298                7.77467024                1.67787778
              10.16688924                7.74023172               18.98167096                0.00010000                0.07774568                0.08551577               -0.29586085               -0.00867673                0.02822815                0.57163203
              11.16844520                7.68158752               18.87279569                0.00010000                0.15559548                0.25207603               -0.76930644               -0.01475805                0.01735162               -0.62753118
               1.36623145                9.33564547               19.08480847                0.00010000               -0.01213774               -0.07417630                0.22943414               -0.02254490               -0.00435553                0.70112163
               2.36611007                9.26054497               18.96315725                0.00010000                0.04210014                0.04655228               -0.14857663                0.00006222                0.07771891               -0.48850697
               3.36707345                9.18506941               18.84311732                0.00010000               -0.80551360                0.16320211               -0.52569440                0.85828624                8.12170548               -1.38954391
               4.34999980                9.12628258               18.88236294                0.00010000               -1.97756169                0.92006011               -0.45321791                1.01612752               16.10732649               -0.34800736
               5.32752221                9.06764478               18.92388889                0.00010000               -2.30574239                1.00885905               -0.29265842                0.63569760               16.16667046               -0.08736479
               6.30388495                9.00534661               18.96672225                0.00010000               -2.45198693                1.02754367               -0.13494227                0.28531185               16.28822079                0.10359934
               7.27848248                8.94037773               19.01309983                0.00010000               -2.66332367                1.00255948                0.01724865               -0.10683923               16.62896787                0.29060875
               8.25061847                8.87066109               19.06524086                0.00010000               -2.66709952                0.88106861                0.16561268               -0.64942536               17.20905330                0.55717854
               9.22514049                8.79852763               19.12580715                0.00010000               -1.28845338               -0.08809201                0.31259769               -0.72550882                8.86436347                1.12399125
              10.22484941                8.74086842               19.01315171                0.00010000                0.04824667                0.04586589               -0.17272742               -0.01959369                0.08843253                0.47836920
              11.22610542                8.68393134               18.89799552                0.00010000                0.12560119                0.21668094               -0.67288259               -0.01473419               -0.02669424               -0.55166302
               1.44050578               10.33510063               19.05659642                0.00010000                0.03008255               -0.05448405                0.09692810                0.04073131                0.38321122                0.57945459
               2.44080660               10.26123361               18.93193160                0.00010000                0.08398178                0.06886408               -0.28745587                0.06009980                0.72403960               -0.41198741
               3.44218541               10.18690955               18.81405865                0.00010000               -1.31027825                0.18401453               -0.65900853                1.34774690                9.58796752               -0.88470599
               4.41460104               10.13796462               18.86669888                0.00010000               -2.52464005                1.16820379               -0.47848113                1.02568693               17.78163449               -0.12144414
               5.39169261               10.07822081               18.91559415                0.00010000               -2.27064046                1.05760261               -0.31286685                0.31846186               17.55893843               -0.02035611
               6.36918823               10.01599306               18.96606198                0.00010000               -2.32205141                1.06464509               -0.13164826                0.16050335               17.71437176                0.08537994
               7.34525158                9.95082431               19.02025432                0.00010000               -2.56160338                1.04465871                0.04780687               -0.01005366               18.10677837                0.18856951
               8.31795616                9.88225377               19.08089740                0.00010000               -3.15394043                1.15926855                0.22737786               -0.92661682               18.84793035                0.34368221
               9.28217277                9.79761661               19.15260647                0.00010000               -1.84312521               -0.09110223                0.40691881               -1.35200749               10.15152225                0.69501950
              10.28109366                9.74114904               19.04289147                0.00010000               -0.00740535                0.02806255               -0.06444435                0.03965179                0.68288505                0.40236478
              11.28202467                9.68592114               18.92506085                0.00010000                0.09310112                0.19898030               -0.57735896                0.06913488                0.28887657               -0.44737446
               0.71034528                0.39262274               20.30887608                1.00000000               -0.35297753               -0.38522047                1.34568336               -0.06834630               -0.74826416                0.78582322
               1.70681551                0.30174679               20.23828940                1.00000000               -0.29245811               -0.30818926                1.08172848               -0.05254390               -0.94871308                0.05296892
               2.70449612                0.21072183               20.16367062                1.00000000               -0.15862306               -0.23284620                0.80055257               -0.03485530               -0.89863839               -0.21204117
               3.70364305                0.12082520               20.09412490                1.00000000                0.30984888               -0.17763693                0.53059694                0.47500655                0.06973006               -0.58604058
               4.71069310                0.04294659               20.03889392                0.00010000                0.45590762               -0.06242515                0.23584295               -0.07394916                0.58673675                0.14210887
               5.71276120               -0.02610185               19.97963809                0.00010000                0.14427307                0.02565245               -0.06180232                0.00015794                0.19522334                0.08323643
               6.71357856               -0.09362599               19.91663824                0.00010000                0.06126977                0.10468202               -0.35255884                0.00876779                0.00565142               -0.05444073
               7.71398660               -0.16186307               19.85355635                0.00010000                0.07169979                0.19661488               -0.65366166                0.03438872               -0.22559238                0.06248915
               8.71501256               -0.23307278               19.78576952                1.00000000                0.18876244                0.29513575               -0.95187041                0.02076446               -0.58464711                0.43326575
               9.71776184               -0.30636207               19.71538371                1.00000000                0.33760230                0.36447130               -1.24352248               -0.04451132               -0.66720350                0.00980751
              10.72176460               -0.37989740               19.64598665                1.00000000                0.40027588                0.44434694               -1.51976781               -0.06427589               -0.62328037               -0.64020365
               0.80053777                1.38877053               20.28160460                1.00000000               -0.32972468               -0.36462695                1.22349062               -0.02935407               -0.09833278                1.06697581
               1.79724052                1.29866490               20.21059643                1.00000000               -0.29647027               -0.28661523                0.95971908               -0.01034717               -0.06075921                0.07888012
               2.79460837                1.20839337               20.14028241                1.00000000               -0.24798945               -0.21244849                0.69731538                0.03340254                0.17938368               -0.59625482
               3.79228073                1.11904883               20.07403661                1.00000000               -0.55956179               -0.17168182                0.43471198                0.68176998                1.65133581               -1.05043356
               4.78341713                1.04232233               20.03306848                0.00010000               -0.56158327                0.06140024                0.18502705               -0.09142281                2.32216326                0.94594984
               5.78104907                0.97415468               19.98026232                0.00010000               -0.09351404                0.08900664               -0.09029163                0.18537691                1.50395554                0.36830819
               6.78154685                0.90742083               19.92291849                0.00010000                0.15024026                0.04969557               -0.36359415                0.22617955                1.38699272               -0.38768541
               7.78405387                0.84010308               19.86788887                0.00010000                0.29614273                0.19265393               -0.62575141                0.27387702                1.36672887                0.59076777
               8.78746970                0.76987858               19.81044623                1.00000000                0.33375828                0.27826295               -0.88881732                0.12034615                0.69894938                0.62304683
               9.79072904                0.69728264               19.74232598                1.00000000                0.35937338                0.35343194               -1.16300246                0.00086651                0.09738297                0.08706023
              10.79465717                0.62454607               19.67293055                1.00000000                0.39281304                0.42798562               -1.43852298               -0.02067662                0.02976750               -0.75937638
               0.88996948                2.38533020               20.25990512                1.00000000               -0.29837467               -0.33022619                1.11537142               -0.02210990                0.04049684                1.35803636
               1.88698573                2.29601448               20.18336459                1.00000000               -0.25946178               -0.24987974                0.83968438                0.00278855                0.16295001                0.05249239
               2.88478024                2.20647286               20.10916254                1.00000000               -0.18181253               -0.18082715                0.57738913                0.06174393                0.77148290               -1.28388272
               3.88334948                2.11739156               20.04470089                0.00010000               -1.55107249               -0.12933208                0.33660899                0.93076628                4.42546111               -1.94319839
               4.85375879                2.04417459               20.04324378                0.00010000               -1.59896169                0.17502216                0.13288032                1.81544573                4.79725189               -1.25094042
               5.85137025                1.97567829               19.98655794                0.00010000               -0.08025226               -0.06054146               -0.11725605                1.56266287                1.66235376               -0.46094813
               6.85215375                1.90736792               19.92254276                0.00010000                0.28180680               -0.15750256               -0.36823324                1.33712296                3.00110235                0.23632407
               7.85700638                1.84199001               19.89281970                0.00010000                0.40430858               -0.11122000               -0.60250194                0.92215234                3.45578859                0.73506171
               8.86023992                1.77249248               19.83901032                1.00000000                0.30526491                0.27107938               -0.80865571                0.21069524                1.52746092                1.22026314
               9.86311168                1.70070657               19.77090723                1.00000000                0.32921460                0.33972189               -1.07697127                0.03343668                0.55203177                0.53849617
              10.86682421                1.62866232               19.69758961                1.00000000                0.37125300                0.40058387               -1.36945079               -0.01070972                0.28968879               -0.76739424
               0.97872700                3.38216601               20.23843706                1.00000000               -0.25733694               -0.30592842                1.00523581               -0.01637131                0.05227181                1.32842057
               1.97615363                3.29366730               20.15511916                1.00000000               -0.21304175               -0.21892045                0.71688061                0.00578225                0.06459514               -0.03900386
               2.97446617                3.20477682               20.07197567                1.00000000               -0.14796521               -0.13970349                0.42727704                0.05964001                0.98379804               -1.51175324
               3.97319433                3.11646218               20.00704275                0.00010000               -0.65134254               -0.06943246                0.15623167                1.00056285                4.47366672               -2.46703719
               4.96143932                3.04582278               19.99338238                0.00010000               -1.20426647                0.08516109                0.00451800                2.60848626                6.53578027               -3.00182446
               5.94910900                2.97294385               19.97057832                0.00010000               -0.97308681               -0.05414031               -0.14546292                2.21584709                5.71921034               -1.22231102
               6.94197758                2.90427078               19.94102798                0.00010000               -0.58683211               -0.12876551               -0.31162689                1.90428168                5.28363341                0.70672024
               7.93737236                2.83787868               19.91005395                0.00010000               -0.45052652               -0.17605942               -0.48854479                1.43501462                5.01866778                0.82919090
               8.93296705                2.77530017               19.87566031                0.00010000               -0.10722096                0.24547510               -0.69382018                0.53775192                3.10529024                2.27427692
               9.93522794                2.70407708               19.80694237                1.00000000                0.27822157                0.31035884               -0.95827021                0.03161705                0.69983088                0.86935601
              10.93853148                2.63255775               19.72438504                1.00000000                0.33035435                0.38652984               -1.28994677               -0.01826057                0.01013745               -0.54016323
               1.06663947                4.37921163               20.21613423                1.00000000               -0.21489078               -0.28052337                0.88609962               -0.02004996                0.06233363                1.22178795
               2.06449056                4.29163607               20.12603998                1.00000000               -0.17306549               -0.18163036                0.58638776                0.00223445                0.07753185               -0.12416109
               3.06317816                4.20367879               20.03619829                0.00010000               -0.10878881               -0.08317170                0.29650263                0.03844262                1.13813808               -1.38508607
               4.06231478                4.11600291               19.96731372                0.00010000               -0.68656523                0.08464321               -0.01484084                0.83461675                5.70621475               -1.87141583
               5.04944685                4.04587781               19.96880791                0.00010000               -1.25377967                0.10692090               -0.11586489                1.53345466                8.76467492               -1.28488638
               6.03723919                3.97459548               19.96188915                0.00010000               -1.20711536                0.21334185               -0.17699762                1.43549889                8.06814364               -0.57674456
               7.02530455                3.90479261               19.95030010                0.00010000               -1.12809541                0.16451853               -0.26595740                1.29469486                7.70319403                0.35795849
               8.01467728                3.83846882               19.93686927                0.00010000               -1.02539942                0.14214558               -0.38086348                1.22549839                7.67070824                1.36165742
               9.00479656                3.77740198               19.92538783                0.00010000               -0.40954222                0.16794691               -0.51946192                0.54536494                4.15492484                2.64457790
              10.00648644                3.70691375               19.84224331                1.00000000                0.23505511                0.25895153               -0.84244786                0.01694284                0.30057853                0.81340107
              11.00949766                3.63639291               19.75350077                1.00000000                0.30112221                0.37300819               -1.19391752               -0.01757338                0.02646642               -0.41746795
               1.15347712                5.37655554               20.19249989                1.00000000               -0.17459523               -0.24445949                0.75743790               -0.02413011                0.11461970                1.08509724
               2.15173116                5.29003469               20.09604432                0.00010000               -0.13044649               -0.13650428                0.43869077               -0.00319724                0.21122000               -0.28982715
               3.15086819                5.20311339               20.00146956                0.21125311               -0.20217605               -0.02971630                0.13154244                0.12056733                2.01993556               -1.53440307
               4.14768764                5.11815505               19.94118394                0.00010000               -0.86761721                0.34638042               -0.34558330                0.60172366                7.41015168               -0.39019626
               5.13351584                5.04796120               19.95364220                0.00010000               -1.43917293                0.30432419               -0.23184782                1.21165886               10.61511580               -0.51886858
               6.11890418                4.97721069               19.95899600                0.00010000               -1.47588536                0.34417457               -0.20138859                1.00261639               10.07556058               -0.10317287
               7.10399813                4.90756115               19.96200699                0.00010000               -1.48156165                0.33996193               -0.21821203                0.89494187                9.89299570                0.56592905
               8.08927295                4.84072159               19.96486657                0.00010000               -1.42843534                0.25605217               -0.26763263                0.90505681                9.93782694                1.39335712
               9.07542943                4.77865911               19.96974466                0.00010000               -0.63485423                0.09500397               -0.33785572                0.41629432                5.12792874                2.24131843
              10.07657587                4.70925611               19.87715792                0.00010000                0.18961267                0.21449821               -0.70406713                0.00949389                0.16294320                0.78431439
              11.07922168                4.64001791               19.78259325                1.00000000                0.26458151                0.34963121               -1.09416419               -0.01840438                0.07093138               -0.45338071
               1.23919856                6.37432244               20.16740403                1.00000000               -0.13297957               -0.20037640                0.62237263               -0.02463529                0.07010910                0.95257098
               2.23786877                6.28890599               20.06360406                0.00010000               -0.08647062               -0.08949751                0.28744198               -0.00348917                0.21619293               -0.47127765
               3.23746915                6.20308446               19.96267933                0.00010000               -0.41836571                0.02175228               -0.03551123                0.30616667                3.84536787               -1.86770957
               4.22950145                6.12293052               19.93146193                0.00010000               -1.14223778                0.49399283               -0.55992891                0.63257199                9.57269227                0.16611330
               5.21462439                6.05196430               19.94445772                0.00010000               -1.59049420                0.48845248               -0.31276923                0.97369943               11.81538020               -0.10382940
               6.19769157                5.98147897               19.95979494                0.00010000               -1.74659596                0.52029653               -0.20824813                0.76887403               11.86506150                0.17065902
               7.17969248                5.91159185               19.97545424                0.00010000               -1.80055547                0.47423941               -0.16380500                0.57764001               11.87075604                0.68277901
               8.16168046                5.84358987               19.99237112                0.00010000               -1.75522741                0.31190699               -0.15450560                0.53161238               11.98631362                1.33725514
               9.14458793                5.77930206               20.01155034                0.00010000               -0.81814759                0.03745062               -0.16853593                0.21847104                6.10447902                2.05298998
              10.14531751                5.71120371               19.91176488                0.00010000                0.15090204                0.17519755               -0.57579722                0.00440692                0.10228774                0.73348851
              11.14760597                5.64338554               19.81075749                1.00000000                0.22884604                0.32306824               -0.99357576               -0.01623329                0.04764719               -0.52337789
               1.32381731                7.37254801               20.14104762                0.00010000               -0.09179562               -0.15501101                0.48634265               -0.02372647                0.03078171                0.86396262
               2.32289936                7.28824474               20.02993503                0.00010000               -0.04251612               -0.04330783                0.13916244               -0.00227774                0.15493010               -0.55121316
               3.32296699                7.20354844               19.92126250                0.00010000               -0.57200532                0.07007890               -0.20267911                0.48343460                5.47875255               -2.05918811
               4.31145925                7.12803491               19.91662762                0.00010000               -1.42628061                0.52954823               -0.53809539                0.88249298               11.94592514               -0.33111631
               5.29444138                7.05773025               19.93737480                0.00010000               -1.84025675                0.67235375               -0.33327767                0.90588843               13.33004223               -0.01973449
               6.27465411                6.98761662               19.96213664                0.00010000               -2.05006696                0.72726406               -0.19374572                0.59391188               13.56117354                0.26293318
               7.25344004                6.91704593               19.98933485                0.00010000               -2.12295666                0.64057691               -0.10434617                0.26632539               13.73135394                0.67959551
               8.23219498                6.84695973               20.01919987                0.00010000               -2.06275166                0.38204800               -0.04547841                0.08988261               13.94831960                1.24115240
               9.21218500                6.77940812               20.05217913                0.00010000               -0.98072260               -0.01430631               -0.00951491               -0.03254499                7.06685162                1.94153944
              10.21258053                6.71276006               19.94554112                0.00010000                0.11741779                0.13434877               -0.44919794               -0.00096707                0.05996215                0.65971379
              11.21453336                6.64647928               19.83821674                0.00010000                0.19528315                0.29430600               -0.89412647               -0.01498835                0.03304866               -0.58420421
               1.40733057                8.37122222               20.11410175                0.00010000               -0.05077841               -0.11150552                0.35180096               -0.02290981                0.01238988                0.83330442
               2.40682279                8.28803983               19.99586042                0.00010000                0.00085533                0.00220362               -0.00668587               -0.00082604                0.06530655               -0.57618852
               3.40734768                8.20448604               19.87863808                0.00010000               -0.69266433                0.11699758               -0.36665371                0.65450691                6.87613188               -2.02637612
               4.39296950                8.13352148               19.89661857                0.00010000               -1.70936137                0.62771588               -0.49544317                1.10713651               14.33810049               -0.50378476
               5.37316045                8.06541137               19.92942706                0.00010000               -2.13576926                0.88655763               -0.31431251                0.85846427               15.09116681               -0.05882113
               6.35025412                7.99602425               19.96431307                0.00010000               -2.37422939                0.93887365               -0.16719843                0.43510969               15.25548259                0.22978044
               7.32567587                7.92440338               20.00236913                0.00010000               -2.45690952                0.87102965               -0.04609874               -0.02081325               15.52708878                0.55458401
               8.30111593                7.85123083               20.04460810                0.00010000               -2.37695833                0.53009049                0.05527870               -0.44099574               15.89628100                1.02431249
               9.27813670                7.77901594               20.09174005                0.00010000               -1.14444613               -0.05799617                0.14032332               -0.35990334                8.05806923                1.76469027
              10.27822700                7.71389069               19.97857004                0.00010000                0.08655347                0.09250633               -0.32537178               -0.00909660                0.03116928                0.61097987
              11.27986777                7.64927166               19.86496839                0.00010000                0.16407631                0.26191690               -0.79626674               -0.01357689                0.01825400               -0.64050133
               1.48972389                9.37031790               20.08705615                0.00010000               -0.01048777               -0.07095607                0.21969335               -0.02232138               -0.00530420                0.70739866
               2.48961901                9.28828882               19.96166637                0.00010000                0.04257934                0.04701949               -0.15012339                0.00025670                0.07749993               -0.50206085
               3.49057548                9.20588839               19.83789687                0.00010000               -0.84711815                0.16098582               -0.51914127                0.87891958                8.34061047               -1.41625799
               4.47267665                9.14058922               19.87778026                0.00010000               -2.07337920                0.96201979               -0.46188774                1.01848692               16.61280200               -0.26494285
               5.44910789                9.07546140               19.92091300                0.00010000               -2.41561773                1.05429040               -0.30187825                0.62401612               16.74076588               -0.04527416
               6.42436430                9.00639409               19.96531852                0.00010000               -2.56453477                1.07587217               -0.14607211                0.25447393               16.87828672                0.13172912
               7.39781720                8.93446653               20.01319678                0.00010000               -2.78008906                1.05237636                0.00118582               -0.15876456               17.23376227                0.31724981
               8.36876251                8.85756154               20.06678190                0.00010000               -2.77450593                0.92867253                0.14129908               -0.72752701               17.83031074                0.59450588
               9.34232708                8.77824819               20.12874832                0.00010000               -1.33098190               -0.07709504                0.27374996               -0.78817101                9.19058446                1.18103369
              10.34214288                8.71461019               20.01125243                0.00010000                0.05863999                0.05566123               -0.20817035               -0.02120822                0.09613344                0.50763291
              11.34349988                8.65171762               19.89110555                0.00010000                0.13570032                0.22727035               -0.70511505               -0.01348227               -0.02615530               -0.56837432
               1.57094232               10.36980310               20.05752312                0.00010000                0.03151181               -0.05148047                0.08786276                0.03955538                0.38686580                0.58615212
               2.57125744               10.28898022               19.92905770                0.00010000                0.08416720                0.06914064               -0.28800881                0.05897559                0.73440500               -0.42233678
               3.57262566               10.20770576               19.80751087                0.00010000               -1.37456039                0.18173706               -0.65142506                1.39410154                9.87650261               -0.90053312
               4.54376623               10.15276188               19.86190408                0.00010000               -2.63948778                1.21726557               -0.48041511                1.04852918               18.36957296               -0.07326779
               5.51983591               10.08649718               19.91242603                0.00010000               -2.37138820                1.10357815               -0.32075417                0.31179242               18.17256076               -0.00260618
               6.49633847               10.01754170               19.96468845                0.00010000               -2.42513952                1.11476067               -0.14365396                0.14510377               18.35537011                0.09569960
               7.47133312                9.94545091               20.02064647                0.00010000               -2.67773738                1.09843844                0.02956261               -0.03527883               18.76519658                0.19815936
               8.44278372                9.86980428               20.08304139                0.00010000               -3.30042432                1.22427340                0.20033988               -0.99672327               19.52297708                0.35965121
               9.40532463                9.77747404               20.15646084                0.00010000               -1.92251510               -0.07741592                0.36211096               -1.44026311               10.52697985                0.73047184
              10.40433342                9.71500391               20.04204326                0.00010000                0.00293172                0.03937207               -0.10617142                0.03620558                0.71788390                0.42469155
              11.40538327                9.65381706               19.91909446                0.00010000                0.10498491                0.20994470               -0.61574713                0.06965414                0.30332401               -0.46486257
               0.77465654                0.42846457               21.32228257                1.00000000               -0.35233221               -0.38296267                1.33680726               -0.06722926               -0.76891087                0.80454283
               1.77113322                0.33058932               21.24907189                1.00000000               -0.29347864               -0.30523912                1.07499741               -0.05321645               -0.97776323                0.05593254
               2.76878697                0.23249525               21.17166556                1.00000000               -0.16070582               -0.22952407                0.79822102               -0.03922175               -0.92857553               -0.21005217
               3.76791911                0.13542620               21.09947149                1.00000000                0.31172037               -0.18143083                0.53557786                0.48057260                0.02893906               -0.60708636
               4.77502138                0.05047874               21.04123959                0.00010000                0.45706010               -0.05845243                0.23314183               -0.07259795                0.52844285                0.15287741
               5.77706031               -0.02572454               20.97903418                0.00010000                0.14353660                0.02701511               -0.05881901                0.00074993                0.14429111                0.08911992
               6.77789211               -0.10041645               20.91314879                0.00010000                0.06601486                0.10417411               -0.34523406                0.00907909               -0.04685315               -0.05819559
               7.77838061               -0.17568121               20.84707852                0.00010000                0.07884604                0.19492811               -0.64211635                0.03098949               -0.28166310                0.06853386
               8.77946903               -0.25367612               20.77632892                1.00000000                0.19097514                0.29061056               -0.93669534                0.01714198               -0.63592036                0.44462661
               9.78220011               -0.33361532               20.70304369                1.00000000                0.33402870                0.35990901               -1.22506421               -0.04339401               -0.70711058                0.00873007
              10.78614961               -0.41380179               20.63090050                1.00000000                0.39494979                0.43964504               -1.49825374               -0.06156661               -0.65505431               -0.67017819
               0.87185950                1.42463495               21.29378620                1.00000000               -0.32737829               -0.36318277                1.21390471               -0.02771377               -0.10232733                1.09222024
               1.86858572                1.32753693               21.22016143                1.00000000               -0.29415947               -0.28437831                0.95343313               -0.01009765               -0.06613541                0.08197149
               2.86597631                1.23020001               21.14721870                1.00000000               -0.24263157               -0.20853632                0.68714595                0.02469783                0.16904695               -0.59497719
               3.86373309                1.13361190               21.07825889                1.00000000               -0.55527704               -0.18079852                0.41050904                0.68947737                1.65299754               -1.05311688
               4.85487077                1.04989421               21.03486039                0.00010000               -0.56088434                0.06785057                0.17295650               -0.08695777                2.33128535                0.95315979
               5.85251540                0.97454561               20.97933172                0.00010000               -0.09547672                0.09028454               -0.09587993                0.17585960                1.50087655                0.37518797
               6.85296124                0.90062529               20.91928192                0.00010000                0.14024662                0.05616464               -0.36369064                0.21865702                1.39103996               -0.38710601
               7.85532033                0.82626807               20.86165099                0.00010000                0.28231336                0.19167281               -0.62207245                0.25392910                1.37671383                0.59382660
               8.85860751                0.74922998               20.80159484                1.00000000                0.32543348                0.27531829               -0.88182683                0.11164517                0.70367027                0.64299371
               9.86182900                0.66998377               20.73074854                1.00000000                0.35564528                0.34967130               -1.15305752                0.00117361                0.09617116                0.08906883
              10.86572041                0.59059466               20.65861434                1.00000000                0.38914072                0.42552321               -1.42549696               -0.01856290                0.02830446               -0.79487703
               0.96829830                2.42120092               21.27100069                1.00000000               -0.29320922               -0.32982500                1.10448896               -0.02129875                0.03982873                1.38930818
               1.96536621                2.32490176               21.19171887                1.00000000               -0.25461680               -0.24857924                0.83251245                0.00183449                0.17120947                0.05650477
               2.96320596                2.22832452               21.11499451                1.00000000               -0.16758787               -0.17583925                0.58118221                0.03764223                0.79309107               -1.30431084
               3.96201445                2.13181023               21.04812116                0.00010000               -1.54287268               -0.16194761                0.32329678                0.94806275                4.45388003               -1.96031759
               4.93234851                2.05183575               21.04443281                0.00010000               -1.60840133                0.17310569                0.10903293                1.80617838                4.86375043               -1.27077879
               5.92984642                1.97608115               20.98532957                0.00010000               -0.09028581               -0.06459853               -0.12866382                1.52169370                1.71463686               -0.45069479
               6.93054279                1.90070684               20.91885077                0.00010000                0.25040336               -0.15576062               -0.36964396                1.28943708                3.05676998                0.27157829
               7.93485449                1.82815224               20.88676572                0.00010000                0.37217199               -0.11075262               -0.60824214                0.88356564                3.53692105                0.78325465
               8.93798623                1.75183024               20.83091683                1.00000000                0.30022082                0.26826297               -0.81033017                0.19269573                1.59347087                1.26636184
               9.94085891                1.67337810               20.76014749                1.00000000                0.32851679                0.33601157               -1.07558238                0.02885692                0.57486575                0.55958317
              10.94455657                1.59470867               20.68392267                1.00000000                0.36976624                0.40295236               -1.36474840               -0.01017259                0.30074866               -0.80367670
               1.06403185                3.41803845               21.24842884                1.00000000               -0.25330461               -0.30517407                0.99372631               -0.01741274                0.05630309                1.35429378
               2.06149881                3.32256535               21.16226021                1.00000000               -0.21055853               -0.21720781                0.71107708                0.00269333                0.06775843               -0.03891297
               3.05982068                3.22668322               21.07625132                1.00000000               -0.11578431               -0.13463693                0.42839965                0.00325576                0.99938920               -1.54321570
               4.05918312                3.13037294               21.00869963                0.00010000               -0.65486278               -0.08485981                0.16464949                0.97821079                4.56809078               -2.55675840
               5.04672343                3.05335632               20.99345636                0.00010000               -1.25524678                0.07154404                0.01139240                2.60045115                6.69247540               -3.05369528
               6.03407818                2.97325364               20.96910013                0.00010000               -1.00222690               -0.06276583               -0.14892249                2.15766651                5.87269291               -1.20691246
               7.02667889                2.89751008               20.93788616                0.00010000               -0.61049705               -0.13805565               -0.31697998                1.84035230                5.42966662                0.77075800
               8.02186824                2.82405301               20.90513856                0.00010000               -0.47216646               -0.17826384               -0.49517476                1.39119512                5.14981637                0.92367609
               9.01723556                2.75459524               20.86867659                0.00010000               -0.11702636                0.23571747               -0.70344506                0.50695444                3.20022429                2.36677573
              10.01952772                2.67670400               20.79731683                1.00000000                0.28101337                0.30814455               -0.96712949                0.02273668                0.73387512                0.90507560
              11.02285583                2.59865370               20.71145961                1.00000000                0.33281097                0.39291842               -1.29535235               -0.01701865                0.01143742               -0.56349917
               1.15889625                4.41509744               21.22493690                1.00000000               -0.21209480               -0.27851595                0.87455451               -0.02120804                0.06983678                1.23792813
               2.15677530                4.32055760               21.13187498                1.00000000               -0.17163819               -0.17910417                0.58063612                0.00014683                0.09018523               -0.13743092
               3.15546348                4.22563178               21.03916375                0.00010000               -0.09348668               -0.07963033                0.29655369               -0.00796155                1.13994906               -1.42123562
               4.15490556                4.13011304               20.96709383                0.00010000               -0.69933219                0.10745828               -0.02518173                0.78590777                5.82523879               -2.05193590
               5.14147684                4.05326663               20.96769789                0.00010000               -1.30297802                0.09570849               -0.10667407                1.52093388                9.01028218               -1.33291883
               6.12884600                3.97482583               20.96011337                0.00010000               -1.24631869                0.20894077               -0.17761759                1.39122449                8.31845252               -0.56011503
               7.11655046                3.89794573               20.94761365                0.00010000               -1.16263893                0.15952372               -0.27172919                1.24413688                7.93702779                0.41972787
               8.10559323                3.82458696               20.93301107                0.00010000               -1.05380635                0.13765306               -0.39185433                1.16954707                7.88888599                1.45524373
               9.09547434                3.75654459               20.92009273                0.00010000               -0.41690227                0.15634354               -0.54043884                0.51203653                4.28220749                2.77043050
              10.09725518                3.67954100               20.83370992                1.00000000                0.24212246                0.26127963               -0.86328981                0.01225581                0.32567653                0.86026736
              11.10031679                3.60256704               20.74147209                1.00000000                0.30616067                0.38248110               -1.21026740               -0.01730474                0.03786933               -0.42991838
               1.25268736                5.41246813               21.20001490                1.00000000               -0.17199689               -0.24144666                0.74566083               -0.02463102                0.11731331                1.09245978
               2.25096739                5.31898326               21.10040391                0.00010000               -0.12906756               -0.13392266                0.43305979               -0.00426729                0.21995335               -0.31311656
               3.25010601                5.22509062               21.00279295                0.22088821               -0.18504820               -0.02770814                0.13262066                0.08715066                1.95015224               -1.58730570
               4.24726643                5.13252211               20.93778369                0.00010000               -0.88383522                0.36059882               -0.33317127                0.56729709                7.53966752               -0.57118251
               5.23242931                5.05527049               20.95135900                0.00010000               -1.50214279                0.30542937               -0.22666230                1.19011838               11.01385660               -0.55159223
               6.21722357                4.97743245               20.95697529                0.00010000               -1.53144080                0.34876331               -0.20260376                0.96301599               10.42387038               -0.07621578
               7.20180049                4.90070055               20.95979082                0.00010000               -1.52816290                0.34257678               -0.22566663                0.84261071               10.21556284                0.63022582
               8.18666032                4.82680608               20.96212376                0.00010000               -1.46391170                0.25491822               -0.28228372                0.84637919               10.24724951                1.48837552
               9.17252226                4.75772211               20.96624524                0.00010000               -0.64549655                0.08975856               -0.36361787                0.38382766                5.29640346                2.36472370
              10.17375039                4.68192959               20.86998672                0.00010000                0.19676914                0.21975053               -0.72944539                0.00823190                0.17636350                0.83913227
              11.17645764                4.60630333               20.77153282                1.00000000                0.27072552                0.36124718               -1.11618644               -0.01874366                0.07264138               -0.46080502
               1.34537335                6.41026850               21.17356850                1.00000000               -0.13058920               -0.19686922                0.61052921               -0.02471463                0.06987468                0.95580222
               2.34406746                6.31787915               21.06645461                0.00010000               -0.08528531               -0.08727918                0.28246199               -0.00410859                0.22195715               -0.49444313
               3.34366765                6.22507762               20.96233332                0.00010000               -0.39979176                0.02297837               -0.03392957                0.27412098                3.75088486               -1.92084351
               4.33607163                6.13732501               20.92579935                0.00010000               -1.16493940                0.50364663               -0.56516637                0.58466476                9.77104458                0.15531873
               5.32036886                6.05937521               20.94132005                0.00010000               -1.66976795                0.50420379               -0.31313398                0.94444422               12.33987230               -0.09193728
               6.30267627                5.98180110               20.95769235                0.00010000               -1.81699020                0.53569173               -0.21217523                0.72100114               12.30036834                0.21250194
               7.28402906                5.90479726               20.97377057                0.00010000               -1.85885122                0.48502907               -0.17368882                0.51685451               12.27489656                0.74921543
               8.26549924                5.82968533               20.99074455                0.00010000               -1.80008416                0.31600216               -0.17223794                0.46338533               12.37822547                1.42744371
               9.24802737                5.75833976               21.00973544                0.00010000               -0.83303195                0.03648348               -0.19624681                0.18174346                6.30832752                2.16363681
              10.24883861                5.68393601               20.90588293                0.00010000                0.15835353                0.18088105               -0.60163173                0.00477427                0.10913885                0.78206496
              11.25119444                5.60979198               20.80070970                1.00000000                0.23558389                0.33457497               -1.01584822               -0.01618857                0.04988217               -0.52920677
               1.43697178                7.40853074               21.14585391                0.00010000               -0.08956785               -0.15133955                0.47480278               -0.02366735                0.03039813                0.86711426
               2.43607610                7.31723768               21.03130642                0.00010000               -0.04146093               -0.04158465                0.13485763               -0.00244602                0.15722822               -0.57126607
               3.43614256                7.22555018               20.91924927                0.00010000               -0.57069867                0.07030024               -0.20032514                0.46057470                5.47705561               -2.10939039
               4.42466213                7.14259504               20.91110068                0.00010000               -1.46502286                0.55050315               -0.55908422                0.82798260               12.23184765               -0.20870141
               5.40684211                7.06535457               20.93399654                0.00010000               -1.92202905                0.69768960               -0.33957067                0.86769563               13.87318880                0.04039857
               6.38622155                6.98814629               20.96016190                0.00010000               -2.12943783                0.75274089               -0.20077510                0.53764025               14.05782335                0.31587521
               7.36425335                6.91040113               20.98823195                0.00010000               -2.19180150                0.66028086               -0.11702340                0.19501813               14.20543333                0.74261157
               8.34238552                6.83312612               21.01864788                0.00010000               -2.11734502                0.39256443               -0.06640752                0.01003362               14.41476466                1.32148865
               9.32190645                6.75845178               21.05193821                0.00010000               -0.99959340               -0.01183539               -0.04055954               -0.07582732                7.30607660                2.04094370
              10.32239365                6.68554721               20.94091822                0.00010000                0.12577316                0.14020018               -0.47669335               -0.00056375                0.06359562                0.70480564
              11.32442191                6.61299483               20.82915949                0.00010000                0.20282615                0.30483497               -0.91759747               -0.01428261                0.03433101               -0.59116114
               1.52748614                8.40724171               21.11756573                0.00010000               -0.04870339               -0.10793344                0.34074451               -0.02276882                0.01199474                0.83820571
               2.52699910                8.31704745               20.99577804                0.00010000                0.00178224                0.00343952               -0.01015521               -0.00074190                0.06425958               -0.59338247
               3.52752178                8.22648363               20.87499194                0.00010000               -0.70861044                0.11606374               -0.36307230                0.64584134                6.98210910               -2.06801303
               4.51282689                8.14833508               20.89156449                0.00010000               -1.76751270                0.65515875               -0.50938907                1.07114775               14.72908757               -0.37336079
               5.49217153                8.07332901               20.92623131                0.00010000               -2.22221898                0.91928788               -0.32240233                0.82390013               15.64194181                0.01312256
               6.46838251                7.99685592               20.96259159                0.00010000               -2.46109686                0.97297636               -0.17674599                0.38096133               15.79309528                0.27900312
               7.44294959                7.91800288               21.00183520                0.00010000               -2.53666247                0.90221283               -0.06147251               -0.09391508               16.06155253                0.60481490
               8.41764926                7.83753662               21.04504603                0.00010000               -2.44299283                0.54958992                0.03081263               -0.53060995               16.43286973                1.08910934
               9.39408973                7.75810306               21.09297089                0.00010000               -1.16824878               -0.05121363                0.10393464               -0.41107089                8.33428232                1.85084968
              10.39428429                7.68674001               20.97516352                0.00010000                0.09619168                0.10003212               -0.35706825               -0.00965895                0.03446962                0.65070030
              11.39601357                7.61588868               20.85687036                0.00010000                0.17292782                0.27214771               -0.82339197               -0.01242467                0.01915505               -0.65195699
               1.61690492                9.40637207               21.08920234                0.00010000               -0.00855701               -0.06759829                0.20914238               -0.02217084               -0.00619582                0.71364186
               2.61681935                9.31730647               20.96015478                0.00010000                0.04334225                0.04783839               -0.15268741                0.00036173                0.07723528               -0.51495823
               3.61777177                9.22787146               20.83273450                0.00010000               -0.87898242                0.15936329               -0.51397365                0.88695256                8.54887148               -1.44145081
               4.59923970                9.15569822               20.87312518                0.00010000               -2.14862488                0.99582747               -0.46636600                1.00596574               17.10162669               -0.17209175
               5.57479927                9.08374033               20.91785132                0.00010000               -2.50364001                1.09068107               -0.30917410                0.60477659               17.30344038               -0.00099800
               6.54916690                9.00760582               20.96380081                0.00010000               -2.65524616                1.11556428               -0.15745616                0.21988691               17.45568393                0.16024095
               7.52169435                8.92844539               21.01312355                0.00010000               -2.87468806                1.09426211               -0.01665027               -0.21174567               17.82434132                0.34436643
               8.49167314                8.84411792               21.06806685                0.00010000               -2.86063533                0.96955958                0.11453633               -0.80329078               18.43411484                0.63329946
               9.46448164                8.75742751               21.13128215                0.00010000               -1.36291480               -0.06510301                0.23101624               -0.84746445                9.50736466                1.23722828
              10.46441485                8.68754786               21.00898830                0.00010000                0.06972162                0.06606051               -0.24576111               -0.02281521                0.10414390                0.53657379
              11.46587607                8.61843778               20.88389322                0.00010000                0.14612260                0.23786887               -0.73729596               -0.01224922               -0.02535099               -0.58444138
               1.70517393               10.40588975               21.05835367                0.00010000                0.03330239               -0.04823277                0.07772666                0.03834795                0.39054276                0.59273282
               2.70550695               10.31800422               20.92617142                0.00010000                0.08475785                0.06977521               -0.28985637                0.05781708                0.74454626               -0.43215733
               3.70686908               10.22967089               20.80103015                0.00010000               -1.42148067                0.17994329               -0.64541864                1.42210185               10.15624607               -0.91534122
               4.67707734               10.16825163               20.85709058                0.00010000               -2.72548129                1.25534098               -0.48169387                1.05735017               18.94145837               -0.01954718
               5.65235946               10.09514263               20.90917906                0.00010000               -2.45010733                1.14023004               -0.32813573                0.30179757               18.77165362                0.01612537
               6.62807519               10.01916720               20.96318890                0.00010000               -2.50784423                1.15613860               -0.15663812                0.12810333               18.98178489                0.10591802
               7.60220257                9.93988812               21.02084557                0.00010000               -2.77369335                1.14427338                0.00929711               -0.06114696               19.40796266                0.20763247
               8.57260132                9.85692781               21.08490420                0.00010000               -3.42460347                1.28098923                0.17133659               -1.06153814               20.17773089                0.37635469
               9.53371050                9.75680100               21.15984869                0.00010000               -1.98918049               -0.06265145                0.31339763               -1.52044312               10.89056035                0.76531147
              10.53281771                9.68806122               21.04076804                0.00010000                0.01391138                0.05133639               -0.14997930                0.03253990                0.75268144                0.44665017
              11.53398873                9.62064606               20.91274590                0.00010000                0.11710177                0.22082799               -0.65380198                0.06974996                0.31786498               -0.48208784
               0.84138844                0.46570634               22.33561223                1.00000000               -0.35111828               -0.38095159                1.32951119               -0.06676404               -0.78714031                0.82067836
               1.83787725                0.36068636               22.25978935                1.00000000               -0.29317143               -0.30290196                1.06848475               -0.05378533               -1.00228500                0.06074624
               2.83552501                0.25541451               22.17963504                1.00000000               -0.16147270               -0.22496314                0.79360206               -0.04220126               -0.95123238               -0.20993744
               3.83464780                0.15110867               22.10483646                1.00000000                0.30871304               -0.17718499                0.53169587                0.47252178               -0.00833304               -0.63499002
               4.84169927                0.05876254               22.04355675                0.00010000                0.45450131               -0.05702354                0.22977219               -0.07408717                0.46620652                0.16697898
               5.84373783               -0.02491454               21.97846171                0.00010000                0.14489430                0.02775885               -0.05621946               -0.00021117                0.09392277                0.09509019
               6.84459716               -0.10705617               21.90973356                0.00010000                0.07176866                0.10328910               -0.33823587                0.00898317               -0.09880243               -0.06151675
               7.84517320               -0.18963733               21.84071402                0.00010000                0.08659103                0.19297429               -0.63131024                0.02740651               -0.33697063                0.07468823
               8.84632898               -0.27471209               21.76703561                1.00000000                0.19374256                0.28626350               -0.92267211                0.01366727               -0.68653455                0.45621037
               9.84904805               -0.36159715               21.69088243                1.00000000                0.33104624                0.35573815               -1.20800960               -0.04233665               -0.74646687                0.00792075
              10.85294990               -0.44872864               21.61602158                1.00000000                0.39018498                0.43550069               -1.47856619               -0.05897447               -0.68627055               -0.69929545
               0.94574077                1.46189682               22.30588269                1.00000000               -0.32554579               -0.36163091                1.20618476               -0.02688554               -0.10573680                1.11472807
               1.94248532                1.35765734               22.22966509                1.00000000               -0.29244660               -0.28202819                0.94690406               -0.00965492               -0.07490147                0.08669303
               2.93989184                1.25316488               22.15402533                1.00000000               -0.23931574               -0.20302448                0.67711848                0.01971233                0.14886299               -0.58786633
               3.93769900                1.14933682               22.08224679                1.00000000               -0.54609194               -0.16821004                0.39684543                0.66842036                1.64884488               -1.05622440
               4.92897000                1.05819231               22.03652761                0.00010000               -0.55269654                0.07002512                0.16213657               -0.09238237                2.34569063                0.96432163
               5.92664507                0.97536305               21.97834472                0.00010000               -0.09608108                0.09052600               -0.10065089                0.16458095                1.50042031                0.38326415
               6.92704838                0.89397672               21.91564467                0.00010000                0.13150781                0.06257021               -0.36358596                0.20926017                1.39594697               -0.38285501
               7.92927523                0.81229241               21.85544743                0.00010000                0.26985901                0.19024303               -0.61877834                0.23396825                1.38673081                0.59631928
               8.93244556                0.72815055               21.79280970                1.00000000                0.31788678                0.27250292               -0.87556532                0.10332035                0.70831532                0.66296931
               9.93563296                0.64196023               21.71926483                1.00000000                0.35230422                0.34635491               -1.14427873                0.00154596                0.09479644                0.09137193
              10.93949165                0.55562636               21.64442061                1.00000000                0.38586841                0.42360787               -1.41405664               -0.01644076                0.02678164               -0.82941910
               1.04932969                2.45847372               22.28199490                1.00000000               -0.29135867               -0.32905755                1.09548539               -0.02031404                0.03906616                1.41829147
               2.04641610                2.35504580               22.20001484                1.00000000               -0.25449553               -0.24622037                0.82695836                0.00406531                0.17832247                0.06152282
               3.04423978                2.25135402               22.12078618                1.00000000               -0.17136617               -0.17108040                0.57463455                0.04106818                0.79570305               -1.31462728
               4.04298878                2.14774447               22.05116682                0.00010000               -1.52071913               -0.14912381                0.29606445                0.92305703                4.46627043               -1.95452180
               5.01382539                2.06016305               22.04542444                0.00010000               -1.58718738                0.16457422                0.09300453                1.75349142                4.93128524               -1.27563535
               6.01124503                1.97689598               21.98398466                0.00010000               -0.09862005               -0.06706271               -0.13856704                1.47600867                1.77064423               -0.43129121
               7.01185299                1.89419524               21.91514988                0.00010000                0.22168571               -0.15268383               -0.37196126                1.23778275                3.10954166                0.31189704
               8.01567874                1.81416753               21.88065485                0.00010000                0.34372886               -0.10927789               -0.61294486                0.84228813                3.61316380                0.83352119
               9.01872757                1.73073797               21.82280371                1.00000000                0.29622047                0.26546168               -0.81246193                0.17550625                1.65938077                1.31240202
              10.02160315                1.64532994               21.74939559                1.00000000                0.32806221                0.33279635               -1.07511033                0.02475012                0.59723185                0.58012625
              11.02528881                1.55974351               21.67029465                1.00000000                0.36856614                0.40559942               -1.36128212               -0.00949253                0.31150657               -0.83981072
               1.15219034                3.45531567               22.25831158                1.00000000               -0.25040152               -0.30447910                0.98374869               -0.01675540                0.05945573                1.37901414
               2.14968632                3.35273293               22.16934070                1.00000000               -0.20879019               -0.21510225                0.70521228                0.00394583                0.07083011               -0.03811917
               3.14801453                3.24974327               22.08054366                1.00000000               -0.11676034               -0.13207825                0.42886535                0.00699604                1.00979784               -1.57023690
               4.14735111                3.14635434               22.01033574                0.00010000               -0.65631063               -0.09321723                0.16345384                0.95185819                4.61540854               -2.57631132
               5.13488832                3.06148379               21.99361023                0.00010000               -1.26090316                0.05768730                0.01049938                2.52375077                6.82258265               -3.08415188
               6.12213305                2.97402179               21.96759987                0.00010000               -1.01779182               -0.06889819               -0.15207808                2.09433527                6.00910495               -1.18038603
               7.11453248                2.89092305               21.93468838                0.00010000               -0.62773971               -0.14563645               -0.32282984                1.76897378                5.56783444                0.83916814
               8.10957826                2.81010686               21.90015045                0.00010000               -0.48696048               -0.17895168               -0.50315679                1.34169578                5.27473283                1.02184633
               9.10479327                2.73345978               21.86159141                0.00010000               -0.12279188                0.22519886               -0.71371712                0.47617895                3.29092004                2.45765344
              10.10712242                2.64861616               21.78759978                1.00000000                0.28406911                0.30596273               -0.97610664                0.01480163                0.76664222                0.93848171
              11.11047466                2.56373835               21.69847800                1.00000000                0.33522368                0.39889095               -1.30069540               -0.01568483                0.01252462               -0.58788743
               1.25416005                4.45238414               22.23362532                1.00000000               -0.20926343               -0.27712671                0.86366956               -0.02128754                0.07678658                1.25341349
               2.25206742                4.35074375               22.13765271                1.00000000               -0.17008825               -0.17701030                0.57504573               -0.00029116                0.10201932               -0.15000204
               3.25075829                4.24871245               22.04212936                0.00010000               -0.08910002               -0.07727796                0.29641938               -0.01933563                1.13512037               -1.45643941
               4.25028542                4.14588012               21.96681009                0.00010000               -0.70626643                0.08357655               -0.01835729                0.75840819                5.91532611               -2.16447634
               5.23663296                4.06131679               21.96667443                0.00010000               -1.32964693                0.09117007               -0.10187639                1.46754722                9.24290540               -1.37784695
               6.22369248                3.97551802               21.95833680                0.00010000               -1.27427763                0.20427991               -0.17872261                1.33912190                8.55222766               -0.53812666
               7.21114741                3.89128251               21.94486552                0.00010000               -1.18582759                0.15428497               -0.27872423                1.18494613                8.15899014                0.48598274
               8.19997593                3.81058850               21.92903219                0.00010000               -1.07027775                0.13243823               -0.40471070                1.10723511                8.09483749                1.55107402
               9.18974185                3.73524195               21.91457905                0.00010000               -0.41776571                0.14255461               -0.56237258                0.47809826                4.40117234                2.89512475
              10.19162061                3.65144920               21.82497751                1.00000000                0.24944363                0.26247963               -0.88262362                0.00862572                0.34991713                0.90712678
              11.19473072                3.56772133               21.72929542                1.00000000                0.31101104                0.39129260               -1.22415783               -0.01740458                0.05067133               -0.44186054
               1.35504536                5.44977314               22.20741311                1.00000000               -0.16931751               -0.23923305                0.73423352               -0.02485156                0.11938546                1.09932744
               2.35335218                5.34919273               22.10470552                0.00010000               -0.12769543               -0.13145662                0.42730724               -0.00498735                0.22831822               -0.33597668
               3.35249145                5.24819771               22.00412197                0.19369280               -0.17186201               -0.02505914                0.13304763                0.06084827                1.88376994               -1.63916814
               4.34991494                5.14802588               21.93452051                0.00010000               -0.89450375                0.34198900               -0.31164527                0.53798383                7.66791599               -0.72742327
               5.33460137                5.06330719               21.94910895                0.00010000               -1.54825843                0.30856087               -0.22237281                1.14887038               11.39771584               -0.57967112
               6.31894977                4.97810739               21.95494393                0.00010000               -1.57202244                0.35121938               -0.20428117                0.91287452               10.75863043               -0.04652247
               7.30316092                4.89400875               21.95749366                0.00010000               -1.55931253                0.34262588               -0.23462918                0.78195133               10.52468172                0.69758514
               8.28776352                4.81275562               21.95922090                0.00010000               -1.48331925                0.25130599               -0.29935804                0.78031487               10.54230211                1.58582991
               9.27349454                4.73631087               21.96247231                0.00010000               -0.64739869                0.08199386               -0.39153077                0.34921843                5.45593473                2.49078138
              10.27481555                4.65386575               21.86256902                0.00010000                0.20438789                0.22321543               -0.75350494                0.00793726                0.18828901                0.89825827
              11.27758230                4.57156420               21.76026952                1.00000000                0.27667492                0.37267001               -1.13539231               -0.01918619                0.07434805               -0.46376549
               1.45482384                6.44759948               22.17961461                1.00000000               -0.12807406               -0.19400347                0.59879010               -0.02474085                0.06943138                0.95864830
               2.45354310                6.34811462               22.06925330                0.00010000               -0.08408660               -0.08483679                0.27707274               -0.00459140                0.22744838               -0.51701909
               3.45314211                6.24821127               21.96200074                0.00010000               -0.38037433                0.02521447               -0.03304393                0.24138375                3.65328531               -1.97288296
               4.44593561                6.15271990               21.92015860                0.00010000               -1.18066286                0.50349317               -0.55348894                0.53553643                9.95566255                0.13897957
               5.42952885                6.06748801               21.93819504                0.00010000               -1.73435974                0.51598804               -0.30964252                0.90325311               12.85238270               -0.07689519
               6.41124842                5.98254240               21.95555143                0.00010000               -1.86953223                0.54637437               -0.21583090                0.66362104               12.72217685                0.25639630
               7.39213820                5.89813503               21.97198046                0.00010000               -1.89841577                0.49123944               -0.18515934                0.44870059               12.66498055                0.81783533
               8.37328010                5.81561462               21.98892636                0.00010000               -1.82610552                0.31662042               -0.19266769                0.38836425               12.75549518                1.51979577
               9.35561609                5.73688182               22.00762540                0.00010000               -0.83770371                0.03403357               -0.22701727                0.14202753                6.50388858                2.27715033
              10.35652603                5.65591351               21.89973224                0.00010000                0.16669967                0.18549201               -0.62864190                0.00542606                0.11491155                0.83557872
              11.35895009                5.57517473               21.79044052                1.00000000                0.24240607                0.34655959               -1.03733983               -0.01612054                0.05183256               -0.52923983
               1.55352025                7.44589307               22.15054368                0.00010000               -0.08716947               -0.14807872                0.46307789               -0.02360666                0.02990684                0.87010231
               2.55264856                7.34749599               22.03263219                0.00010000               -0.04032073               -0.03953983                0.13001603               -0.00261965                0.15915282               -0.59070551
               3.55271384                7.24870200               21.91725600                0.00010000               -0.56498130                0.07146414               -0.19875139                0.43305260                5.46410455               -2.15832019
               4.54134893                7.15809574               21.90544593                0.00010000               -1.49349511                0.56549301               -0.56208492                0.76506160               12.50337722               -0.08679316
               5.52284394                7.07362695               21.93058339                0.00010000               -1.98868778                0.71655149               -0.33965618                0.81912446               14.40905488                0.10103433
               6.50157518                6.98903488               21.95812114                0.00010000               -2.18906072                0.77115009               -0.20684366                0.47351512               14.54107607                0.37023050
               7.47906272                6.90383354               21.98699438                0.00010000               -2.23955835                0.67365269               -0.13124544                0.11837107               14.66465126                0.80723902
               8.45678401                6.81908803               22.01787172                0.00010000               -2.15132602                0.39897163               -0.09022163               -0.07422296               14.86568647                1.40325177
               9.43603620                6.73699154               22.05136794                0.00010000               -1.00764247               -0.00964179               -0.07506046               -0.12118427                7.53716666                2.14111003
              10.43663116                6.65757559               21.93600725                0.00010000                0.13506173                0.14605507               -0.50629711               -0.00026233                0.06672472                0.75294630
              11.43873744                6.57849540               21.81986479                0.00010000                0.21062756                0.31620303               -0.94116368               -0.01366360                0.03552027               -0.59417546
               1.65114585                8.44463790               22.12091664                0.00010000               -0.04640825               -0.10451331                0.32920921               -0.02266566                0.01155890                0.84301525
               2.65068177                8.34732382               21.99565731                0.00010000                0.00287787                0.00501386               -0.01436096               -0.00071716                0.06289236               -0.60989866
               3.65120341                8.24964055               21.87137663                0.00010000               -0.71849421                0.11595811               -0.36046293                0.62873024                7.07851652               -2.10797536
               4.63631189                8.16402976               21.88643079                0.00010000               -1.81156079                0.67627822               -0.50962014                1.02109548               15.10436139               -0.23446926
               5.61497220                8.08181904               21.92297901                0.00010000               -2.28998754                0.94333657               -0.32514687                0.77963914               16.18187077                0.08641217
               6.59051214                7.99796541               21.96077815                0.00010000               -2.52598602                0.99833584               -0.18541160                0.32098074               16.31663257                0.32890319
               7.56445248                7.91160808               22.00113968                0.00010000               -2.59372513                0.92549729               -0.07832021               -0.16980442               16.58011778                0.65617336
               8.53863763                7.82359405               22.04522436                0.00010000               -2.48738128                0.56406669                0.00346446               -0.62084474               16.95194847                1.15556134
               9.51470485                7.73668899               22.09381875                0.00010000               -1.18103536               -0.04382929                0.06384595               -0.46213632                8.60146597                1.93602423
              10.51501693                7.65883461               21.97142867                0.00010000                0.10661744                0.10807780               -0.39089956               -0.01033318                0.03773607                0.69111970
              11.51683720                7.58149879               21.84850055                0.00010000                0.18202718                0.28289227               -0.85047480               -0.01130172                0.02004384               -0.66135151
               1.74769510                9.44380280               22.09123900                0.00010000               -0.00635350               -0.06414087                0.19781378               -0.02206192               -0.00705457                0.71974097
               2.74763156                9.34759627               21.95861263                0.00010000                0.04437022                0.04899808               -0.15621616                0.00042372                0.07683711               -0.52724217
               3.74858250                9.25102116               21.82761739                0.00010000               -0.90196026                0.15835319               -0.51000379                0.88265269                8.74990525               -1.46512576
               4.72959236                9.17162130               21.86845294                0.00010000               -2.20407119                1.02051916               -0.46430897                0.98035633               17.57560393               -0.07397904
               5.70450108                9.09249369               21.91472952                0.00010000               -2.56933033                1.11725843               -0.31345065                0.57893808               17.85177615                0.04434011
               6.67820575                9.00900160               21.96216940                0.00010000               -2.72315451                1.14592369               -0.16862191                0.18226578               18.01792240                0.18899203
               7.65003799                8.92234348               22.01286377                0.00010000               -2.94597720                1.12757162               -0.03595713               -0.26538178               18.39863520                0.37205940
               8.61928621                8.83036936               22.06907262                0.00010000               -2.92425352                1.00313108                0.08575563               -0.87654690               19.01762042                0.67405900
               9.59155292                8.73611496               22.13336865                0.00010000               -1.38357579               -0.05208978                0.18428010               -0.90325386                9.81242232                1.29199618
              10.59161469                8.65973714               22.00633721                0.00010000                0.08150575                0.07714123               -0.28555776               -0.02444063                0.11216885                0.56505258
              11.59318303                8.58415324               21.87635963                0.00010000                0.15683412                0.24855689               -0.76930750               -0.01100808               -0.02428553               -0.59961259
               1.84311768               10.44335508               22.05907765                0.00010000                0.03542066               -0.04477164                0.06658802                0.03712818                0.39416279                0.59911109
               2.84347188               10.34830378               21.92326057                0.00010000                0.08568770                0.07075152               -0.29288355                0.05665901                0.75438615               -0.44146707
               3.84483143               10.25280762               21.79460250                0.00010000               -1.45126975                0.17864565               -0.64075457                1.43171128               10.42853576               -0.92900981
               4.81444649               10.18444015               21.85227020                0.00010000               -2.78303846                1.28188452               -0.48140489                1.05324279               19.49840455                0.03638276
               5.78917066               10.10416421               21.90586331                0.00010000               -2.50694167                1.16705217               -0.33416407                0.28914517               19.35513076                0.03525921
               6.76430766               10.02088388               21.96155569                0.00010000               -2.56967949                1.18822826               -0.17023100                0.10995587               19.59185445                0.11602642
               7.73777707                9.93415951               22.02083241                0.00010000               -2.84862180                1.18160305               -0.01274435               -0.08745172               20.03383816                0.21720168
               8.70733522                9.84365667               22.08646812                0.00010000               -3.52525404                1.32873094                0.14096245               -1.12071456               20.80954837                0.39443915
               9.66727199                9.73564719               22.16272880                0.00010000               -2.04226949               -0.04677650                0.26044957               -1.59205438               11.23947868                0.79890868
              10.66648983                9.66037743               22.03904367                0.00010000                0.02564249                0.06402898               -0.19612502                0.02865098                0.78691906                0.46800777
              11.66778484                9.58646993               21.90601843                0.00010000                0.12950116                0.23166904               -0.69161509                0.06943087                0.33248006               -0.49880505
               0.91055949                0.50433720               23.34887280                1.00000000               -0.34947827               -0.37903647                1.32260506               -0.06639606               -0.80376433                0.83598216
               1.90706471                0.39205276               23.27044158                1.00000000               -0.29221375               -0.30074625                1.06197512               -0.05302865               -1.02576308                0.06588686
               2.90471522                0.27951593               23.18753760                1.00000000               -0.16169878               -0.22243894                0.78715995               -0.04168566               -0.97568799               -0.20985961
               3.90383073                0.16790573               23.11010541                1.00000000                0.30025218               -0.17486899                0.52332327                0.45573157               -0.04548052               -0.66004067
               4.91072026                0.06787661               23.04583503                0.00010000                0.44656118               -0.05636560                0.22620345               -0.07808582                0.41052887                0.17979671
               5.91276196               -0.02358877               22.97790979                0.00010000                0.14717459                0.02767102               -0.05453518               -0.00280277                0.04730284                0.10158788
               6.91366375               -0.11346901               22.90638407                0.00010000                0.07885924                0.10208853               -0.33240033                0.00809813               -0.14865235               -0.06440703
               7.91433914               -0.20365426               22.83445232                0.00010000                0.09530925                0.19078781               -0.62183487                0.02352551               -0.39086310                0.08077906
               8.91556994               -0.29610008               22.75787548                1.00000000                0.19728320                0.28213490               -0.91026213                0.01027385               -0.73597453                0.46795630
               9.91828480               -0.39022172               22.67888350                1.00000000                0.32879761                0.35197667               -1.19274968               -0.04136239               -0.78484794                0.00730637
              10.92214589               -0.48458576               22.60132918                1.00000000                0.38610833                0.43189677               -1.46107405               -0.05654310               -0.71666317               -0.72743459
               1.02217997                1.50054684               23.31790990                1.00000000               -0.32349124               -0.35996729                1.19931617               -0.02614196               -0.10903397                1.13605202
               2.01894506                1.38904530               23.23909951                1.00000000               -0.29040493               -0.27980800                0.94014894               -0.00893189               -0.08334553                0.09294241
               3.01637187                1.27729154               23.16076107                1.00000000               -0.23686760               -0.20011422                0.67126815                0.01822877                0.13098992               -0.58255848
               4.01420771                1.16615704               23.08619580                1.00000000               -0.53426097               -0.16374421                0.39506210                0.64461414                1.64641053               -1.07040955
               5.00568665                1.06731295               23.03810312                0.00010000               -0.54004833                0.06819041                0.15492985               -0.10164942                2.35835845                0.97630138
               6.00340674                0.97668794               22.97731871                0.00010000               -0.09545882                0.08944731               -0.10379991                0.15054178                1.50244814                0.39286485
               7.00377748                0.88755187               22.91201020                0.00010000                0.12415942                0.06850416               -0.36316056                0.19826806                1.40206615               -0.37687429
               8.00588993                0.79825362               22.84927542                0.00010000                0.25894639                0.18869484               -0.61581252                0.21470939                1.39716192                0.59899985
               9.00895641                0.70672127               22.78408354                1.00000000                0.31120461                0.26983266               -0.87005802                0.09538045                0.71303870                0.68277616
              10.01211402                0.61329805               22.70786296                1.00000000                0.34940448                0.34337036               -1.13667907                0.00198732                0.09338681                0.09389688
              11.01594449                0.51973321               22.63033321                1.00000000                0.38304737                0.42204126               -1.40417670               -0.01434886                0.02533412               -0.86279239
               1.13303973                2.49713786               23.29291040                1.00000000               -0.28983600               -0.32792653                1.08795094               -0.01898769                0.03966480                1.44524207
               2.13014137                2.38645660               23.20825804                1.00000000               -0.25358419               -0.24400997                0.82127862                0.00570302                0.18558097                0.06741584
               3.12796805                2.27551364               23.12648720                1.00000000               -0.17198851               -0.16781174                0.56629672                0.04119880                0.79675751               -1.32390351
               4.12670160                2.16463085               23.05404245                0.00010000               -1.49058350               -0.14767960                0.28418842                0.89718951                4.49736288               -1.97354426
               5.09815638                2.06924042               23.04629290                0.00010000               -1.55838625                0.15551729                0.08293532                1.68968083                5.00323859               -1.27348616
               6.09553387                1.97820018               22.98255822                0.00010000               -0.10464709               -0.06970781               -0.14546166                1.42180180                1.82959377               -0.40506362
               7.09606343                1.88790107               22.91141154                0.00010000                0.19650280               -0.14870383               -0.37600810                1.18134897                3.16355782                0.35518241
               8.09946393                1.80011964               22.87450682                0.00010000                0.31848417               -0.10705040               -0.61620434                0.79827266                3.68839100                0.88560120
               9.10243312                1.70929657               22.81466759                1.00000000                0.29243410                0.26258528               -0.81482676                0.15871407                1.72428710                1.35794209
              10.10531261                1.61664569               22.73864528                1.00000000                0.32777333                0.32968306               -1.07508295                0.02092198                0.61922118                0.60024765
              11.10898858                1.52385507               22.65669703                1.00000000                0.36759716                0.40809873               -1.35842717               -0.00879298                0.32203795               -0.87508113
               1.24316273                3.49398831               23.26810382                1.00000000               -0.24793957               -0.30368373                0.97511405               -0.01544721                0.06313331                1.40135182
               2.24068333                3.38416510               23.17636445                1.00000000               -0.20705640               -0.21319279                0.69947043                0.00586320                0.07581578               -0.03793233
               3.23902160                3.27393530               23.08482863                1.00000000               -0.11293053               -0.12944784                0.42720429                0.00394078                1.02079822               -1.59377013
               4.23842472                3.16320345               23.01196870                0.00010000               -0.65553278               -0.09960546                0.15958740                0.92267091                4.68694702               -2.62884565
               5.22591094                3.07042330               22.99366634                0.00010000               -1.26212984                0.04852728                0.00361639                2.43710961                6.95086875               -3.09806045
               6.21318213                2.97529378               22.96605857                0.00010000               -1.02129746               -0.07404657               -0.15728589                2.01600438                6.14174376               -1.14514868
               7.20548500                2.88457779               22.93142957                0.00010000               -0.63611240               -0.15204810               -0.32936042                1.68951348                5.69920334                0.91167288
               8.20045988                2.79611261               22.89507543                0.00010000               -0.49401792               -0.17908162               -0.51218126                1.28538475                5.39358424                1.12209212
               9.19560464                2.71197298               22.85440225                0.00010000               -0.12429546                0.21348068               -0.72393911                0.44492178                3.37792588                2.54617481
              10.19797397                2.61989171               22.77779469                1.00000000                0.28726184                0.30343019               -0.98452576                0.00733750                0.79820405                0.97008018
              11.20134987                2.52789518               22.68544570                1.00000000                0.33759057                0.40416192               -1.30535497               -0.01436125                0.01344718               -0.61188211
               1.35237720                4.49106418               23.24221029                1.00000000               -0.20655639               -0.27614623                0.85373479               -0.02076729                0.08409178                1.26682316
               2.35031164                4.38219275               23.14337589                1.00000000               -0.16843462               -0.17509810                0.56944614                0.00010355                0.11430850               -0.16277882
               3.34900851                4.27292469               23.04509214                0.00010000               -0.08223081               -0.07497118                0.29543880               -0.03045937                1.13844653               -1.49046184
               4.34866702                4.16263874               22.96672669                0.00010000               -0.71001359                0.07108397               -0.00432184                0.72496610                6.00986878               -2.29042424
               5.33480824                4.07021096               22.96566036                0.00010000               -1.34837769                0.08665823               -0.09977510                1.40648824                9.45863320               -1.40804075
               6.32169947                3.97671924               22.95653892                0.00010000               -1.28866798                0.19967926               -0.18194832                1.27392476                8.77523899               -0.50997924
               7.30903488                3.88486011               22.94203917                0.00010000               -1.19615112                0.14797590               -0.28728261                1.11754621                8.36966332                0.55589693
               8.29777644                3.79653800               22.92491685                0.00010000               -1.07412107                0.12579443               -0.41892628                1.03869562                8.28876258                1.64838139
               9.28755246                3.71356619               22.90884528                0.00010000               -0.41196451                0.12592064               -0.58416518                0.44322399                4.51277658                3.01766862
              10.28953715                3.62271429               22.81605745                1.00000000                0.25709747                0.26241624               -0.90077576                0.00585500                0.37388472                0.95414164
              11.29269441                3.53193830               22.71698893                1.00000000                0.31572507                0.39938650               -1.23635789               -0.01791257                0.06449958               -0.45203839
               1.46049026                5.48846538               23.21469957                1.00000000               -0.16653567               -0.23766416                0.72329241               -0.02485411                0.12131065                1.10484718
               2.45882490                5.38066314               23.10895006                0.00010000               -0.12619191               -0.12903248                0.42144611               -0.00554183                0.23677930               -0.35883761
               3.45796642                5.27243588               23.00545390                0.15555342               -0.15935663               -0.02193785                0.13289476                0.03907697                1.82940498               -1.68986738
               4.45563777                5.16462513               22.93155079                0.00010000               -0.90031058                0.32702204               -0.28366322                0.50220716                7.79674443               -0.88518891
               5.43996021                5.07215646               22.94691154                0.00010000               -1.58131447                0.30759564               -0.21528395                1.09388408               11.76002617               -0.60036734
               6.42401148                4.97928737               22.95288967                0.00010000               -1.59715233                0.35162837               -0.20688454                0.85078825               11.07934470               -0.01267246
               7.40801716                4.88753731               22.95509823                0.00010000               -1.57418838                0.33965687               -0.24526711                0.71299955               10.81978649                0.76772407
               8.39252771                4.79862850               22.95613660                0.00010000               -1.48621641                0.24462102               -0.31828662                0.70709170               10.82232287                1.68486885
               9.37829283                4.71449139               22.95841462                0.00010000               -0.64043794                0.07104770               -0.42031441                0.31291717                5.60713255                2.61822469
              10.37971895                4.62514003               22.85491662                0.00010000                0.21253803                0.22475281               -0.77637611                0.00880446                0.19972619                0.96055431
              11.38254359                4.53588291               22.74882498                1.00000000                0.28246410                0.38368082               -1.15252585               -0.01970540                0.07579462               -0.46244355
               1.56748461                6.48631090               23.18554431                0.00010000               -0.12543063               -0.19173108                0.58720706               -0.02474778                0.06878472                0.96068721
               2.56623030                6.37961210               23.07199607                0.00010000               -0.08282779               -0.08217921                0.27129775               -0.00515141                0.23272035               -0.53922594
               3.56582805                6.27248593               22.96167244                0.00010000               -0.36198619                0.02860037               -0.03296626                0.21057878                3.56291842               -2.02398580
               4.55899058                6.16917918               22.91472958                0.00010000               -1.19021862                0.49809263               -0.52600212                0.48207351               10.13467881                0.11599836
               5.54202368                6.07636288               22.93512720                0.00010000               -1.78280977                0.52174109               -0.30143912                0.84802106               13.34535374               -0.05789507
               6.52333438                5.98375181               22.95337573                0.00010000               -1.90349715                0.55184044               -0.21901721                0.59554835               13.12789547                0.30318005
               7.50395374                5.89165324               22.97006738                0.00010000               -1.91850902                0.49246892               -0.19818867                0.37286280               13.03926726                0.88853126
               8.48496420                5.80143042               22.98689120                0.00010000               -1.83272363                0.31323303               -0.21540726                0.30659410               13.11657826                1.61373346
               9.46729927                5.71498714               23.00519509                0.00010000               -0.83212424                0.02946265               -0.25978423                0.10001691                6.69052095                2.39264605
              10.46832172                5.62720935               22.89331010                0.00010000                0.17576337                0.18848376               -0.65555648                0.00685625                0.11983553                0.89272406
              11.47081453                5.53961192               22.77996290                1.00000000                0.24928147                0.35841857               -1.05735388               -0.01605967                0.05361922               -0.52404885
               1.67339291                7.48463076               23.15511546                0.00010000               -0.08460661               -0.14521023                0.45120084               -0.02355302                0.02932790                0.87261713
               2.67254684                7.37901955               23.03390674                0.00010000               -0.03909991               -0.03715272                0.12460690               -0.00281100                0.16078289               -0.60956954
               3.67261091                7.27300789               22.91527424                0.00010000               -0.55722752                0.07383973               -0.19805542                0.40290044                5.45034170               -2.20585151
               4.66140229                7.17458698               22.89985898                0.00010000               -1.51314552                0.57297510               -0.54552243                0.69522814               12.76500593                0.03289771
               5.64234800                7.08259129               22.92720342                0.00010000               -2.03851067                0.72741219               -0.33297918                0.75875464               14.92956455                0.16307868
               6.62063208                6.99032418               22.95602503                0.00010000               -2.22760975                0.78169553               -0.21179241                0.40077571               15.00712596                0.42630473
               7.59779580                6.89738669               22.98560704                0.00010000               -2.26531907                0.68018566               -0.14689356                0.03604923               15.10661882                0.87351946
               8.57532569                6.80489316               23.01684345                0.00010000               -2.16407770                0.40082564               -0.11662412               -0.16305439               15.29901755                1.48619761
               9.55451425                6.71508064               23.05043700                0.00010000               -1.00471992               -0.00821549               -0.11229144               -0.16839916                7.75874112                2.24152917
              10.55523130                6.62890971               22.93079228                0.00010000                0.14514996                0.15115504               -0.53700469                0.00030639                0.06909161                0.80368577
              11.55741725                6.54305128               22.81033622                0.00010000                0.21859510                0.32774440               -0.96402318               -0.01303474                0.03655689               -0.59304754
               1.77823596                8.48340669               23.12414992                0.00010000               -0.04390081               -0.10124394                0.31722814               -0.02258129                0.01108853                0.84748579
               2.77779696                8.37886904               22.99549082                0.00010000                0.00413333                0.00694070               -0.01930768               -0.00065535                0.06124745               -0.62577524
               3.77831863                8.27396272               22.86778269                0.00010000               -0.72426069                0.11675958               -0.35880401                0.60441453                7.17372859               -2.14619487
               4.76331174                8.18063868               22.88137209                0.00010000               -1.84285252                0.68961206               -0.49369006                0.95928843               15.46780527               -0.09259723
               5.74146158                8.09091112               22.91972837                0.00010000               -2.33786248                0.95757699               -0.32192198                0.72586886               16.70426709                0.15994452
               6.71655449                7.99938572               22.95888335                0.00010000               -2.56779199                1.01419730               -0.19298710                0.25524300               16.82259196                0.37953136
               7.69010574                7.90525696               23.00026879                0.00010000               -2.62726638                0.94035778               -0.09641982               -0.24853793               17.08024116                0.70889827
               8.66400917                7.80944694               23.04511532                0.00010000               -2.50955031                0.57310867               -0.02645374               -0.71195723               17.45100267                1.22418076
               9.63991473                7.71482283               23.09424781                0.00010000               -1.18259814               -0.03616281                0.02045880               -0.51316180                8.85781531                2.01964165
              10.64035720                7.63023245               22.96734553                0.00010000                0.11779735                0.11621016               -0.42647232               -0.01100392                0.04057760                0.73217797
              11.64227068                7.54616681               22.83986086                0.00010000                0.19134794                0.29381864               -0.87720753               -0.01015019                0.02088462               -0.66828821
               1.88201659                9.48260588               23.09315861                0.00010000               -0.00388825               -0.06060111                0.18575576               -0.02198279               -0.00789116                0.72551885
               2.88197770                9.37915837               22.95703045                0.00010000                0.04564854                0.05049724               -0.16068230                0.00050349                0.07630675               -0.53894789
               3.88292956                9.27534308               22.82253442                0.00010000               -0.91690206                0.15788849               -0.50707472                0.86661980                8.94813768               -1.48720129
               4.86363966                9.18837923               22.86383900                0.00010000               -2.24056101                1.03530386               -0.45421495                0.94363083               18.03717599                0.02347667
               5.83811834                9.10174283               22.91158231                0.00010000               -2.61242815                1.13345501               -0.31413347                0.54719539               18.38239200                0.08957679
               6.81139110                9.01060812               22.96042837                0.00010000               -2.76772538                1.16647182               -0.17931796                0.14198559               18.56248610                0.21792039
               7.78276383                8.91619385               23.01240440                0.00010000               -2.99352114                1.15189607               -0.05637482               -0.31958152               18.95483203                0.40061942
               8.75152068                8.81635533               23.06978196                0.00010000               -2.96491629                1.02893297                0.05572317               -0.94748621               19.57784654                0.71775897
               9.72346550                8.71435739               23.13496775                0.00010000               -1.39267178               -0.03819812                0.13366472               -0.95558142               10.10312328                1.34474031
              10.72366724                8.63123391               23.00327715                0.00010000                0.09400076                0.08880016               -0.32749890               -0.02602312                0.11987464                0.59292210
              11.72534552                8.54892766               22.86850707                0.00010000                0.16782774                0.25927807               -0.80111036               -0.00971807               -0.02295009               -0.61359511
               1.98469134               10.48219467               23.05968543                0.00010000                0.03784904               -0.04112102                0.05452872                0.03590681                0.39763236                0.60516131
               2.98506983               10.37987899               22.92031375                0.00010000                0.08694150                0.07206192               -0.29703998                0.05550377                0.76385042               -0.45027938
               3.98643017               10.27712049               22.78821506                0.00010000               -1.46426087                0.17774150               -0.63726201                1.42335000               10.69496828               -0.94139032
               4.95578461               10.20134476               22.84746248                0.00010000               -2.81267891                1.29655351               -0.47906622                1.03748139               20.04185773                0.08998835
               5.93017659               10.11358022               22.90249578                0.00010000               -2.54207138                1.18373946               -0.33838255                0.27434537               19.92185611                0.05417090
               6.90494318               10.02271516               22.95978428                0.00010000               -2.61048444                1.21070351               -0.18421628                0.09094151               20.18383314                0.12612592
               7.87796690                9.92829488               23.02059068                0.00010000               -2.90236407                1.21010326               -0.03620530               -0.11417073               20.64196169                0.22722102
               8.84689590                9.83002560               23.08772344                0.00010000               -3.60211865                1.36702643                0.11029484               -1.17427777               21.41554599                0.41496498
               9.80592453                9.71405887               23.16505768                0.00010000               -2.08147177               -0.02985156                0.20316631               -1.65495471               11.57035601                0.83063778
              10.80526647                9.63200845               23.03684554                0.00010000                0.03821481                0.07745399               -0.24478001                0.02459781                0.82017488                0.48852629
              11.80668883                9.55135237               22.89891360                0.00010000                0.14223574                0.24247132               -0.72935075                0.06872284                0.34711324               -0.51478200
               0.98217558                0.54435178               24.36206433                1.00000000               -0.34783932               -0.37715192                1.31577888               -0.06582410               -0.81988554                0.85088902
               1.97869719                0.42468825               24.28102885                1.00000000               -0.29140775               -0.29885144                1.05581050               -0.05206548               -1.04916872                0.07073665
               2.97634742                0.30477038               24.19537824                1.00000000               -0.16282133               -0.22062705                0.78187156               -0.04126598               -1.00158592               -0.21010882
               3.97544076                0.18572708               24.11530292                1.00000000                0.28790212               -0.17354869                0.51807719                0.43703702               -0.08302289               -0.68295227
               4.98210547                0.07782231               24.04808082                0.00010000                0.43470450               -0.05618451                0.22383791               -0.08050481                0.36056207                0.19077352
               5.98413485               -0.02170062               23.97737100                0.00010000                0.14880575                0.02725254               -0.05322830               -0.00573343                0.00522004                0.10811765
               6.98508158               -0.11959656               23.90308555                0.00010000                0.08648398                0.10083295               -0.32795756                0.00677333               -0.19543705               -0.06684142
               7.98586453               -0.21766796               23.82827732                0.00010000                0.10483588                0.18858660               -0.61411783                0.01943411               -0.44255676                0.08665546
               8.98717830               -0.31776908               23.74883037                1.00000000                0.20164317                0.27830358               -0.89982649                0.00695046               -0.78362085                0.47985215
               9.98989739               -0.41940995               23.66702743                1.00000000                0.32734929                0.34863343               -1.17956196               -0.04045305               -0.82178353                0.00690315
              10.99372528               -0.52128540               23.58680010                1.00000000                0.38278926                0.42880659               -1.44597216               -0.05429079               -0.74592220               -0.75431103
               1.10118087                1.54058026               24.32986902                1.00000000               -0.32136411               -0.35835711                1.19247579               -0.02544685               -0.11221794                1.15671405
               2.09796723                1.42169973               24.24846807                1.00000000               -0.28827608               -0.27795398                0.93388323               -0.00812097               -0.09095144                0.09921841
               3.09541535                1.30256411               24.16745069                1.00000000               -0.23410329               -0.19809972                0.66676114                0.01674748                0.11601715               -0.57887842
               4.09328516                1.18399159               24.09014804                1.00000000               -0.52005427               -0.16131992                0.39430644                0.61929633                1.64438761               -1.08862800
               5.08501426                1.07726047               24.03962620                0.00010000               -0.52491059                0.06538928                0.15042681               -0.10753791                2.36881758                0.98635000
               6.08278695                0.97857191               23.97626873                0.00010000               -0.09406387                0.08777292               -0.10586126                0.13673576                1.50631527                0.40310290
               7.08313299                0.88141177               23.90838146                0.00010000                0.11790870                0.07380411               -0.36260712                0.18699830                1.40951261               -0.37040885
               8.08514513                0.78421791               23.84313118                0.00010000                0.24929046                0.18737570               -0.61336906                0.19640902                1.40818299                0.60185155
               9.08811880                0.68501396               23.77540854                1.00000000                0.30529480                0.26735884               -0.86540537                0.08775196                0.71798483                0.70224649
              10.09125102                0.58407639               23.69653125                1.00000000                0.34695172                0.34065571               -1.13025731                0.00247265                0.09208487                0.09674205
              11.09505783                0.48300267               23.61633707                1.00000000                0.38068079                0.42073994               -1.39575772               -0.01233270                0.02408868               -0.89452253
               1.21942770                2.53718464               24.30375391                1.00000000               -0.28767826               -0.32687262                1.08061445               -0.01800409                0.04094700                1.47066733
               2.21655092                2.41912917               24.21644041                1.00000000               -0.25185907               -0.24216504                0.81520963                0.00671709                0.19251861                0.07343686
               3.21439052                2.30080839               24.13211212                1.00000000               -0.17102929               -0.16505914                0.55971438                0.03912035                0.79647971               -1.33151088
               4.21313033                2.18250068               24.05685059                0.00010000               -1.45080646               -0.14491982                0.27834762                0.86444445                4.52537332               -1.99343714
               5.18537439                2.07913010               24.04708315                0.00010000               -1.52060324                0.14473278                0.07552264                1.61778643                5.07716625               -1.26630853
               6.18271827                1.98005484               23.98107543                0.00010000               -0.10994183               -0.07168907               -0.15058234                1.35835861                1.89022417               -0.37586569
               7.18317555                1.88187952               23.90762971                0.00010000                0.17361254               -0.14414438               -0.37984496                1.11957096                3.21857866                0.39968945
               8.18619052                1.78607955               23.86833077                0.00010000                0.29496516               -0.10396178               -0.61912031                0.75153568                3.76239270                0.93789456
               9.18907485                1.68757810               23.80650718                1.00000000                0.28838104                0.25958144               -0.81730453                0.14186726                1.78780807                1.40257214
              10.19195814                1.58740317               23.72789393                1.00000000                0.32756101                0.32645991               -1.07521937                0.01716607                0.64093649                0.62028641
              11.19562607                1.48712940               23.64312610                1.00000000                0.36679378                0.41030716               -1.35580667               -0.00818965                0.33243945               -0.90861347
               1.33693173                3.53404281               24.27781387                1.00000000               -0.24539083               -0.30298952                0.96684793               -0.01448819                0.06748321                1.42137104
               2.33447782                3.41685643               24.18333011                1.00000000               -0.20527422               -0.21132977                0.69359887                0.00704737                0.08217843               -0.03779801
               3.33282625                3.29926293               24.08908775                1.00000000               -0.11127395               -0.12652196                0.42448700                0.00113345                1.02932311               -1.61360107
               4.33225234                3.18109319               24.01352749                0.00010000               -0.65052092               -0.10055615                0.15379634                0.88382146                4.75140296               -2.66639631
               5.31981583                3.08015512               23.99368256                0.00010000               -1.25238199                0.03903395               -0.00023551                2.33319683                7.07912632               -3.10539486
               6.30720470                2.97713813               23.96445416                0.00010000               -1.01580665               -0.07837554               -0.16314581                1.92369715                6.27104069               -1.10402580
               7.29949970                2.87852888               23.92810118                0.00010000               -0.63637223               -0.15738699               -0.33666210                1.59938637                5.82577617                0.98677367
               8.29447726                2.78213867               23.88990683                0.00010000               -0.49335846               -0.17923002               -0.52164450                1.22156317                5.50742052                1.22254089
               9.28963253                2.69020559               23.84711262                0.00010000               -0.12171075                0.20024234               -0.73361522                0.41244228                3.46184658                2.63171254
              10.29204304                2.59060559               23.76790926                1.00000000                0.29045249                0.30034681               -0.99200338               -0.00001294                0.82870896                1.00021312
              11.29544158                2.49120881               23.67237090                1.00000000                0.33985316                0.40859462               -1.30903991               -0.01309349                0.01410373               -0.63455776
               1.45351069                4.53112485               24.25070001                1.00000000               -0.20389449               -0.27533707                0.84425450               -0.02028438                0.09180790                1.27788231
               2.45147174                4.41490257               24.14904163                1.00000000               -0.16671317               -0.17303156                0.56354695                0.00043568                0.12724770               -0.17570478
               3.45017643                4.29827795               24.04803814                0.00010000               -0.07785890               -0.07214332                0.29343993               -0.03802248                1.14520884               -1.52249485
               4.44991457                4.18048956               23.96672365                0.00010000               -0.70915179                0.06130065                0.00245223                0.68863353                6.09904068               -2.39510095
               5.43599339                4.07991078               23.96467893                0.00010000               -1.35480564                0.08389450               -0.09719667                1.33224811                9.66499713               -1.43190777
               6.42281845                3.97848733               23.95469783                0.00010000               -1.29153262                0.19395025               -0.18631336                1.19831365                8.98771048               -0.47571864
               7.41016274                3.87873178               23.93911987                0.00010000               -1.19366912                0.14030694               -0.29713470                1.04088250                8.57039425                0.62848583
               8.39894507                3.78249495               23.92065366                0.00010000               -1.06529771                0.11699932               -0.43405121                0.96337501                8.47163630                1.74604583
               9.38885678                3.69158295               23.90289575                0.00010000               -0.39952071                0.10599825               -0.60533199                0.40698982                4.61795958                3.13685956
              10.39095466                3.59341010               23.80696200                1.00000000                0.26504882                0.26093019               -0.91751589                0.00375074                0.39778316                1.00119603
              11.39415776                3.49530129               23.70456826                1.00000000                0.32031032                0.40662772               -1.24686880               -0.01888650                0.07922565               -0.45989738
               1.56897060                5.52853607               24.22187896                1.00000000               -0.16371592               -0.23637619                0.71264294               -0.02476073                0.12317256                1.10854330
               2.56733344                5.41339580               24.11313444                0.00010000               -0.12458902               -0.12645772                0.41519310               -0.00591887                0.24551643               -0.38162069
               3.56647881                5.29782006               24.00677986                0.15309925               -0.14706247               -0.01833675                0.13174370                0.02069725                1.78653206               -1.73852480
               4.56439219                5.18231921               23.92884725                0.00010000               -0.90079005                0.31210609               -0.25747954                0.46364043                7.92407510               -1.02898261
               5.54846301                5.08183301               23.94480327                0.00010000               -1.60211058                0.30637287               -0.20613766                1.02471536               12.10235494               -0.61574001
               6.53234997                4.98101713               23.95080624                0.00010000               -1.60766449                0.34916589               -0.20985946                0.77748465               11.38433543                0.02567146
               7.51630972                4.88133502               23.95258832                0.00010000               -1.57281915                0.33325351               -0.25733730                0.63534337               11.10066314                0.84013943
               8.50089359                4.78447866               23.95285516                0.00010000               -1.47262766                0.23437425               -0.33858493                0.62647103               11.08746961                1.78449339
               9.48685717                4.69232555               23.95406602                0.00010000               -0.62469389                0.05647091               -0.44947630                0.27481816                5.75072642                2.74540559
              10.48839971                4.59582419               23.84704149                0.00010000                0.22121508                0.22411134               -0.79790178                0.01080421                0.21124501                1.02518384
              11.49128147                4.49934136               23.73721901                1.00000000                0.28817581                0.39406120               -1.16757630               -0.02032746                0.07698283               -0.45691128
               1.68329601                6.52639733               24.19135875                0.00010000               -0.12266359               -0.18981363                0.57567021               -0.02470728                0.06801563                0.96156336
               2.68206937                6.41237342               24.07467925                0.00010000               -0.08145212               -0.07929778                0.26510961               -0.00570542                0.23791670               -0.56101263
               3.68166697                6.29791121               23.96134141                0.00010000               -0.34474737                0.03273290               -0.03362582                0.18239352                3.48676144               -2.07346878
               4.67517442                6.18673168               23.90963856                0.00010000               -1.19385977                0.48959860               -0.48861979                0.42273544               10.31268811                0.09514812
               5.65778977                6.08603823               23.93216626                0.00010000               -1.81541415                0.52271705               -0.28884912                0.77725711               13.81366781               -0.03525560
               6.63886614                5.98547065               23.95117109                0.00010000               -1.91908442                0.55181082               -0.22169384                0.51613574               13.51478338                0.35290737
               7.61940808                5.88539685               23.96801669                0.00010000               -1.91910929                0.48837487               -0.21257408                0.28893687               13.39633617                0.96101018
               8.60048396                5.78718244               23.98461822                0.00010000               -1.82002349                0.30546032               -0.24001442                0.21781593               13.46072799                1.70847090
               9.58300761                5.69271236               24.00242972                0.00010000               -0.81645133                0.02219309               -0.29372130                0.05574594                6.86823469                2.50876009
              10.58415493                5.59789233               23.88662111                0.00010000                0.18546258                0.18948395               -0.68178980                0.00921054                0.12431183                0.95213148
              11.58671686                5.50318252               23.76929344                1.00000000                0.25619344                0.36975605               -1.07555374               -0.01602070                0.05525401               -0.51413056
               1.79652426                7.52473980               24.15956770                0.00010000               -0.08188242               -0.14264286                0.43913799               -0.02350454                0.02865900                0.87441124
               2.79570544                7.41180985               24.03512432                0.00010000               -0.03779179               -0.03444081                0.11863104               -0.00302467                0.16215930               -0.62787866
               3.79576843                7.29847472               23.91329489                0.00010000               -0.54927815                0.07726323               -0.19814537                0.37155415                5.44627435               -2.25173639
               4.78471988                7.19211118               23.89453549                0.00010000               -1.52496216                0.57330611               -0.51083743                0.61802563               13.02203643                0.15137007
               5.76526918                7.09228735               23.92392380                0.00010000               -2.07029002                0.73004010               -0.32017003                0.68493371               15.42675491                0.22643086
               6.74331407                6.99205335               23.95388529                0.00010000               -2.24462552                0.78410203               -0.21570601                0.31862875               15.45241708                0.48398206
               7.72037667                6.89110251               23.98405651                0.00010000               -2.26898400                0.67959145               -0.16381345               -0.05241159               15.52928731                0.94139373
               8.69793439                6.79058786               24.01553923                0.00010000               -2.15572385                0.39783609               -0.14518956               -0.25691899               15.71326599                1.56997795
               9.67726220                6.69276941               24.04912211                0.00010000               -0.99103104               -0.00806478               -0.15149603               -0.21753318                7.97001091                2.34114666
              10.67811377                6.59961387               23.92526716                0.00010000                0.15592469                0.15504842               -0.56805255                0.00137824                0.07069632                0.85591252
              11.68038069                6.50673648               23.80058432                0.00010000                0.22669158                0.33898339               -0.98568252               -0.01237014                0.03743692               -0.58813199
               1.90868582                8.52354447               24.12726120                0.00010000               -0.04118632               -0.09810670                0.30481021               -0.02252000                0.01059219                0.85139476
               2.90827395                8.41168460               23.99527116                0.00010000                0.00554495                0.00922681               -0.02499076               -0.00057682                0.05937964               -0.64104403
               3.90879672                8.29945648               23.86420055                0.00010000               -0.72758247                0.11850193               -0.35801548                0.57407372                7.27685273               -2.18243031
               4.89372230                8.19819780               23.87655699                0.00010000               -1.86252213                0.69446340               -0.46133983                0.88753343               15.82381443                0.04670434
               5.87154627                8.10063904               23.91654057                0.00010000               -2.36493742                0.96152305               -0.31303316                0.66226296               17.20217730                0.23239411
               6.84642356                8.00115269               23.95691841                0.00010000               -2.58604681                1.02028666               -0.19959668                0.18344721               17.30770506                0.43073882
               7.81982534                7.89898868               23.99921128                0.00010000               -2.63724399                0.94657328               -0.11553477               -0.33045822               17.55975301                0.76327382
               8.79367868                7.79513916               24.04469528                0.00010000               -2.50971978                0.57642760               -0.05846592               -0.80461084               17.92787018                1.29573980
               9.76963094                7.69255107               24.09422792                0.00010000               -1.17316262               -0.02847624               -0.02563023               -0.56439314                9.10178432                2.10083611
              10.77021542                7.60099330               23.96289923                0.00010000                0.12966445                0.12408525               -0.46331612               -0.01148943                0.04270338                0.77323830
              11.77222423                7.50996218               23.83095640                0.00010000                0.20088067                0.30460562               -0.90336646               -0.00893657                0.02162774               -0.67281488
               2.01979359                9.52277766               24.09495412                0.00010000               -0.00117025               -0.05698987                0.17300810               -0.02193432               -0.00870713                0.73081535
               3.01978189                9.41199438               23.95539898                0.00010000                0.04715554                0.05234998               -0.16607465                0.00062046                0.07573901               -0.55012583
               4.02073670                9.30084476               23.81747590                0.00010000               -0.92469523                0.15810246               -0.50507328                0.83957092                9.14853760               -1.50754252
               5.00128799                9.20600045               23.85936864                0.00010000               -2.25885763                1.03975830               -0.43583766                0.89768379               18.48913002                0.11353530
               5.97555955                9.11151781               23.90844685                0.00010000               -2.63273044                1.13908238               -0.31143356                0.50991757               18.89181453                0.13337960
               6.94863338                9.01245908               23.95858304                0.00010000               -2.78892563                1.17709479               -0.18959564                0.09910127               19.08719646                0.24694639
               7.91978104                8.91003398               24.01173627                0.00010000               -3.01767951                1.16713480               -0.07751022               -0.37454331               19.49171301                0.43042500
               8.88827979                8.80211641               24.07018709                0.00010000               -2.98304229                1.04669210                0.02555754               -1.01668110               20.11186401                0.76588163
               9.86012019                8.69219989               24.13604194                0.00010000               -1.39034580               -0.02354855                0.07951046               -1.00473834               10.37655315                1.39468151
              10.86047287                8.60209557               23.99978723                0.00010000                0.10719990                0.10089356               -0.37145313               -0.02746552                0.12690868                0.61979900
              11.86226419                8.51282860               23.86033742                0.00010000                0.17913201                0.26995183               -0.83280044               -0.00835996               -0.02137379               -0.62624580
               2.12981369               10.52240467               24.06016822                0.00010000                0.04055753               -0.03729916                0.04161310                0.03470281                0.40085312                0.61077757
               3.13021927               10.41273160               23.91731977                0.00010000                0.08841901                0.07372197               -0.30232444                0.05443033                0.77300820               -0.45864517
               4.13158207               10.30261853               23.78185726                0.00010000               -1.46081701                0.17737685               -0.63492885                1.39760476               10.95741651               -0.95244242
               5.10100293               10.21899297               23.84268888                0.00010000               -2.81480409                1.29925188               -0.47485113                1.01160167               20.57347164                0.13590599
               6.07528599               10.12342068               23.89909566                0.00010000               -2.55567545                1.19028691               -0.34092435                0.25772470               20.47089191                0.07220784
               7.04988942               10.02469459               23.95787136                0.00010000               -2.63044246                1.22355031               -0.19861133                0.07113838               20.75628826                0.13635236
               8.02267714                9.92233137               24.02010830                0.00010000               -2.93551357                1.22973941               -0.06062800               -0.14146920               21.23224285                0.23814412
               8.99117914                9.81607300               24.08867402                0.00010000               -3.65600622                1.39565871                0.08094592               -1.22262806               21.99271309                0.43946511
               9.94955701                9.69208010               24.16679212                0.00010000               -2.10708696               -0.01197915                0.14170459               -1.70940938               11.87920013                0.85976837
              10.94903741                9.60301117               24.03414807                0.00010000                0.05169853                0.09155964               -0.29601430                0.02050953                0.85202482                0.50787406
              11.95059099                9.51536122               23.89143141                0.00010000                0.15535800                0.25326227               -0.76727054                0.06768434                0.36174313               -0.52978423
               1.05623273                0.58574560               25.37518837                1.00000000               -0.34653084               -0.37540696                1.30930071               -0.06517687               -0.83561297                0.86528689
               2.05276742                0.45858906               25.29155779                1.00000000               -0.29116520               -0.29709520                1.05041274               -0.05114377               -1.07211162                0.07537172
               3.05040943                0.33116885               25.20317503                1.00000000               -0.16498648               -0.21887593                0.77810632               -0.04134690               -1.02717513               -0.21038118
               4.04946769                0.20455647               25.12046695                1.00000000                0.27269967               -0.17196481                0.51550200                0.41684881               -0.11976971               -0.70415396
               5.05586342                0.08860132               25.05031179                0.00010000                0.41969665               -0.05636922                0.22316395               -0.08102693                0.31324377                0.20070672
               6.05786162               -0.01922186               24.97684522                0.00010000                0.14926365                0.02674357               -0.05171291               -0.00833275               -0.03413155                0.11446525
               7.05884869               -0.12539766               24.89982492                0.00010000                0.09407825                0.09971924               -0.32465334                0.00530911               -0.23981278               -0.06889240
               8.05974319               -0.23162886               24.82216996                0.00010000                0.11493588                0.18660595               -0.60837396                0.01524724               -0.49196866                0.09219290
               9.06114741               -0.33965937               24.73987895                1.00000000                0.20681085                0.27487576               -0.89165305                0.00373948               -0.82909211                0.49192252
              10.06387941               -0.44909130               24.65529226                1.00000000                0.32673509                0.34576876               -1.16870872               -0.03955089               -0.85692725                0.00675388
              11.06768211               -0.55874593               24.57240974                1.00000000                0.38027050                0.42626846               -1.43341306               -0.05221209               -0.77382056               -0.77965008
               1.18273751                1.58199153               25.34175941                1.00000000               -0.31931473               -0.35696228                1.18568896               -0.02469579               -0.11536756                1.17655056
               2.17954436                1.45561810               25.25777717                1.00000000               -0.28626270               -0.27628793                0.92819015               -0.00726612               -0.09830778                0.10536576
               3.17701225                1.32898009               25.17409629                1.00000000               -0.23122065               -0.19612405                0.66244105                0.01483762                0.10197588               -0.57543765
               4.17491995                1.20283682               25.09408193                1.00000000               -0.50349693               -0.15869062                0.39187356                0.59139389                1.64140868               -1.10685552
               5.16694231                1.08803763               25.04111165                0.00010000               -0.50710797                0.06282882                0.14692500               -0.10898998                2.37823877                0.99493802
               6.16477779                0.98104557               24.97520148                0.00010000               -0.09185163                0.08596466               -0.10744822                0.12460371                1.51153986                0.41333261
               7.16510528                0.87559953               24.90475806                0.00010000                0.11243649                0.07864016               -0.36225855                0.17613019                1.41799116               -0.36373887
               8.16702652                0.77023720               24.83700804                0.00010000                0.24053723                0.18653647               -0.61177334                0.17904945                1.41972425                0.60430115
               9.16991603                0.66308939               24.76677543                1.00000000                0.30003321                0.26516468               -0.86178485                0.08039477                0.72324631                0.72122772
              10.17302718                0.55436639               24.68525782                1.00000000                0.34492992                0.33823509               -1.12507286                0.00301871                0.09099606                0.10006721
              11.17681462                0.44551675               24.60241806                1.00000000                0.37874438                0.41974511               -1.38873624               -0.01041795                0.02314671               -0.92411754
               1.30848567                2.57860636               25.31452268                1.00000000               -0.28521300               -0.32609511                1.07303257               -0.01718611                0.04236619                1.49479835
               2.30563354                2.45306330               25.22456223                1.00000000               -0.24991019               -0.24050893                0.80928153                0.00743388                0.19889927                0.07962959
               3.30348746                2.32724637               25.13768149                1.00000000               -0.16977523               -0.16214163                0.55470530                0.03588950                0.79476439               -1.33739184
               4.30223803                2.20138265               25.05960940                0.00010000               -1.40063009               -0.14171756                0.27336818                0.82747758                4.54972116               -2.01210916
               5.27547486                2.08985790               25.04780336                0.00010000               -1.47231209                0.13409985                0.06873395                1.53696344                5.14995245               -1.25694387
               6.27279179                1.98249743               24.97954658                0.00010000               -0.11475979               -0.07273544               -0.15486671                1.28618907                1.95153654               -0.34525694
               7.27317967                1.87617514               24.90381464                0.00010000                0.15212644               -0.13882093               -0.38280584                1.05235032                3.27314264                0.44412086
               8.27583432                1.77210187               24.86212442                0.00010000                0.27232258               -0.09983341               -0.62271405                0.70195534                3.83444747                0.98911940
               9.27862612                1.66564393               24.79832150                1.00000000                0.28390487                0.25646331               -0.81994695                0.12473214                1.85013707                1.44599999
              10.28151242                1.55767340               24.71714089                1.00000000                0.32734530                0.32307538               -1.07537607                0.01338686                0.66252803                0.64062525
              11.28517302                1.44964897               24.62958090                1.00000000                0.36606063                0.41225578               -1.35320314               -0.00774078                0.34279976               -0.93961584
               1.43347990                3.57546963               25.28744078                1.00000000               -0.24268779               -0.30248092                0.95836412               -0.01394737                0.07214959                1.43973102
               2.43105302                3.45080793               25.19023643                1.00000000               -0.20346067               -0.20944874                0.68765221                0.00762776                0.08924487               -0.03739553
               3.42941069                3.32573726               25.09331837                1.00000000               -0.10975252               -0.12318493                0.42179997               -0.00311297                1.03663047               -1.63063418
               4.42885797                3.20000247               25.01504463                0.00010000               -0.64219413               -0.09828446                0.15121276                0.83756893                4.81542545               -2.69873140
               5.41656680                3.09071962               24.99366163                0.00010000               -1.23368265                0.02970975               -0.00360606                2.21237680                7.20424461               -3.10561521
               6.40418432                2.97959087               24.96279565                0.00010000               -1.00094790               -0.08223214               -0.16849324                1.81622180                6.39615901               -1.05966378
               7.39654785                2.87282312               24.92469632                0.00010000               -0.62937394               -0.16162304               -0.34447097                1.49784669                5.94734932                1.06249282
               8.39159684                2.76824054               24.88464254                0.00010000               -0.48543543               -0.17956434               -0.53135874                1.14972566                5.61711445                1.32175550
               9.38683914                2.66821866               24.83972994                0.00010000               -0.11534833                0.18530280               -0.74250229                0.37822763                3.54339375                2.71379276
              10.38928987                2.56082790               24.75795462                1.00000000                0.29347680                0.29662858               -0.99815284               -0.00744512                0.85832253                1.02914399
              11.39270867                2.45376187               24.65926491                1.00000000                0.34188001                0.41216393               -1.31138399               -0.01193427                0.01438908               -0.65526239
               1.55753013                4.57255674               25.25909538                1.00000000               -0.20116646               -0.27460596                0.83467490               -0.02009926                0.09980577                1.28711198
               2.55551846                4.44887432               25.15464683                1.00000000               -0.16497321               -0.17074129                0.55738550                0.00036169                0.14071481               -0.18864508
               3.55423066                4.32478267               25.05096094                0.00010000               -0.07557083               -0.06875738                0.29107738               -0.04418962                1.15458971               -1.55282878
               4.55400705                4.19941696               24.96677573                0.00010000               -0.70483323                0.05640532                0.00747072                0.64536536                6.18887505               -2.48613837
               5.54013400                4.09045209               24.96371643                0.00010000               -1.34971551                0.08173565               -0.09544986                1.24586671                9.86228435               -1.44654133
               6.52701274                3.98085279               24.95281265                0.00010000               -1.28235341                0.18683369               -0.19101354                1.11097090                9.19018670               -0.43736404
               7.51448693                3.87294268               24.93609648                0.00010000               -1.17897225                0.13100839               -0.30790696                0.95457243                8.76124772                0.70254899
               8.50343329                3.76851059               24.91623583                0.00010000               -1.04418114                0.10566375               -0.44973928                0.88049296                8.64449399                1.84274422
               9.49360331                3.66934998               24.89673864                0.00010000               -0.38064939                0.08234348               -0.62553873                0.36886403                4.71766695                3.25149192
              10.49582030                3.56360598               24.79770713                1.00000000                0.27315433                0.25783492               -0.93230859                0.00216293                0.42185157                1.04792177
              11.49906640                3.45789225               24.69205155                1.00000000                0.32460913                0.41288170               -1.25524856               -0.02039479                0.09465198               -0.46515810
               1.68044274                5.56997751               25.22895243                1.00000000               -0.16084214               -0.23516550                0.70195873               -0.02475137                0.12491411                1.11058171
               2.67883432                5.44739310               25.11725392                0.00010000               -0.12292452               -0.12361822                0.40848172               -0.00639431                0.25449446               -0.40425881
               3.67798425                5.32436211               25.00808877                0.00010000               -0.13692311               -0.01405727                0.12964198                0.00553939                1.75550052               -1.78537702
               4.67609586                5.20113057               24.92640120                0.00010000               -0.89679696                0.29884701               -0.23225584                0.42023390                8.05084694               -1.15418049
               5.66004831                5.09235434               24.94278879                0.00010000               -1.60913581                0.30425721               -0.19685998                0.94137366               12.42474772               -0.62305449
               6.64391314                4.98332754               24.94869248                0.00010000               -1.60334080                0.34390569               -0.21316904                0.69279148               11.67310546                0.06783790
               7.62798150                4.87544328               24.94995149                0.00010000               -1.55568720                0.32312846               -0.27054060                0.54863364               11.36693916                0.91401354
               8.61279940                4.77035381               24.94936490                0.00010000               -1.44302344                0.22025929               -0.35991019                0.53773413               11.33804071                1.88356591
               9.59912103                4.66986553               24.94942510                0.00010000               -0.60042669                0.03781352               -0.47864768                0.23442709                5.88743468                2.87070285
              10.60079086                4.56598460               24.83895858                0.00010000                0.23036000                0.22101682               -0.81765258                0.01389513                0.22338060                1.09116276
              11.60372823                4.46201950               24.72547345                1.00000000                0.29373632                0.40358703               -1.18013061               -0.02108162                0.07785308               -0.44736413
               1.80220392                6.56785343               25.19705771                0.00010000               -0.11979452               -0.18804869                0.56403114               -0.02464250                0.06717106                0.96119952
               2.80100598                6.44640196               25.07729826                0.00010000               -0.07999712               -0.07615135                0.25845585               -0.00616961                0.24314777               -0.58229781
               3.80060398                6.32450153               24.96099992                0.00010000               -0.32932384                0.03759553               -0.03508644                0.15664637                3.42904664               -2.12102813
               4.79441950                6.20539390               24.90495718                0.00010000               -1.19197364                0.47826888               -0.44503500                0.35769786               10.49190621                0.08425243
               5.77676451                6.09653723               24.92935022                0.00010000               -1.83199393                0.51956264               -0.27331917                0.69109864               14.25413755               -0.00753093
               6.75777962                5.98773090               24.94894185                0.00010000               -1.91655863                0.54644777               -0.22420156                0.42512927               13.88069565                0.40532387
               7.73843333                5.87940525               24.96581590                0.00010000               -1.90069453                0.47883427               -0.22816929                0.19654905               13.73512831                1.03474560
               8.71976573                5.77291577               24.98209091                0.00010000               -1.78861345                0.29309209               -0.26610025                0.12135097               13.78759154                1.80316452
               9.70266106                5.67010625               24.99932067                0.00010000               -0.79107500                0.01199214               -0.32842753                0.00880272                7.03727264                2.62413913
              10.70394423                5.56802631               24.87967430                0.00010000                0.19569414                0.18826223               -0.70691537                0.01249394                0.12868975                1.01247119
              11.70657495                5.46596399               24.75845182                1.00000000                0.26307171                0.38030908               -1.09158444               -0.01606086                0.05669009               -0.50009731
               1.92285283                7.56621654               25.16389822                0.00010000               -0.07899995               -0.14026294                0.42683041               -0.02344776                0.02793541                0.87533880
               2.92206283                7.44587007               25.03627936                0.00010000               -0.03637981               -0.03142263                0.11209605               -0.00316449                0.16343471               -0.64563049
               3.92212523                7.32511402               24.91131133                0.00010000               -0.54243614                0.08157919               -0.19891421                0.33958765                5.46088465               -2.29572551
               4.91121411                7.21069595               24.88964224                0.00010000               -1.52959732                0.56728540               -0.46162194                0.53300410               13.27923027                0.27165160
               5.89153329                7.10274559               24.92080002                0.00010000               -2.08331987                0.72493619               -0.30270788                0.59698729               15.89380855                0.29091013
               6.86954771                6.99425649               24.95171091                0.00010000               -2.24028392                0.77859241               -0.21906177                0.22663190               15.87408245                0.54295963
               7.84672761                6.88501997               24.98233077                0.00010000               -2.25111462                0.67187089               -0.18192211               -0.14751228               15.93112992                1.01073698
               8.82452542                6.77621565               25.01393966                0.00010000               -2.12705331                0.38990539               -0.17550312               -0.35651995               16.10746847                1.65425319
               9.80418654                6.67010537               25.04740708                0.00010000               -0.96712052               -0.00932665               -0.19198982               -0.26901997                8.17052367                2.43889221
              10.80518301                6.56974984               24.91943123                0.00010000                0.16725555                0.15754137               -0.59897299                0.00294375                0.07157700                0.90838486
              11.80753165                6.46962569               24.79062257                0.00010000                0.23486465                0.34967104               -1.00591410               -0.01171869                0.03811692               -0.58003919
               2.04242789                8.56504817               25.13024612                0.00010000               -0.03826924               -0.09506851                0.29194706               -0.02247180                0.01008352                0.85458116
               3.04204520                8.44577351               24.99499101                0.00010000                0.00709806                0.01185822               -0.03139383               -0.00035942                0.05742703               -0.65576265
               4.04256985                8.32613311               24.86062238                0.00010000               -0.72985937                0.12107511               -0.35793318                0.53857588                7.39656664               -2.21661783
               5.02744801                8.21673961               24.87214529                0.00010000               -1.87130734                0.69110469               -0.41481091                0.80700286               16.17689699                0.17857192
               6.00514371                8.11103596               24.91346771                0.00010000               -2.37050666                0.95548679               -0.29988809                0.58850404               17.66928578                0.30237347
               6.98003788                8.00330275               24.95489142                0.00010000               -2.58098883                1.01688034               -0.20574222                0.10523017               17.76944728                0.48224186
               7.95352393                7.89284267               24.99795810                0.00010000               -2.62439754                0.94426795               -0.13548819               -0.41612185               18.01709323                0.81965204
               8.92754993                7.78071388               25.04394600                0.00010000               -2.48887274                0.57392882               -0.09201542               -0.89980389               18.38084096                1.37141678
               9.90374648                7.66991972               25.09373520                0.00010000               -1.15335696               -0.02092775               -0.07377778               -0.61634301                9.33208194                2.17863030
              10.90448279                7.57117714               24.95807921                0.00010000                0.14212040                0.13156025               -0.50106460               -0.01176924                0.04388337                0.81339805
              11.90658888                7.47295741               24.82179353                0.00010000                0.21060940                0.31510247               -0.92894043               -0.00767269                0.02221349               -0.67528444
               2.16095272                9.56431517               25.09661878                0.00010000                0.00179818               -0.05330799                0.15959612               -0.02192227               -0.00949591                0.73550496
               3.16097070                9.44610724               24.95370896                0.00010000                0.04889629                0.05454951               -0.17239403                0.00080603                0.07528804               -0.56085790
               4.16193064                9.32753552               24.81243295                0.00010000               -0.92596925                0.15879131               -0.50384161                0.80251733                9.35583273               -1.52614427
               5.14245131                9.22451804               24.85512225                0.00010000               -2.25952075                1.03413990               -0.41073473                0.84437137               18.93441404                0.18933631
               6.11674023                9.12185533               24.90535364                0.00010000               -2.63028572                1.13453952               -0.30645903                0.46721485               19.37704014                0.17446173
               7.08984560                9.01459410               24.95663646                0.00010000               -2.78730932                1.17814076               -0.19987476                0.05342151               19.59060578                0.27596482
               8.06099404                8.90390533               25.01085420                0.00010000               -3.01966557                1.17355170               -0.09899364               -0.43073514               20.00898061                0.46194609
               9.02945229                8.78769423               25.07029311                0.00010000               -2.97988103                1.05635779               -0.00333936               -1.08510485               20.61696376                0.82056933
              10.00139642                8.66968682               25.13655796                0.00010000               -1.37711789               -0.00829244                0.02231990               -1.05125897               10.62952213                1.44088448
              11.00190993                8.57238105               24.99584808                0.00010000                0.12106166                0.11335549               -0.41726534               -0.02870965                0.13293557                0.64507422
              12.00381766                8.47592774               24.85185106                0.00010000                0.19077241                0.28056505               -0.86461502               -0.00692484               -0.01958898               -0.63762294
               2.27840530               10.56398201               25.06051770                0.00010000                0.04356579               -0.03331577                0.02788134                0.03350745                0.40372758                0.61587826
               3.27884096               10.44686450               24.91426726                0.00010000                0.09020442                0.07572588               -0.30876514                0.05337267                0.78185207               -0.46664656
               4.28020939               10.32930894               24.77551649                0.00010000               -1.44126622                0.17734117               -0.63360173                1.35577066               11.21736743               -0.96225938
               5.25001564               10.23742241               24.83796546                0.00010000               -2.78987234                1.29043662               -0.46981436                0.97732303               21.09484466                0.16852686
               6.22441195               10.13372675               24.89567729                0.00010000               -2.54796651                1.18714233               -0.34266546                0.23932956               21.00167818                0.08882785
               7.19905631               10.02686557               24.95581205                0.00010000               -2.63014228                1.22714646               -0.21374542                0.05041857               21.30842549                0.14686352
               8.17180910                9.91631371               25.01937812                0.00010000               -2.94949821                1.24083775               -0.08554233               -0.16972067               21.80572203                0.25051556
               9.14006634                9.80184104               25.08934236                0.00010000               -3.68873111                1.41468075                0.05494650               -1.26658612               22.53810071                0.47007636
              10.09803448                9.66975387               25.16789177                0.00010000               -2.11993335                0.00670572                0.07640565               -1.75603362               12.16129384                0.88545064
              11.09766768                9.57344425               25.03092526                0.00010000                0.06612652                0.10632039               -0.34985891                0.01651663                0.88197988                0.52557496
              12.09935701                9.47856871               24.88356819                0.00010000                0.16893321                0.26409781               -0.80579041                0.06638172                0.37631465               -0.54369468
               1.13272448                0.62851544               26.38825034                1.00000000               -0.34561903               -0.37384814                1.30343382               -0.06450036               -0.85065824                0.87895315
               2.12926829                0.49375692               26.30203711                1.00000000               -0.29148603               -0.29543128                1.04583964               -0.05017001               -1.09408655                0.07995716
               3.12689476                0.35872024               26.21094037                1.00000000               -0.16798428               -0.21713352                0.77538186               -0.04160871               -1.05163048               -0.21046909
               4.12590861                0.22441405               26.12561296                1.00000000                0.25486544               -0.17020162                0.51412854                0.39476124               -0.15508654               -0.72415740
               5.13199207                0.10023672               26.05254410                0.00010000                0.40152432               -0.05690606                0.22409848               -0.08015215                0.26735154                0.21025938
               6.13393909               -0.01612383               25.97633675                0.00010000                0.14842592                0.02610325               -0.04963290               -0.01064499               -0.07272793                0.12079414
               7.13496059               -0.13084069               25.89659249                0.00010000                0.10160158                0.09879493               -0.32220429                0.00374389               -0.28333561               -0.07065640
               8.13597112               -0.24550027               25.81610984                0.00010000                0.12567818                0.18497386               -0.60462524                0.01096634               -0.53973488                0.09720002
               9.13747415               -0.36172359               25.73099731                1.00000000                0.21284678                0.27195490               -0.88590082                0.00069420               -0.87240043                0.50414594
              10.14022806               -0.47920597               25.64365326                1.00000000                0.32698880                0.34350775               -1.16042452               -0.03854735               -0.89021287                0.00682050
              11.14401393               -0.59689504               25.55813184                1.00000000                0.37858683                0.42441996               -1.42355843               -0.05027154               -0.80037632               -0.80342690
               1.26683800                1.62477696               26.35358280                1.00000000               -0.31738066               -0.35581008                1.17912954               -0.02386277               -0.11852508                1.19539267
               2.26366419                1.49080261               26.26703187                1.00000000               -0.28439434               -0.27472108                0.92295738               -0.00631240               -0.10571364                0.11154618
               3.26115011                1.35654891               26.18069951                1.00000000               -0.22831076               -0.19408842                0.65830105                0.01266476                0.08788089               -0.57137061
               4.25909798                1.22271203               26.09798551                1.00000000               -0.48453133               -0.15591282                0.38856478                0.56065176                1.63760825               -1.12434228
               5.25145949                1.09966766               26.04256470                0.00010000               -0.48633145                0.06022586                0.14413762               -0.10653182                2.38739862                1.00308515
               6.24937135                0.98413721               25.97411976                0.00010000               -0.08866186                0.08396778               -0.10862711                0.11391077                1.51778517                0.42377191
               7.24968625                0.87014726               25.90113629                0.00010000                0.10754449                0.08321769               -0.36234173                0.16561208                1.42704407               -0.35682017
               8.25152224                0.75634947               25.83089571                0.00010000                0.23238495                0.18638571               -0.61134231                0.16250924                1.43162096                0.60549232
               9.25433395                0.64099596               25.75817284                1.00000000                0.29530386                0.26335853               -0.85942745                0.07333002                0.72888801                0.73948799
              10.25742832                0.52422910               25.67402979                1.00000000                0.34331677                0.33624195               -1.12129239                0.00372173                0.09018243                0.10396078
              11.26120028                0.40734916               25.58856235                1.00000000                0.37719675                0.41926385               -1.38318264               -0.00858800                0.02258530               -0.95131076
               1.40019593                2.62139924               26.32521457                1.00000000               -0.28258315               -0.32561152                1.06529585               -0.01640336                0.04368178                1.51773800
               2.39737010                2.48826250               26.23262605                1.00000000               -0.24786475               -0.23893445                0.80356623                0.00800817                0.20480594                0.08609841
               3.39523864                2.35483847               26.14320622                1.00000000               -0.16836075               -0.15890550                0.55053494                0.03169165                0.79131348               -1.34109199
               4.39400288                2.22129579               26.06231795                0.00010000               -1.34011885               -0.13798978                0.26817370                0.78611913                4.57079221               -2.02743301
               5.36843626                2.10144124               26.04845783                0.00010000               -1.41325875                0.12310398                0.06310537                1.44749746                5.22099662               -1.24556935
               6.36573771                1.98555553               25.97797809                0.00010000               -0.11878465               -0.07292131               -0.15818771                1.20521353                2.01330240               -0.31381369
               7.36606057                1.87082367               25.89997360                0.00010000                0.13174504               -0.13251806               -0.38538580                0.97927343                3.32629061                0.48780827
               8.36837261                1.75822745               25.85587649                0.00010000                0.25002772               -0.09435518               -0.62801900                0.64918032                3.90431346                1.03840532
               9.37106112                1.64354358               25.79010824                1.00000000                0.27883457                0.25341703               -0.82300801                0.10728919                1.91189895                1.48793849
              10.37394930                1.52751886               25.70638641                1.00000000                0.32704719                0.31965606               -1.07557696                0.00964332                0.68426077                0.66174010
              11.37760206                1.41149023               25.61606204                1.00000000                0.36527625                0.41418737               -1.35060812               -0.00743758                0.35327645               -0.96734221
               1.53278341                3.61826473               26.29698115                1.00000000               -0.23982889               -0.30219029                0.94956421               -0.01368223                0.07686449                1.45688526
               2.53038512                3.48602392               26.19708316                1.00000000               -0.20163787               -0.20751589                0.68167853                0.00782267                0.09672038               -0.03663979
               3.52875066                3.35337080               26.09752374                1.00000000               -0.10837664               -0.11937513                0.41944128               -0.00854999                1.04377966               -1.64529087
               4.52821759                3.21995224               26.01655174                0.00010000               -0.63004798               -0.09427851                0.15098741                0.78463173                4.87667462               -2.72399912
               5.51614970                3.10212974               25.99361043                0.00010000               -1.20621991                0.02057755               -0.00632272                2.07462207                7.32537033               -3.10039756
               6.50409319                2.98267878               25.96108429                0.00010000               -0.97749482               -0.08561529               -0.17370756                1.69357953                6.51607557               -1.01344982
               7.49659980                2.86749690               25.92121176                0.00010000               -0.61536326               -0.16480369               -0.35279396                1.38437676                6.06361656                1.13729310
               8.49178593                2.75446237               25.87927965                0.00010000               -0.47057435               -0.17999875               -0.54162048                1.06937895                5.72331158                1.41910450
               9.48718831                2.64606430               25.83226258                0.00010000               -0.10556977                0.16870246               -0.75059715                0.34187770                3.62356013                2.79201570
              10.48967453                2.53062222               25.74794620                1.00000000                0.29602408                0.29228576               -1.00244418               -0.01509643                0.88742856                1.05730161
              11.49310879                2.41563290               25.64614322                1.00000000                0.34342620                0.41496750               -1.31191844               -0.01093736                0.01423092               -0.67324214
               1.66440391                4.61535544               26.26739351                1.00000000               -0.19834198               -0.27396775                0.82479728               -0.02020106                0.10792509                1.29507073
               2.66242049                4.48411218               26.16018934                1.00000000               -0.16322929               -0.16823617                0.55103834               -0.00013052                0.15452091               -0.20151673
               3.66113932                4.35245097               26.05385969                0.00010000               -0.07419580               -0.06486296                0.28867933               -0.05055367                1.16604820               -1.58188428
               4.66093657                4.21941022               25.96687306                0.00010000               -0.69685830                0.05509555                0.01188637                0.59466702                6.27907033               -2.56412310
               5.64720216                4.10185279               25.96276993                0.00010000               -1.33472149                0.08041967               -0.09400547                1.14749953               10.05192662               -1.45341737
               6.63424214                3.98384322               25.95087756                0.00010000               -1.26188210                0.17829550               -0.19630067                1.01154966                9.38240279               -0.39569488
               7.62196451                3.86752759               25.93296173                0.00010000               -1.15246770                0.11994806               -0.31950915                0.85802674                8.94225929                0.77695533
               8.61119279                3.75462747               25.91165887                0.00010000               -1.01128485                0.09162643               -0.46594733                0.78924553                8.80826132                1.93742094
               9.60173882                3.64691763               25.89038497                0.00010000               -0.35570077                0.05466395               -0.64448942                0.32804889                4.81318658                3.36048228
              10.60407877                3.53336458               25.78831583                1.00000000                0.28115714                0.25290276               -0.94426484                0.00081931                0.44652555                1.09381959
              11.60736196                3.41978958               25.67946329                1.00000000                0.32831871                0.41804536               -1.26063223               -0.02249953                0.11054099               -0.46758554
               1.79486590                5.61278538               26.23591813                1.00000000               -0.15789179               -0.23399586                0.69106135               -0.02489681                0.12640788                1.11137317
               2.79328698                5.48265920               26.12130407                0.00010000               -0.12121758               -0.12050815                0.40138353               -0.00711053                0.26353119               -0.42668656
               3.79244155                5.35207354               26.00937270                0.00010000               -0.12889346               -0.00914399                0.12687345               -0.00776975                1.73617063               -1.83076835
               4.79070911                5.22105415               25.92420213                0.00010000               -0.88874307                0.28827337               -0.20852398                0.36951404                8.17959098               -1.25841095
               5.77466668                5.10373814               25.94086607                0.00010000               -1.60298621                0.30117982               -0.18788211                0.84381184               12.72847033               -0.62123928
               6.75864939                4.98624469               25.94654286                0.00010000               -1.58452986                0.33577392               -0.21715249                0.59649772               11.94540903                0.11362218
               7.74297609                4.86989586               25.94717750                0.00010000               -1.52342931                0.30924436               -0.28481643                0.45236424               11.61845746                0.98852420
               8.72818080                4.75629490               25.94565696                0.00010000               -1.39819523                0.20217494               -0.38209187                0.43999761               11.57436608                1.98110294
               9.71501218                4.64715758               25.94449307                0.00010000               -0.56809151                0.01477638               -0.50768411                0.19081199                6.01812929                2.99278857
              10.71681897                4.53568028               25.83068844                0.00010000                0.23983079                0.21522662               -0.83504777                0.01775108                0.23675345                1.15723358
              11.71980880                4.42399381               25.71361639                1.00000000                0.29898288                0.41209346               -1.18951565               -0.02196417                0.07834808               -0.43426773
               1.92415833                6.61067552               26.20263937                0.00010000               -0.11682130               -0.18636093                0.55218535               -0.02460962                0.06626439                0.95975345
               2.92299012                6.48170202               26.07984837                0.00010000               -0.07846755               -0.07273550                0.25135992               -0.00666921                0.24840637               -0.60302927
               3.92258898                6.35226809               25.96063968                0.00010000               -0.31639316                0.04321087               -0.03732621                0.13276829                3.39298422               -2.16680115
               4.91666225                6.22517569               25.90073786                0.00010000               -1.18505644                0.46509752               -0.39715544                0.28574937               10.67432155                0.08961910
               5.89888785                6.10787639               25.92669987                0.00010000               -1.83239412                0.51249624               -0.25643379                0.58965065               14.66470110                0.02676382
               6.88001437                5.99055870               25.94668706                0.00010000               -1.89631283                0.53591418               -0.22707651                0.32258393               14.22438444                0.46033773
               7.86096159                5.87371248               25.96345330                0.00010000               -1.86416745                0.46395967               -0.24497349                0.09533497               14.05505745                1.10923400
               8.84273102                5.75867097               25.97929621                0.00010000               -1.73959601                0.27614704               -0.29338940                0.01636656               14.09701456                1.89714659
               9.82616967                5.64721316               25.99586117                0.00010000               -0.75667279               -0.00124289               -0.36367998               -0.04164688                7.19802861                2.73807936
              10.82759757                5.53766911               25.87248280                0.00010000                0.20629716                0.18481894               -0.73064938                0.01645742                0.13343324                1.07243870
              11.83029562                5.42803145               25.74746176                1.00000000                0.26980497                0.39000921               -1.10530464               -0.01618870                0.05789212               -0.48284009
               2.05232070                7.60905816               26.16810430                0.00010000               -0.07596783               -0.13799901                0.41422599               -0.02339756                0.02718686                0.87537141
               3.05156102                7.48120449               26.03736625                0.00010000               -0.03487285               -0.02811368                0.10501817               -0.00321388                0.16471674               -0.66284260
               4.05162324                7.35293776               25.90931661                0.00010000               -0.53726118                0.08672052               -0.20040966                0.30681971                5.50095938               -2.33781621
               5.04081580                7.23035610               25.88530305                0.00010000               -1.52732805                0.55567666               -0.40215395                0.44014818               13.54015956                0.39630539
               6.02107668                7.11398806               25.91786965                0.00010000               -2.07754133                0.71282466               -0.28259984                0.49524445               16.32575665                0.35641252
               6.99926497                6.99696297               25.94950406                0.00010000               -2.21530825                0.76566372               -0.22259766                0.12473691               16.27023238                0.60296419
               7.97677052                6.87917506               25.98041807                0.00010000               -2.21287607                0.65729024               -0.20124659               -0.24970521               16.31127600                1.08152018
               8.95500745                6.76181784               26.01202917                0.00010000               -2.07947077                0.37715379               -0.20719653               -0.46274804               16.48119884                1.73892807
               9.93518110                6.64713272               26.04528231                0.00010000               -0.93388124               -0.01201842               -0.23319263               -0.32357403                8.36015182                2.53419461
              10.93632983                6.53937666               25.91328770                0.00010000                0.17896207                0.15876453               -0.62952109                0.00492325                0.07179440                0.96005261
              11.93876034                6.43179399               25.78046604                0.00010000                0.24305178                0.35982768               -1.02485685               -0.01105453                0.03857334               -0.56958370
               2.17939772                8.60791554               26.13310014                0.00010000               -0.03514770               -0.09209853                0.27861373               -0.02244893                0.00959172                0.85694827
               3.17904624                8.48113975               25.99464328                0.00010000                0.00880223                0.01482401               -0.03849451               -0.00002931                0.05558662               -0.67001960
               4.17957376                8.35400250               25.85704189                0.00010000               -0.73156659                0.12450049               -0.35845456                0.49831496                7.53970759               -2.24873579
               5.16441491                8.23628922               25.86826077                0.00010000               -1.86939507                0.68054558               -0.35892667                0.71850823               16.53108818                0.29870216
               6.14218586                8.12213288               25.91054281                0.00010000               -2.35463977                0.94047017               -0.28472959                0.50461107               18.10094905                0.36851646
               7.11732211                8.00587198               25.95280357                0.00010000               -2.55366182                1.00473881               -0.21223608                0.02026815               18.20640379                0.53375826
               8.09111263                7.88685829               25.99650152                0.00010000               -2.59018605                0.93389096               -0.15620857               -0.50622245               18.45147566                0.87854894
               9.06551839                7.76621405               26.04285497                0.00010000               -2.44866278                0.56567994               -0.12656136               -0.99888226               18.80878051                1.45304566
              10.04213937                7.64697279               26.09275237                0.00010000               -1.12418164               -0.01358581               -0.12322340               -0.66975425                9.54771582                2.25216407
              11.04303476                7.54084440               25.95287794                0.00010000                0.15502418                0.13871759               -0.53945593               -0.01180620                0.04393084                0.85182085
              12.04523985                7.43522801               25.81237759                0.00010000                0.22050928                0.32537416               -0.95419224               -0.00633360                0.02260898               -0.67621322
               2.30542331                9.60721619               26.09814604                0.00010000                0.00501680               -0.04955718                0.14552545               -0.02195244               -0.01024760                0.73952599
               3.30547347                9.48150097               25.95195110                0.00010000                0.05083817                0.05711597               -0.17964862                0.00114272                0.07524355               -0.57129238
               4.30644007                9.35542776               25.80739907                0.00010000               -0.92089454                0.16018888               -0.50323221                0.75617514                9.57348451               -1.54308048
               5.28705558                9.24396701               25.85115395                0.00010000               -2.24269600                1.01939351               -0.38256877                0.78469002               19.37540062                0.24477035
               6.26158615                9.13279747               25.90231767                0.00010000               -2.60553254                1.12085239               -0.30114932                0.41889194               19.83626379                0.21172242
               7.23494493                9.01705775               25.95458555                0.00010000               -2.76410748                1.17043474               -0.21091329                0.00451962               20.07225854                0.30488824
               8.20630400                8.89785288               26.00975640                0.00010000               -3.00148163                1.17177758               -0.12058228               -0.48888363               20.50748936                0.49578224
               9.17491530                8.77313144               26.07012030                0.00010000               -2.95741694                1.05809880               -0.02946569               -1.15413747               21.09084793                0.88481684
              10.14715566                8.64686101               26.13648834                0.00010000               -1.35384053                0.00743511               -0.03724763               -1.09598980               10.85865545                1.48247894
              11.14783849                8.54215101               25.99144192                0.00010000                0.13554026                0.12619623               -0.46480682               -0.02968539                0.13765682                0.66812968
              12.14986647                8.43830148               25.84304512                0.00010000                0.20279771                0.29125259               -0.89703740               -0.00537563               -0.01760457               -0.64786683
               2.43038911               10.60692440               26.06072585                0.00010000                0.04684100               -0.02917922                0.01336118                0.03234741                0.40619118                0.62044186
               3.43085752               10.48228207               25.91114447                0.00010000                0.09210585                0.07810985               -0.31643024                0.05249868                0.79072116               -0.47444125
               4.43223123               10.35720628               25.76918522                0.00010000               -1.40592544                0.17785144               -0.63323099                1.29886686               11.47574995               -0.97090077
               5.40273901               10.25667709               25.83329259                0.00010000               -2.73791330                1.27100826               -0.46583470                0.93552523               21.60676203                0.18307133
               6.37747296               10.14454993               25.89224235                0.00010000               -2.51909566                1.17524647               -0.34523193                0.21886004               21.51421174                0.10362315
               7.35235710               10.02928067               25.95359645                0.00010000               -2.61058461                1.22229216               -0.23027323                0.02841181               21.84026510                0.15784925
               8.32526127                9.91029384               26.01839746                0.00010000               -2.94647923                1.24409618               -0.11062488               -0.19950569               22.36479210                0.26497486
               9.29342751                9.78737602               26.08977295                0.00010000               -3.70306343                1.42445867                0.03442829               -1.30739590               23.04894131                0.50966021
              10.25120000                9.64712149               26.16832024                0.00010000               -2.12134644                0.02604869                0.00772980               -1.79595092               12.41137021                0.90688779
              11.25100058                9.54336833               26.02715089                0.00010000                0.08157040                0.12173172               -0.40641194                0.01278757                0.90963719                0.54114437
              12.25283141                9.44105306               25.87531560                0.00010000                0.18308237                0.27515803               -0.84562670                0.06496709                0.39086648               -0.55640833
               1.21164603                0.67265975               27.40125705                1.00000000               -0.34503676               -0.37245919                1.29820017               -0.06382710               -0.86474262                0.89167495
               2.20819567                0.53019866               27.31247459                1.00000000               -0.29225370               -0.29385755                1.04198160               -0.04915797               -1.11471830                0.08459216
               3.20580096                0.38744118               27.21868267                1.00000000               -0.17167203               -0.21543580                0.77349126               -0.04199376               -1.07454399               -0.21034412
               4.20476223                0.24532823               27.13074952                1.00000000                0.23428538               -0.16832506                0.51365677                0.37067551               -0.18839969               -0.74363358
               5.21048667                0.11276530               27.05479376                0.00010000                0.37982272               -0.05797007                0.22687263               -0.07807586                0.22271161                0.21998531
               6.21235868               -0.01237201               26.97585256                0.00010000                0.14611080                0.02516753               -0.04678872               -0.01286279               -0.11200578                0.12745850
               7.21340888               -0.13589839               26.89338083                0.00010000                0.10924953                0.09804143               -0.32040667                0.00190454               -0.32751171               -0.07226497
               8.21454367               -0.25925658               26.81007745                0.00010000                0.13735522                0.18369916               -0.60257900                0.00641626               -0.58675727                0.10137306
               9.21615599               -0.38392750               26.72216093                1.00000000                0.21984757                0.26957264               -0.88235946               -0.00219753               -0.91393782                0.51637531
              10.21894062               -0.50970796               26.63208377                1.00000000                0.32807195                0.34204172               -1.15463120               -0.03732971               -0.92194789                0.00684337
              11.22271743               -0.63567549               26.54393857                1.00000000                0.37768048                0.42358287               -1.41634901               -0.04837376               -0.82598695               -0.82611790
               1.35346885                1.66893516               27.36534200                1.00000000               -0.31554775               -0.35484938                1.17282959               -0.02299155               -0.12168222                1.21309200
               2.35031337                1.52726009               27.27623632                1.00000000               -0.28263061               -0.27323405                0.91807417               -0.00530025               -0.11327283                0.11788637
               3.34781624                1.38528682               27.18726231                1.00000000               -0.22532271               -0.19204417                0.65432661                0.01028798                0.07327858               -0.56620334
               4.34580692                1.24364498               27.10185322                1.00000000               -0.46301041               -0.15302386                0.38475062                0.52694148                1.63351312               -1.14093432
               5.33855603                1.11218560               27.04399441                0.00010000               -0.46225087                0.05677370                0.14264887               -0.10086641                2.39714601                1.01199603
               6.33656190                0.98787967               26.97302894                0.00010000               -0.08429067                0.08143194               -0.10895844                0.10399039                1.52476941                0.43517168
               7.33687022                0.86508202               26.89751122                0.00010000                0.10302437                0.08771197               -0.36291740                0.15494720                1.43619405               -0.34969960
               8.33862239                0.74258041               26.82478120                0.00010000                0.22447419                0.18713093               -0.61228686                0.14642401                1.44367353                0.60419530
               9.34135970                0.61876822               26.74958688                1.00000000                0.29094650                0.26202312               -0.85854115                0.06651204                0.73488196                0.75662214
              10.34444132                0.49371246               26.66283197                1.00000000                0.34207603                0.33498785               -1.11923237                0.00476637                0.08962320                0.10824354
              11.34820122                0.36856034               26.57475440                1.00000000                0.37599024                0.41983748               -1.37948158               -0.00671892                0.02244292               -0.97640462
               1.49453634                2.66556276               27.33582860                1.00000000               -0.27983453               -0.32533857                1.05748674               -0.01566197                0.04477395                1.53951770
               2.49173800                2.52473398               27.24063356                1.00000000               -0.24572594               -0.23741262                0.79795076                0.00844959                0.21028221                0.09298687
               3.48962183                2.38360030               27.14869219                1.00000000               -0.16678631               -0.15544222                0.54678542                0.02676129                0.78571927               -1.34209040
               4.48840227                2.24226776               27.06497287                0.00010000               -1.26935854               -0.13388042                0.26260159                0.73991689                4.58916769               -2.03758084
               5.46423466                2.11390078               27.04906546                0.00010000               -1.34301014                0.11069839                0.06053550                1.34872535                5.29114670               -1.23199356
               6.46154207                1.98925663               26.97638282                0.00010000               -0.12137846               -0.07286306               -0.15984104                1.11488369                2.07543934               -0.28152066
               7.46180709                1.86585585               26.89610693                0.00010000                0.11219393               -0.12505865               -0.38840414                0.89920011                3.37735562                0.53017056
               8.46378595                1.74448603               26.84956404                0.00010000                0.22735460               -0.08700844               -0.63618304                0.59234869                3.97206015                1.08506124
               9.46635418                1.62131296               26.78186134                1.00000000                0.27289425                0.25070088               -0.82704234                0.08949266                1.97415785                1.52808454
              10.46924383                1.49699180               26.69562935                1.00000000                0.32665551                0.31660263               -1.07635411                0.00623928                0.70656711                0.68430586
              11.47288729                1.37272126               26.60256873                1.00000000                0.36434543                0.41677201               -1.34862724               -0.00715181                0.36422998               -0.99099117
               1.63481317                3.66242839               27.30643206                1.00000000               -0.23683399               -0.30207982                0.94057525               -0.01362369                0.08144424                1.47312646
               2.63244483                3.52251184               27.20387000                1.00000000               -0.19977405               -0.20554563                0.67562835                0.00771469                0.10445052               -0.03537384
               3.63081769                3.38217798               27.10170720                1.00000000               -0.10700292               -0.11521345                0.41729017               -0.01491931                1.05122214               -1.65761011
               4.63030477                3.24096737               27.01806438                0.00010000               -0.61380145               -0.08918192                0.15181289                0.72487657                4.93518007               -2.74179965
               5.61854166                3.11439957               26.99353518                0.00010000               -1.17001337                0.01136632               -0.00857283                1.91942065                7.44133971               -3.09050632
               6.60690451                2.98642240               26.95932150                0.00010000               -0.94584245               -0.08881516               -0.17889825                1.55541004                6.63018863               -0.96652002
               7.59962481                2.86258085               26.91764044                0.00010000               -0.59461288               -0.16699009               -0.36196397                1.25807743                6.17413910                1.21029116
               8.59501225                2.74084024               26.87381013                0.00010000               -0.44905118               -0.18021667               -0.55311405                0.97953591                5.82660907                1.51480478
               9.59064379                2.62378224               26.82471800                0.00010000               -0.09272229                0.15080924               -0.75874675                0.30300907                3.70381514                2.86605991
              10.59315780                2.50004451               26.73790574                1.00000000                0.29777360                0.28741659               -1.00418034               -0.02288992                0.91701396                1.08570298
              11.59659926                2.37689578               26.63302654                1.00000000                0.34414584                0.41730540               -1.30991465               -0.01012310                0.01357464               -0.68711110
               1.77409698                4.65952117               27.27559133                1.00000000               -0.19542705               -0.27346396                0.81474460               -0.02051755                0.11604022                1.30219709
               2.77214270                4.52062307               27.16566760                1.00000000               -0.16145363               -0.16557494                0.54453470               -0.00098003                0.16850482               -0.21418735
               3.77086790                4.38129603               27.05673452                0.00010000               -0.07322469               -0.06056144                0.28611929               -0.05735183                1.17931810               -1.60988424
               4.77067821                4.24048412               26.96701346                0.00010000               -0.68499327                0.05650941                0.01551924                0.53608055                6.36829365               -2.62905954
               5.75716804                4.11412810               26.96183632                0.00010000               -1.31046082                0.08000199               -0.09302596                1.03657688               10.23336427               -1.45273417
               6.74446899                3.98748033               26.94888664                0.00010000               -1.23086180                0.16840406               -0.20227789                0.89966626                9.56401549               -0.35144231
               7.73255080                3.86251604               26.92970629                0.00010000               -1.11468600                0.10706743               -0.33218562                0.75065522                9.11325999                0.85112305
               8.72217527                3.74088170               26.90691688                0.00010000               -0.96703568                0.07491475               -0.48316062                0.68860043                8.96390891                2.02959416
               9.71321009                3.62432914               26.88384885                0.00010000               -0.32513885                0.02314316               -0.66228530                0.28333842                4.90671660                3.46288943
              10.71567250                3.50274013               26.77882184                1.00000000                0.28861017                0.24588910               -0.95173822               -0.00084870                0.47276803                1.13823464
              11.71898229                3.38106737               26.66683891                1.00000000                0.33097932                0.42199532               -1.26123437               -0.02527483                0.12634405               -0.46706577
               1.91219902                5.65695911               27.24277366                1.00000000               -0.15486427               -0.23294224                0.68001652               -0.02516494                0.12755117                1.11129397
               2.91065037                5.51920034               27.12528159                0.00010000               -0.11947034               -0.11719348                0.39401235               -0.00806361                0.27244130               -0.44881481
               3.90980961                5.38096675               27.01062624                0.00010000               -0.12280323               -0.00372144                0.12360740               -0.01982511                1.72774333               -1.87486177
               4.90819431                5.24209756               26.92223072                0.00010000               -0.87663088                0.28006260               -0.18720553                0.31001967                8.31057719               -1.33838129
               5.89227699                5.11599961               26.93903115                0.00010000               -1.58422078                0.29704177               -0.17937508                0.73171073               13.01440542               -0.60971803
               6.87650989                4.98979049               26.94434943                0.00010000               -1.55202239                0.32480653               -0.22207304                0.48837356               12.20103147                0.16275351
               7.86123654                4.86472220               26.94425516                0.00010000               -1.47693669                0.29166626               -0.30033818                0.34612867               11.85517828                1.06322600
               8.84697116                4.74233853               26.94172306                0.00010000               -1.33922067                0.18023961               -0.40520602                0.33228924               11.79686644                2.07664590
               9.83445213                4.62424510               26.93927141                0.00010000               -0.52842762               -0.01252737               -0.53660890                0.14243577                6.14382282                3.11066316
              10.83640261                4.50496229               26.82225763                0.00010000                0.24935803                0.20678518               -0.84956039                0.02151958                0.25201616                1.22164404
              11.83943929                4.38533568               26.70168314                1.00000000                0.30366844                0.41950873               -1.19542520               -0.02303106                0.07842951               -0.41884270
               2.04911122                6.65486232               27.20810142                0.00010000               -0.11374262               -0.18479565                0.54015182               -0.02462873                0.06529529                0.95740796
               3.04797379                6.51827920               27.08232546                0.00010000               -0.07685219               -0.06910152                0.24389752               -0.00731184                0.25361734               -0.62314696
               4.04757418                6.38122160               26.96025340                0.00010000               -0.30640258                0.04943734               -0.04022018                0.11020890                3.38060530               -2.21069454
               5.04184574                6.24608537               26.89701407                0.00010000               -1.17324242                0.45007897               -0.34692951                0.20586466               10.86209357                0.11629600
               6.02410933                6.12006894               26.92422154                0.00010000               -1.81659307                0.50156475               -0.23925551                0.47307523               15.04414663                0.06846792
               7.00551388                5.99397646               26.94440032                0.00010000               -1.85920002                0.52043913               -0.23086639                0.20872352               14.54525613                0.51779825
               7.98692533                5.86834937               26.96091643                0.00010000               -1.81078641                0.44399786               -0.26313174               -0.01492461               14.35597752                1.18422834
               8.96929815                5.74448649               26.97622312                0.00010000               -1.67451418                0.25484592               -0.32174324               -0.09783906               14.38922255                1.99025840
               9.95343504                5.62407860               26.99204707                0.00010000               -0.71429222               -0.01735194               -0.39914620               -0.09658691                7.35115295                2.85055443
              10.95501231                5.50687583               26.86506131                0.00010000                0.21699211                0.17967351               -0.75298625                0.02057516                0.13903042                1.13103827
              11.95777489                5.38945754               26.73634573                0.00010000                0.27625779                0.39912443               -1.11725263               -0.01647212                0.05876861               -0.46346935
               2.18487268                7.65326320               27.17218274                0.00010000               -0.07278236               -0.13584626                0.40129904               -0.02337758                0.02643102                0.87452183
               3.18414486                7.51781831               27.03837972                0.00010000               -0.03325328               -0.02454707                0.09744938               -0.00331533                0.16601197               -0.67953125
               4.18420762                7.38195549               26.90730314                0.00010000               -0.53403003                0.09271676               -0.20259135                0.27265866                5.57106480               -2.37797341
               5.17346426                7.25109914               26.88159916                0.00010000               -1.51801054                0.53886924               -0.33692356                0.33992623               13.80763089                0.52604431
               6.15384741                7.12603091               26.91514802                0.00010000               -2.05301634                0.69446639               -0.26191553                0.38053469               16.71936959                0.42259887
               7.13240393                7.00019927               26.94725895                0.00010000               -2.17096964                0.74599863               -0.22712035                0.01323047               16.63998190                0.66371609
               8.11042802                6.87360215               26.97830584                0.00010000               -2.15593913                0.63629745               -0.22195140               -0.35935537               16.66951990                1.15393823
               9.08928515                6.74743545               27.00979573                0.00010000               -2.01484817                0.35985863               -0.23997529               -0.57637754               16.83466701                1.82433078
              10.07013105                6.62389806               27.04274323                0.00010000               -0.89249933               -0.01608098               -0.27459355               -0.38184514                8.53916929                2.62725737
              11.07143516                6.50855576               26.90684081                0.00010000                0.19076900                0.15917496               -0.65948012                0.00719898                0.07145009                1.01042601
              12.07394643                6.39331817               26.77012543                0.00010000                0.25112675                0.36982631               -1.04296544               -0.01041608                0.03876378               -0.55731804
               2.31953345                8.65214540               27.13581840                0.00010000               -0.03182583               -0.08916096                0.26476467               -0.02246565                0.00913361                0.85845600
               3.31921519                8.51778826               26.99422112                0.00010000                0.01065342                0.01809476               -0.04625767                0.00041084                0.05402795               -0.68392977
               4.31974652                8.38307593               26.85345328                0.00010000               -0.73231661                0.12875428               -0.35968736                0.45321793                7.71002755               -2.27895207
               5.30456886                8.25686275               26.86496676                0.00010000               -1.85633105                0.66412460               -0.30066456                0.62294010               16.88927711                0.40254126
               6.28261989                8.13395827               26.90777312                0.00010000               -2.31808068                0.91796619               -0.27021044                0.41100875               18.49503536                0.42947301
               7.25820724                8.00889643               26.95064670                0.00010000               -2.50589287                0.98498564               -0.22003793               -0.07174235               18.61829638                0.58502746
               8.23250204                7.88107532               26.99483393                0.00010000               -2.53662760                0.91614415               -0.17782064               -0.60158519               18.86289560                0.94069006
               9.20747469                7.75168366               27.04141477                0.00010000               -2.39121033                0.55185696               -0.16170972               -1.10330916               19.21135123                1.54319938
              10.18467783                7.62375698               27.09127073                0.00010000               -1.08692558               -0.00647690               -0.17305444               -0.72537393                9.74818147                2.32114305
              11.18573618                7.51005933               26.94729009                0.00010000                0.16819566                0.14574602               -0.57825087               -0.01158952                0.04265215                0.88804168
              12.18804174                7.39685407               26.80270969                0.00010000                0.23055644                0.33571097               -0.97966589               -0.00488986                0.02278810               -0.67591437
               2.45313765                9.65147998               27.09952929                0.00010000                0.00848947               -0.04570881                0.13076088               -0.02205526               -0.01096014                0.74290420
               3.45322254                9.51818020               26.95011599                0.00010000                0.05299182                0.06003341               -0.18782780                0.00157158                0.07591432               -0.58166070
               4.45419748                9.38453058               26.80236831                0.00010000               -0.90909068                0.16213407               -0.50323583                0.70155932                9.80260939               -1.55889028
               5.43504073                9.26438163               26.84747088                0.00010000               -2.20817882                0.99718992               -0.35692847                0.71922698               19.81353782                0.27540203
               6.41003391                9.14439023               26.89933065                0.00010000               -2.55943464                1.09957869               -0.29791069                0.36448869               20.26941779                0.24424049
               7.38385204                9.01989898               26.95241819                0.00010000               -2.72124160                1.15521545               -0.22372239               -0.04829650               20.53267955                0.33365279
               8.35560908                8.89192504               27.00844255                0.00010000               -2.96573632                1.16278877               -0.14235730               -0.54999904               20.98925305                0.53265422
               9.32453731                8.75847259               27.06970380                0.00010000               -2.91805844                1.05226390               -0.05161027               -1.22544055               21.53189730                0.96253040
              10.29724791                8.62376853               27.13581301                0.00010000               -1.32155132                0.02354291               -0.09833054               -1.13979001               11.06059512                1.51879659
              11.29810628                8.51147068               26.98655195                0.00010000                0.15056287                0.13949340               -0.51397359               -0.03036292                0.14079948                0.68847951
              12.30025916                8.40003239               26.83391031                0.00010000                0.21528812                0.30227615               -0.93081652               -0.00367025               -0.01546249               -0.65711379
               2.58569189               10.65123122               27.06078492                0.00010000                0.05041254               -0.02487554               -0.00195460                0.03119500                0.40818791                0.62456322
               3.58619602               10.51898893               26.90793866                0.00010000                0.09421899                0.08087259               -0.32536900                0.05171708                0.79984710               -0.48232587
               4.58757627               10.38631861               26.76285187                0.00010000               -1.35511346                0.17880341               -0.63403863                1.22875989               11.73249780               -0.97897451
               5.55909375               10.27680655               26.82864876                0.00010000               -2.65919753                1.24249190               -0.46534056                0.88686316               22.10920433                0.17683117
               6.53439232               10.15594984               26.88877266                0.00010000               -2.46936207                1.15596115               -0.35070674                0.19555057               22.00886373                0.11631635
               7.50970651               10.03200074               26.95120659                0.00010000               -2.57319368                1.21017573               -0.24914857                0.00450961               22.35255092                0.16948815
               8.48292845                9.90433109               27.01716563                0.00010000               -2.92920581                1.24060570               -0.13596739               -0.23165265               22.91310718                0.28222919
               9.45112239                9.77272894               27.09003093                0.00010000               -3.70222542                1.42563527                0.02098348               -1.34665493               23.52291738                0.56183019
              10.40888394                9.62422783               27.16804637                0.00010000               -2.11286673                0.04593081               -0.06374039               -1.83038404               12.62377509                0.92338583
              11.40886506                9.51284920               27.02279702                0.00010000                0.09804910                0.13785172               -0.46585117                0.00946498                0.93462312                0.55413413
              12.41084492                9.40289959               26.86665566                0.00010000                0.19798650                0.28671979               -0.88781508                0.06361459                0.40541399               -0.56787973
               1.29299456                0.71817904               28.41421434                1.00000000               -0.34462561               -0.37117876                1.29340890               -0.06325805               -0.87766741                0.90333285
               2.28954830                0.56792530               28.32287674                1.00000000               -0.29328079               -0.29239299                1.03864541               -0.04823618               -1.13365643                0.08934065
               3.28712894                0.41735407               28.22641019                1.00000000               -0.17593911               -0.21387485                0.77247573               -0.04258239               -1.09535683               -0.20998597
               4.28602952                0.26733398               28.13588610                1.00000000                0.21071579               -0.16639827                0.51461150                0.34471604               -0.21874589               -0.76288197
               5.29134326                0.12623514               28.05708155                0.00010000                0.35411929               -0.05992598                0.23170163               -0.07472599                0.17943695                0.23058122
               6.29311191               -0.00792740               27.97540097                0.00010000                0.14211021                0.02377839               -0.04330584               -0.01529382               -0.15301594                0.13479664
               7.29418546               -0.14054676               27.89018435                0.00010000                0.11719856                0.09739385               -0.31885197               -0.00040351               -0.37318259               -0.07396352
               8.29545588               -0.27288029               27.80405826                0.00010000                0.15018063                0.18270834               -0.60135859                0.00135648               -0.63370576                0.10434489
               9.29718908               -0.40624797               27.71335012                1.00000000                0.22777943                0.26759735               -0.88017094               -0.00508681               -0.95428306                0.52840811
              10.30001147               -0.54056550               27.62056063                1.00000000                0.32977618                0.34138915               -1.15055664               -0.03587635               -0.95270936                0.00627594
              11.30378460               -0.67504908               27.52980486                1.00000000                0.37731334                0.42399735               -1.41108328               -0.04639096               -0.85125408               -0.84876182
               1.44261572                1.71446725               28.37703939                1.00000000               -0.31372966               -0.35397498                1.16676677               -0.02224120               -0.12488408                1.22960564
               2.43947842                1.56500137               28.28539336                1.00000000               -0.28084698               -0.27183699                0.91336249               -0.00440346               -0.12111896                0.12447184
               3.43699878                1.41521533               28.19378604                1.00000000               -0.22211381               -0.19011458                0.65041798                0.00766922                0.05787715               -0.55964135
               4.43503615                1.26566999               28.10568052                1.00000000               -0.43860455               -0.15004791                0.38054872                0.49019979                1.63014756               -1.15655204
               5.42822669                1.12563588               28.04541768                0.00010000               -0.43431127                0.05127279                0.14369742               -0.09268152                2.40890119                1.02377281
               6.42634992                0.99231038               27.97194059                0.00010000               -0.07844090                0.07799771               -0.10788768                0.09422086                1.53224405                0.44825170
               7.42665787                0.86042718               27.89387794                0.00010000                0.09850637                0.09223089               -0.36379794                0.14387076                1.44469592               -0.34295048
               8.42832005                0.72894679               27.81864997                0.00010000                0.21614708                0.18900143               -0.61462014                0.13021727                1.45554344                0.59898149
               9.43098081                0.59642800               27.74100202                1.00000000                0.28666025                0.26110643               -0.85920181                0.05957412                0.74096579                0.77214052
              10.43405325                0.46284839               27.65164515                1.00000000                0.34117281                0.33483536               -1.11912735                0.00623403                0.08901245                0.11223749
              11.43780427                0.32919090               27.56097272                1.00000000                0.37510149                0.42236765               -1.37810170               -0.00458449                0.02257157               -1.00063901
               1.59148150                2.71109954               28.34636430                1.00000000               -0.27693434               -0.32513583                1.04982124               -0.01506338                0.04543579                1.56027235
               2.58871216                2.56248856               28.24858506                1.00000000               -0.24339000               -0.23594830                0.79215789                0.00864090                0.21515087                0.10045860
               3.58661370                2.41355178               28.15414193                1.00000000               -0.16495998               -0.15195340                0.54305614                0.02132002                0.77770023               -1.33999937
               4.58541296                2.26433302               28.06756999                0.00010000               -1.18822301               -0.12971670                0.25690226                0.68829402                4.60721859               -2.04182112
               5.56284924                2.12726060               28.04966854                0.00010000               -1.26039638                0.09564379                0.06322626                1.23961043                5.36262421               -1.21584097
               6.56020503                1.99363255               27.97478127                0.00010000               -0.12113886               -0.07329071               -0.16031127                1.01395167                2.13769293               -0.24839600
               7.56042647                1.86129786               27.89220552                0.00010000                0.09271845               -0.11619083               -0.39241576                0.81016378                3.42564188                0.57037311
               8.56205940                1.73089974               27.84315283                0.00010000                0.20262474               -0.07705886               -0.64795865                0.52984009                4.03786968                1.12857168
               9.56447896                1.59897415               27.77356739                1.00000000                0.26569241                0.24849955               -0.83282900                0.07098288                2.03819260                1.56597987
              10.56737325                1.46613121               27.68485932                1.00000000                0.32644717                0.31477031               -1.07925514                0.00385717                0.72979771                0.70894705
              11.57100790                1.33339828               27.58908949                1.00000000                0.36346542                0.42148037               -1.34942822               -0.00657198                0.37631810               -1.01008753
               1.73953642                3.70796453               28.31579265                1.00000000               -0.23374179               -0.30208778                0.93176940               -0.01367980                0.08568695                1.48875507
               2.73719900                3.56028240               28.21059572                1.00000000               -0.19778472               -0.20358541                0.66942252                0.00734776                0.11223866               -0.03335887
               3.73558072                3.41217626               28.10586955                1.00000000               -0.10528928               -0.11087713                0.41479372               -0.02203098                1.05905403               -1.66748048
               4.73509321                3.26307566               28.01958800                0.00010000               -0.59306777               -0.08351636                0.15208609                0.65800935                4.99089975               -2.75184289
               5.72371937                3.12754876               27.99343898                0.00010000               -1.12507561                0.00207705               -0.01091866                1.74579626                7.55111781               -3.07675960
               6.71259170                2.99084457               27.95750633                0.00010000               -0.90627036               -0.09230509               -0.18451906                1.40010238                6.73782068               -0.91982986
               7.70559396                2.85810336               27.91397248                0.00010000               -0.56755733               -0.16812578               -0.37220663                1.11670270                6.27839151                1.28108466
               8.70124055                2.72740562               27.86821737                0.00010000               -0.42124785               -0.17966615               -0.56623025                0.87818190                5.92656109                1.60953633
               9.69716900                2.60139799               27.81708764                0.00010000               -0.07671389                0.13239278               -0.76975255                0.26137079                3.78523742                2.93580436
              10.69970628                2.46914380               27.72786260                1.00000000                0.29848469                0.28230877               -1.00373097               -0.03033301                0.94910836                1.11562439
              11.70313870                2.33762050               27.61994493                1.00000000                0.34324200                0.41966944               -1.30396404               -0.00998986                0.01326708               -0.69435853
               1.88657217                4.70505778               28.28368840                1.00000000               -0.19247820               -0.27316826                0.80487842               -0.02086150                0.12404931                1.30877395
               2.88464739                4.55841685               28.17108003                1.00000000               -0.15961737               -0.16286794                0.53792598               -0.00196615                0.18247840               -0.22644234
               3.88337983                4.41133424               28.05958207                0.00010000               -0.07233726               -0.05594149                0.28304301               -0.06437986                1.19373482               -1.63668266
               4.88320065                4.26266269               27.96718345                0.00010000               -0.66917822                0.06051239                0.01642282                0.46952185                6.45418464               -2.67869578
               5.86999626                4.12730214               27.96090941                0.00010000               -1.27740826                0.08048990               -0.09272538                0.91202356               10.40561374               -1.44387479
               6.85765248                3.99178645               27.94683200                0.00010000               -1.18983962                0.15707548               -0.20942872                0.77437515                9.73449068               -0.30500993
               7.84619947                3.85793534               27.92631802                0.00010000               -1.06620357                0.09234429               -0.34621222                0.63160146                9.27397777                0.92472973
               8.83632841                3.72730642               27.90199566                0.00010000               -0.91156375                0.05579797               -0.50206184                0.57739957                9.11181636                2.11950224
               9.82796819                3.60162201               27.87713927                0.00010000               -0.28921673               -0.01126804               -0.68145148                0.23280206                5.00088893                3.55903859
              10.83054407                3.47177738               27.76928106                1.00000000                0.29432517                0.23649429               -0.95087249               -0.00445265                0.50225126                1.17987571
              11.83385470                3.34179167               27.65423860                1.00000000                0.33106225                0.42448144               -1.25397439               -0.02918832                0.14129274               -0.46348259
               2.03240105                5.70250117               28.24951846                1.00000000               -0.15178359               -0.23215970                0.66906751               -0.02541366                0.12833164                1.11050499
               3.03088322                5.55702504               28.12918432                0.00010000               -0.11768852               -0.11379509                0.38650096               -0.00903242                0.28116055               -0.47054492
               4.03004728                5.41105743               28.01184485                0.00010000               -0.11837341                0.00215310                0.11992433               -0.03032450                1.72902251               -1.91756977
               5.02851575                5.26428591               27.92045802                0.00010000               -0.86056020                0.27352398               -0.16791256                0.24182319                8.44292864               -1.38963360
               6.01283608                5.12915856               27.93727857                0.00010000               -1.55348730                0.29133679               -0.17155380                0.60442195               13.28314880               -0.58780163
               6.99744600                4.99398608               27.94210140                0.00010000               -1.50650294                0.31093483               -0.22837935                0.36819050               12.43964510                0.21498635
               7.98270602                4.85995025               27.94117074                0.00010000               -1.41720641                0.27055158               -0.31747542                0.22971890               12.07724367                1.13801052
               8.96910187                4.72852158               27.93755284                0.00010000               -1.26759727                0.15485284               -0.42955587                0.21394059               12.00627943                2.17057298
               9.95735407                4.60117263               27.93376089                0.00010000               -0.48271544               -0.04347879               -0.56543536                0.08692270                6.26613282                3.22493955
              10.95944757                4.47387369               27.81369724                0.00010000                0.25861465                0.19646582               -0.86194363                0.02364696                0.26997658                1.28295001
              11.96252637                4.34611013               27.68970789                1.00000000                0.30788014                0.42640534               -1.20016075               -0.02398268                0.07813300               -0.40268276
               2.17701615                6.70041459               28.21344241                0.00010000               -0.11056693               -0.18347779                0.52802152               -0.02464860                0.06427973                0.95418088
               3.17591048                6.55614095               28.08472632                0.00010000               -0.07518407               -0.06534197                0.23619051               -0.00798194                0.25876714               -0.64261477
               4.17551247                6.41137730               27.95983528                0.00010000               -0.29872514                0.05604850               -0.04346801                0.08850234                3.39296635               -2.25276374
               5.16993598                6.26813317               27.89379927                0.00010000               -1.15639699                0.43191935               -0.29487497                0.11796818               11.05554750                0.16817873
               6.15238453                6.13312888               27.92191476                0.00010000               -1.78556887                0.48649518               -0.22249907                0.34200873               15.39147080                0.11772306
               7.13422460                5.99800515               27.94206973                0.00010000               -1.80630928                0.50024211               -0.23620263                0.08391429               14.84285183                0.57755321
               8.11625835                5.86334637               27.95819067                0.00010000               -1.74198828                0.41930401               -0.28301228               -0.13417759               14.63820192                1.25979432
               9.09938484                5.73040347               27.97286135                0.00010000               -1.59519035                0.22956124               -0.35120826               -0.22162070               14.66514326                2.08292722
              10.08435454                5.60075243               27.98787824                0.00010000               -0.66526641               -0.03592116               -0.43456658               -0.15657171                7.49802975                2.96261617
              11.08607951                5.47570670               27.85742308                0.00010000                0.22738048                0.17413579               -0.77404569                0.02481986                0.14633116                1.18871252
              12.08890215                5.35031977               27.72511670                0.00010000                0.28226391                0.40867729               -1.12868665               -0.01669298                0.05939419               -0.44200474
               2.32045536                7.69883161               28.17613029                0.00010000               -0.06944991               -0.13382358                0.38803373               -0.02340105                0.02568263                0.87271613
               3.31976086                7.55571820               28.03931523                0.00010000               -0.03151287               -0.02080310                0.08947148               -0.00358922                0.16731850               -0.69567898
               4.31982511                7.41217840               27.90526478                0.00010000               -0.53186631                0.09904942               -0.20527538                0.23611460                5.67324808               -2.41624374
               5.30912354                7.27292429               27.87856458                0.00010000               -1.50104146                0.51675781               -0.26996880                0.23273504               14.08274829                0.65901731
               6.28980428                7.13888846               27.91263133                0.00010000               -2.01083727                0.67054166               -0.24243316                0.25443614               17.07267448                0.48832711
               7.26890679                7.00399092               27.94496165                0.00010000               -2.10900688                0.72040709               -0.23354064               -0.10747523               16.98299037                0.72500052
               8.24762414                6.86833633               27.97597904                0.00010000               -2.08216974                0.60944985               -0.24445767               -0.47669976               17.00627169                1.22843962
               9.22726340                6.73311280               28.00722967                0.00010000               -1.93523637                0.33832469               -0.27377828               -0.69791722               17.16893684                1.91120902
              10.20891941                6.60045421               28.03979044                0.00010000               -0.84433870               -0.02132813               -0.31554865               -0.44416291                8.70864973                2.71913948
              11.21037662                6.47735640               27.90009810                0.00010000                0.20234765                0.15936961               -0.68851334                0.00994072                0.07100370                1.05977948
              12.21296637                6.35428368               27.75960673                0.00010000                0.25897410                0.38025345               -1.06098061               -0.00955860                0.03888781               -0.54306414
               2.46277495                8.69773812               28.13839544                0.00010000               -0.02830381               -0.08619322                0.25031754               -0.02255658                0.00870106                0.85906492
               3.46249191                8.55572489               27.99371813                0.00010000                0.01268602                0.02160048               -0.05461029                0.00060219                0.05268123               -0.69756395
               4.46302867                8.41335829               27.84984814                0.00010000               -0.73056477                0.13364901               -0.36164474                0.40278519                7.90715541               -2.30755799
               5.44788062                8.27846833               27.86224748                0.00010000               -1.83110209                0.64343760               -0.24828140                0.52109383               17.25314854                0.48495032
               6.42640663                8.14653971               27.90513860                0.00010000               -2.26266920                0.88971386               -0.25866317                0.30839367               18.85197597                0.48378068
               7.40262723                8.01241329               27.94840281                0.00010000               -2.44020818                0.95900005               -0.23027427               -0.17122567               19.00559040                0.63579301
               8.37760247                7.87553537               27.99294511                0.00010000               -2.46593109                0.89189675               -0.20085161               -0.70320018               19.25200585                1.00695125
               9.35330861                7.73716997               28.03962078                0.00010000               -2.31873933                0.53265415               -0.19742897               -1.21450533               19.58932051                1.64505733
              10.33122768                7.60032587               28.08929128                0.00010000               -1.04298813                0.00035494               -0.22233610               -0.78379381                9.93381511                2.38599285
              11.33244885                7.47889409               27.94131292                0.00010000                0.18143704                0.15286354               -0.61725586               -0.01102373                0.03993610                0.92193842
              12.33485642                7.35792484               27.79278428                0.00010000                0.24075711                0.34647754               -1.00619937               -0.00321882                0.02272740               -0.67444685
               2.60403070                9.69710775               28.10076126                0.00010000                0.01220392               -0.04168635                0.11519065               -0.02223169               -0.01166471                0.74573800
               3.60415274                9.55615021               27.94819454                0.00010000                0.05533369                0.06326622               -0.19684586                0.00196160                0.07748973               -0.59218796
               4.60513737                9.41485138               27.79733435                0.00010000               -0.88943692                0.16506942               -0.50460783                0.63926194               10.04105856               -1.57447388
               5.58636400                9.28579305               27.84401538                0.00010000               -2.15550901                0.96948074               -0.33996156                0.64765239               20.24860195                0.27925715
               6.56202719                9.15668274               27.89635945                0.00010000               -2.49386880                1.07262710               -0.29902083                0.30318274               20.67819302                0.27130702
               7.53648662                9.02317092               27.95011110                0.00010000               -2.66118666                1.13401797               -0.23958345               -0.10602841               20.97289984                0.36211089
               8.50880346                8.88617426               28.00690926                0.00010000               -2.91519158                1.14784547               -0.16505130               -0.61542167               21.45720948                0.57331129
               9.47818279                8.74376588               28.06908809                0.00010000               -2.86420231                1.03941963               -0.06954161               -1.30082248               21.93963473                1.05828540
              10.45151941                8.60046130               28.13452173                0.00010000               -1.28128047                0.03983135               -0.15985664               -1.18352400               11.23250833                1.54951037
              11.45255718                8.48041367               27.98116245                0.00010000                0.16605417                0.15333897               -0.56464964               -0.03065845                0.14212950                0.70587927
              12.45484049                8.36121323               27.82442879                0.00010000                0.22833138                0.31399628               -0.96690336               -0.00174504               -0.01321065               -0.66529203
               2.74424539               10.69690439               28.06068676                0.00010000                0.05421254               -0.02033584               -0.01820692                0.03005133                0.40967320                0.62845500
               3.74478752               10.55699021               27.90463709                0.00010000                0.09628436                0.08399973               -0.33542719                0.05124245                0.80949440               -0.49068997
               4.74617108               10.41665968               27.75650445                0.00010000               -1.28926048                0.18083006               -0.63713906                1.14675728               11.98688980               -0.98793264
               5.71900231               10.29785794               27.82398578                0.00010000               -2.55393326                1.20648949               -0.47036191                0.83045949               22.60052624                0.15046591
               6.69509241               10.16799225               27.88522822                0.00010000               -2.39935810                1.13095128               -0.36120967                0.16830753               22.48590346                0.12661145
               7.67101514               10.03509365               27.94861348                0.00010000               -2.51966722                1.19227279               -0.27168033               -0.02214637               22.84623729                0.18183376
               8.64469907                9.89849228               28.01567811                0.00010000               -2.90050127                1.23180175               -0.16248279               -0.26720323               23.45512376                0.30297094
               9.61300512                9.75795836               28.09019262                0.00010000               -3.68948278                1.41924754                0.01460044               -1.38625606               23.95856312                0.63071405
              10.57090941                9.60112250               28.16704543                0.00010000               -2.09606816                0.06611937               -0.13733335               -1.86087418               12.79321698                0.93444249
              11.57108375                9.48196087               28.01783387                0.00010000                0.11564965                0.15472003               -0.52837340                0.00677096                0.95669020                0.56425439
              12.57322240                9.36420477               27.85755930                0.00010000                0.21386498                0.29915368               -0.93363693                0.06258052                0.42002480               -0.57789752
               1.37676790                0.76507632               29.42712523                1.00000000               -0.34412056               -0.36990032                1.28868450               -0.06287453               -0.88949238                0.91412606
               2.37332669                0.60695224               29.33324749                1.00000000               -0.29417169               -0.29110360                1.03545940               -0.04756337               -1.15060972                0.09411977
               3.37088446                0.44848976               29.23413219                1.00000000               -0.18053733               -0.21275029                0.77211408               -0.04330861               -1.11320722               -0.20918132
               4.36971594                0.29048175               29.14104175                1.00000000                0.18380350               -0.16516991                0.51758786                0.31697472               -0.24513554               -0.78115515
               5.37456053                0.14070468               29.05942780                0.00010000                0.32398082               -0.06306007                0.23726335               -0.07050911                0.13663597                0.24265648
               6.37619556               -0.00275532               28.97498645                0.00010000                0.13637035                0.02197186               -0.03968593               -0.01838013               -0.19600619                0.14240474
               7.37728794               -0.14476484               28.88700379                0.00010000                0.12541141                0.09666925               -0.31649733               -0.00320740               -0.41983852               -0.07593861
               8.37870379               -0.28635310               28.79805028                0.00010000                0.16400084                0.18185758               -0.59945291               -0.00437485               -0.68074154                0.10587922
               9.38056796               -0.42866313               28.70455751                1.00000000                0.23639544                0.26568922               -0.87786278               -0.00832993               -0.99385466                0.54018253
              10.38343170               -0.57175147               28.60907264                1.00000000                0.33179710                0.34099838               -1.14684887               -0.03424914               -0.98285796                0.00474027
              11.38720390               -0.71498645               28.51571690                1.00000000                0.37722005                0.42493681               -1.40665734               -0.04413689               -0.87654513               -0.87227923
               1.53426323                1.76137732               29.38867734                1.00000000               -0.31188919               -0.35306864                1.16102045               -0.02182909               -0.12819532                1.24517006
               2.53114434                1.60404120               29.29450357                1.00000000               -0.27883058               -0.27057253                0.90877475               -0.00391848               -0.12946679                0.13115372
               3.52868662                1.44636225               29.20027067                1.00000000               -0.21830537               -0.18864763                0.64639161                0.00476469                0.04128473               -0.55140630
               4.52677823                1.28883005               29.10946420                1.00000000               -0.41063207               -0.14789520                0.37751867                0.45079579                1.62884508               -1.16968735
               5.52047398                1.14007407               29.04686835                0.00010000               -0.40158566                0.04289930                0.14904030               -0.08251684                2.42466044                1.04034098
               6.51874652                0.99746440               28.97087118                0.00010000               -0.07096107                0.07391479               -0.10522698                0.08455830                1.53871681                0.46153500
               7.51905476                0.85620185               28.89023526                0.00010000                0.09313333                0.09668085               -0.36422599                0.13307527                1.45080148               -0.33732787
               8.52060919                0.71546547               28.81248879                0.00010000                0.20645417                0.19215835               -0.61803647                0.11347933                1.46650295                0.58882449
               9.52318384                0.57399376               28.73240284                1.00000000                0.28208399                0.26050297               -0.86127944                0.05183089                0.74684801                0.78593651
              10.52625087                0.43165852               28.64044942                1.00000000                0.34068354                0.33523775               -1.12077664                0.00775738                0.08791227                0.11513796
              11.52999751                0.28926292               28.54719237                1.00000000                0.37466460                0.42668739               -1.37884769               -0.00208912                0.02272305               -1.02566328
               1.69100354                2.75801495               29.35682503                1.00000000               -0.27401552               -0.32489647                1.04300088               -0.01453880                0.04542111                1.58025854
               2.68826339                2.60154079               29.25647671                1.00000000               -0.24063174               -0.23457585                0.78618061                0.00851137                0.21883014                0.10855083
               3.68619091                2.44471680               29.15955331                1.00000000               -0.16216733               -0.14870137                0.53766092                0.01514673                0.76660020               -1.33433290
               4.68502004                2.28752385               29.07011092                0.00010000               -1.09575270               -0.12565012                0.25075915                0.63104830                4.62714363               -2.03787296
               5.66427585                2.14156266               29.05032999                0.00010000               -1.16305433                0.07747154                0.07011670                1.11854210                5.43940221               -1.19683060
               6.66175895                1.99872298               28.97317660                0.00010000               -0.11637408               -0.07446598               -0.16266310                0.89935073                2.19730848               -0.21598576
               7.66194837                1.85716877               28.88825861                0.00010000                0.07112565               -0.10559049               -0.39599060                0.70969644                3.46789341                0.60753754
               8.66318147                1.71749006               28.83660486                0.00010000                0.17315809               -0.06386727               -0.66281351                0.45986365                4.10051801                1.16898456
               9.66541153                1.57654693               28.76520476                1.00000000                0.25681106                0.24663467               -0.84129327                0.04913483                2.10472459                1.60083867
              10.66831769                1.43495329               28.67404425                1.00000000                0.32708891                0.31383715               -1.08580008                0.00160975                0.75310266                0.73629265
              11.67195331                1.29354730               28.57558017                1.00000000                0.36356238                0.42982901               -1.35573388               -0.00547708                0.38890121               -1.02366938
               1.84692077                3.75487939               29.32506745                1.00000000               -0.23080601               -0.30220547                0.92373691               -0.01341195                0.08949670                1.50386553
               2.84461271                3.59934969               29.21725845                1.00000000               -0.19571386               -0.20175814                0.66327413                0.00720274                0.11982644               -0.03032919
               3.84300649                3.44338823               29.11000307                1.00000000               -0.10296854               -0.10648664                0.41105878               -0.02921787                1.06649301               -1.67433063
               4.84255334                3.28631705               29.02110610                0.00010000               -0.56803999               -0.07418328                0.14864583                0.58249036                5.03809267               -2.74645353
               5.83164569                3.14162351               28.99331681                0.00010000               -1.07129596               -0.00758238               -0.01463849                1.55069675                7.65233758               -3.06199972
               6.82112742                2.99597508               28.95563112                0.00010000               -0.85820486               -0.09689594               -0.19143848                1.22288928                6.83865404               -0.87395947
               7.81448160                2.85409004               28.91019631                0.00010000               -0.53495579               -0.16781995               -0.38392791                0.95656870                6.37605932                1.34905560
               8.81042831                2.71418813               28.86248552                0.00010000               -0.38891411               -0.17768928               -0.58043053                0.76226505                6.02137348                1.70382383
               9.80670331                2.57892645               28.80932295                0.00010000               -0.05728083                0.11448717               -0.78510680                0.21390321                3.86671112                3.00118513
              10.80928269                2.43793526               28.71783112                1.00000000                0.29983160                0.27748586               -1.00879901               -0.03832267                0.98636196                1.15103521
              11.81269995                2.29785950               28.60694726                1.00000000                0.34172583                0.42437262               -1.29934021               -0.01058810                0.01963958               -0.69092681
               2.00179470                4.75197084               29.29168890                1.00000000               -0.18961006               -0.27320932                0.79558940               -0.02086311                0.13205932                1.31466676
               2.99989860                4.59750563               29.17642612                1.00000000               -0.15777598               -0.16032674                0.53141056               -0.00246418                0.19645449               -0.23816157
               3.99863918                4.44258707               29.06239538                0.00010000               -0.07320179               -0.05130398                0.27946854               -0.06777877                1.20775998               -1.66196836
               4.99843457                4.28604018               28.96734191                0.00010000               -0.65037116                0.06860102                0.01634926                0.39448818                6.53468092               -2.70636817
               5.98563176                4.14141101               28.95998181                0.00010000               -1.23421812                0.08073612               -0.09388962                0.76978844               10.56974770               -1.42769854
               6.97375020                3.99678506               28.94469806                0.00010000               -1.13825323                0.14387028               -0.21871618                0.63422833                9.89380635               -0.25702133
               7.96286670                3.85381237               28.92278205                0.00010000               -1.00799257                0.07598588               -0.36220587                0.49997997                9.42473851                0.99746039
               8.95359035                3.71393628               28.89687565                0.00010000               -0.84621148                0.03480901               -0.52238772                0.45512955                9.25123061                2.20721173
               9.94594247                3.57883667               28.87021982                0.00010000               -0.24860826               -0.04607691               -0.70550542                0.17469002                5.09831127                3.65313953
              10.94861819                3.44050300               28.75980439                1.00000000                0.29753011                0.22720086               -0.94374094               -0.01147356                0.53874006                1.21821032
              11.95189307                3.30203475               28.64175942                1.00000000                0.32748807                0.42722142               -1.24585475               -0.03279046                0.15806896               -0.45667913
               2.15543393                5.74941520               29.25615501                1.00000000               -0.14867365               -0.23183602                0.65839539               -0.02549016                0.12888510                1.10874620
               3.15394719                5.59614315               29.13301161                0.00010000               -0.11587851               -0.11048166                0.37902670               -0.00976950                0.28986771               -0.49187692
               4.15311636                5.44236215               29.01302473                0.00010000               -0.11640171                0.00796618                0.11611591               -0.03663527                1.73988226               -1.95859650
               5.15161916                5.28768907               28.91887247                0.00010000               -0.84098857                0.26511013               -0.14714377                0.16593633                8.57724055               -1.40874855
               6.13629659                5.14323823               28.93560007                0.00010000               -1.51042672                0.28298119               -0.16482793                0.45999669               13.53515966               -0.55595748
               7.12141063                4.99885248               28.93978185                0.00010000               -1.44833077                0.29411042               -0.23688910                0.23581696               12.66120249                0.27022622
               8.10732997                4.85560976               28.93790565                0.00010000               -1.34520129                0.24622899               -0.33690237                0.10314384               12.28533020                1.21291258
               9.09450660                4.71488431               28.93313195                0.00010000               -1.18497921                0.12659654               -0.45578745                0.08591222               12.20410971                2.26380048
              10.08363039                4.57800491               28.92796271                0.00010000               -0.43257320               -0.07676525               -0.59418155                0.02432044                6.38788429                3.33831882
              11.08585514                4.44247928               28.80501876                0.00010000                0.26751271                0.18731092               -0.87495802                0.02406495                0.29265631                1.34101079
              12.08898064                4.30640393               28.67767992                1.00000000                0.31255078                0.43419253               -1.20772737               -0.02341217                0.07712203               -0.38620608
               2.30782900                6.74733412               29.21866185                0.00010000               -0.10727304               -0.18253537                0.51581899               -0.02468687                0.06332452                0.94979473
               3.30675627                6.59529599               29.08704927                0.00010000               -0.07342203               -0.06151172                0.22834094               -0.00890914                0.26403538               -0.66139312
               4.30636056                6.44274639               28.95938404                0.00010000               -0.29395280                0.06278075               -0.04674026                0.06766351                3.43144008               -2.29269628
               5.30087721                6.29134239               28.89111657                0.00010000               -1.13461379                0.40710993               -0.24004478                0.02288775               11.25482464                0.24488615
               6.28366828                6.14707064               28.91977156                0.00010000               -1.73910987                0.46676918               -0.20697469                0.19660557               15.70471965                0.17393672
               7.26609501                6.00266727               28.93967627                0.00010000               -1.73852665                0.47568570               -0.24402458               -0.05141371               15.11682108                0.63958893
               8.24889775                5.85873695               28.95525619                0.00010000               -1.65907876                0.39033736               -0.30541927               -0.26217973               14.90257010                1.33634174
               9.23291344                5.71646821               28.96919895                0.00010000               -1.50319209                0.20079451               -0.38229458               -0.35448507               14.92674285                2.17592594
              10.21883391                5.57730137               28.98335574                0.00010000               -0.61064826               -0.05685479               -0.47012474               -0.22068804                7.64111529                3.07549985
              11.22070047                5.44424922               28.84958040                0.00010000                0.23708076                0.16911180               -0.79271715                0.03005228                0.15665497                1.24697458
              12.22357552                5.31071860               28.71377200                0.00010000                0.28750483                0.41926938               -1.14001966               -0.01674868                0.06051916               -0.41627024
               2.45901644                7.74576449               29.17994342                0.00010000               -0.06597064               -0.13191966                0.37436165               -0.02350341                0.02495371                0.86975438
               3.45835674                7.59491292               29.04016915                0.00010000               -0.02966019               -0.01691612                0.08117373               -0.00434450                0.16863624               -0.71119356
               4.45842324                7.44361776               28.90319763                0.00010000               -0.53020316                0.10544044               -0.20808983                0.19590339                5.80766265               -2.45222678
               5.44775267                7.29583127               28.87619978                0.00010000               -1.47597080                0.48842848               -0.20401024                0.12100040               14.36393279                0.78906684
               6.42890382                7.15257361               28.91029936                0.00010000               -1.95183187                0.64175627               -0.22609796                0.11853671               17.38401294                0.55232794
               7.40871603                7.00836620               28.94258814                0.00010000               -2.03091935                0.68977885               -0.24307740               -0.23697895               17.29913870                0.78672020
               8.38828544                6.86341650               28.97341668                0.00010000               -1.99317734                0.57735868               -0.26968449               -0.60197825               17.32255971                1.30570691
               9.36885249                6.71890020               29.00432016                0.00010000               -1.84249092                0.31290864               -0.30908012               -0.82735972               17.48635560                2.00061118
              10.35143562                6.57686782               29.03643226                0.00010000               -0.79067710               -0.02779103               -0.35555164               -0.51052995                8.87093469                2.81143110
              11.35303895                6.44586151               28.89307054                0.00010000                0.21356482                0.15922604               -0.71650071                0.01314629                0.07120208                1.10847194
              12.35570691                6.31478932               28.74890582                0.00010000                0.26679670                0.39122341               -1.07999728               -0.00831716                0.03888321               -0.52616779
               2.60906208                8.74469572               29.14082475                0.00010000               -0.02459718               -0.08305399                0.23515803               -0.02273826                0.00827857                0.85865872
               3.60881611                8.59495767               28.99312891                0.00010000                0.01490948                0.02522825               -0.06345214                0.00009932                0.05143198               -0.71080717
               4.60936027                8.44485520               28.84622039                0.00010000               -0.72373705                0.13835170               -0.36399646                0.34639330                8.12607993               -2.33445131
               5.59434137                8.30111096               28.86000113                0.00010000               -1.79280918                0.61986036               -0.20822326                0.41427772               17.61983977                0.54049059
               6.57350409                8.15990576               28.90259986                0.00010000               -2.19144134                0.85765696               -0.25224474                0.19750570               19.17426987                0.53012393
               7.55051254                8.01646284               28.94604121                0.00010000               -2.35899521                0.92821636               -0.24443024               -0.27887197               19.36883481                0.68587507
               8.52632418                7.87028413               28.99081689                0.00010000               -2.37988066                0.86208780               -0.22654729               -0.81228129               19.62009918                1.07824077
               9.50291493                7.72272638               29.03746619                0.00010000               -2.23310948                0.50831304               -0.23441329               -1.33367699               19.94497655                1.76194234
              10.48166199                7.57674554               29.08682401                0.00010000               -0.99365129                0.00683822               -0.27030976               -0.84522701               10.10622701                2.44790613
              11.48304190                7.44743374               28.93494497                0.00010000                0.19457896                0.16029019               -0.65652275               -0.00998062                0.03581973                0.95372770
              12.48555357                7.31854307               28.78258570                0.00010000                0.25116698                0.35811064               -1.03503086               -0.00129957                0.02239349               -0.67149465
               2.75803778                9.74410341               29.10183310                0.00010000                0.01614603               -0.03732033                0.09863106               -0.02246253               -0.01245396                0.74800516
               3.75819924                9.59541748               28.94617907                0.00010000                0.05800180                0.06661816               -0.20648814                0.00167437                0.07914439               -0.60279196
               4.75919782                9.44638480               28.79227615                0.00010000               -0.86057882                0.16822830               -0.50845601                0.57080508               10.28328726               -1.59072628
               5.74098767                9.30822848               28.84067165                0.00010000               -2.08478845                0.93820564               -0.33562514                0.56905449               20.67767709                0.25829951
               6.71750205                9.16972675               28.89335024                0.00010000               -2.41137183                1.04193889               -0.30646847                0.23403245               21.06498178                0.29204438
               7.69276023                9.02693053               28.94762652                0.00010000               -2.58628903                1.10849024               -0.26021810               -0.16998360               21.39385252                0.39006037
               8.66577627                8.88065826               29.00514153                0.00010000               -2.85213494                1.12843389               -0.19047379               -0.68682325               21.91484923                0.61840140
               9.63571753                8.72906646               29.06831296                0.00010000               -2.79762765                1.02038969               -0.08494239               -1.38211366               22.31556323                1.17659545
              10.60982372                8.57700458               29.13261588                0.00010000               -1.23378612                0.05618693               -0.22070632               -1.22770554               11.37303497                1.57496780
              11.61104181                8.44906732               28.97525896                0.00010000                0.18192766                0.16788542               -0.61675568               -0.03049858                0.14149972                0.72049287
              12.61346227                8.32195153               28.81457224                0.00010000                0.24204604                0.32687773               -1.00647937                0.00047025               -0.01088645               -0.67204721
               2.90598469               10.74394932               29.06042078                0.00010000                0.05835223               -0.01540965               -0.03574552                0.02876279                0.41052511                0.63215244
               3.90656822               10.59629003               28.90123012                0.00010000                0.09903416                0.08725516               -0.34605970                0.05041988                0.81833304               -0.49955163
               4.90796538               10.44821977               28.75010908                0.00010000               -1.20938566                0.18349738               -0.64318230                1.05600759               12.23665777               -0.99948315
               5.88238050               10.31987507               28.81924152                0.00010000               -2.42413442                1.16465908               -0.48156531                0.76552222               23.07798836                0.10897931
               6.85948269               10.18074454               28.88154846                0.00010000               -2.30995711                1.10177898               -0.37871018                0.13594284               22.94451454                0.13382090
               7.83618136               10.03863265               28.94577298                0.00010000               -2.45154518                1.17021214               -0.29974069               -0.05247365               23.32194101                0.19475942
               8.81045179                9.89285281               29.01391597                0.00010000               -2.86275143                1.21945458               -0.19239403               -0.30737192               23.99536123                0.32775854
               9.77892633                9.74313418               29.09032294                0.00010000               -3.66723793                1.40677173                0.01223722               -1.42829603               24.35624229                0.72030024
              10.73710703                9.57786928               29.16529970                0.00010000               -2.07206724                0.08646998               -0.21221328               -1.88880519               12.91622345                0.93988233
              11.73748499                9.45079145               29.01222955                0.00010000                0.13437640                0.17241359               -0.59412263                0.00488491                0.97581555                0.57146877
              12.73979455                9.32508062               28.84798292                0.00010000                0.23095670                0.31290965               -0.98452738                0.06214576                0.43477133               -0.58617156
               1.46296018                0.81335734               30.43998803                1.00000000               -0.34310315               -0.36864869                1.28363230               -0.06226316               -0.90119084                0.92518805
               2.45952915                0.64729554               30.34358593                1.00000000               -0.29448210               -0.29003187                1.03203802               -0.04653328               -1.16644274                0.09876559
               3.45707054                0.48089347               30.24185247                1.00000000               -0.18489745               -0.21273951                0.77103980               -0.04214705               -1.12825514               -0.20934618
               4.45583120                0.31486598               30.14623786                1.00000000                0.15303717               -0.16589046                0.51814070                0.28410071               -0.26974059               -0.79948303
               5.46013128                0.15620715               30.06182682                0.00010000                0.28922920               -0.06666447                0.24029863               -0.06757563                0.09206342                0.25551397
               6.46161579                0.00315122               29.97460725                0.00010000                0.12967875                0.01997116               -0.03609049               -0.02262483               -0.23862073                0.14891253
               7.46272486               -0.14852847               29.88385441                0.00010000                0.13357705                0.09542721               -0.31175474               -0.00640368               -0.46520695               -0.07767351
               8.46428733               -0.29963972               29.79206921                0.00010000                0.17823836                0.18084278               -0.59508116               -0.01080554               -0.72740465                0.10616084
               9.46628963               -0.45113498               29.69579286                1.00000000                0.24537966                0.26344674               -0.87368795               -0.01247469               -1.03267740                0.55185165
              10.46919492               -0.60322425               29.59762366                1.00000000                0.33377745                0.34037977               -1.14206000               -0.03282546               -1.01249066                0.00258856
              11.47296518               -0.75544560               29.50167171                1.00000000                0.37702549                0.42599627               -1.40206097               -0.04136855               -0.90206383               -0.89599129
               1.62839935                1.80967085               30.40025980                1.00000000               -0.31035993               -0.35213704                1.15543468               -0.02124472               -0.13156189                1.26102237
               2.62529575                1.64439522               30.30356885                1.00000000               -0.27677515               -0.26954242                0.90475324               -0.00367231               -0.13804295                0.13722200
               3.62286385                1.47876608               30.20671387                1.00000000               -0.21401916               -0.18803727                0.64317426                0.00264092                0.02440070               -0.54283884
               4.62101537                1.31320708               30.11323089                1.00000000               -0.37754686               -0.14661648                0.38148430                0.40611907                1.62909437               -1.17771257
               5.61531291                1.15554051               30.04839849                0.00010000               -0.36290087                0.03341915                0.15790389               -0.07079136                2.44158966                1.05622360
               6.61375735                1.00335093               29.96983605                0.00010000               -0.06283088                0.07008399               -0.10177765                0.07460413                1.53975159                0.46987891
               7.61405629                0.85242580               29.88659342                0.00010000                0.08625879                0.10080145               -0.36290293                0.12244918                1.45165624               -0.33177377
               8.61548253                0.70216870               29.80628924                0.00010000                0.19504257                0.19612130               -0.62196502                0.09549861                1.47553897                0.57407250
               9.61795714                0.55149948               29.72377643                1.00000000                0.27697230                0.26029022               -0.86454280                0.04276391                0.75300349                0.79836446
              10.62102197                0.40017954               29.62922961                1.00000000                0.34078441                0.33498086               -1.12406065                0.00899265                0.08680885                0.11734888
              11.62477283                0.24881436               29.53339576                1.00000000                0.37508597                0.43078005               -1.38208145                0.00092800                0.02317778               -1.05167206
               1.79308655                2.80631460               30.36722432                1.00000000               -0.27260719               -0.32464396                1.03708425               -0.01374124                0.04498077                1.59989943
               2.79036048                2.64190469               30.26430867                1.00000000               -0.23875256               -0.23344045                0.78181784                0.00911395                0.22103476                0.11645792
               3.78831150                2.47713273               30.16489515                1.00000000               -0.15906642               -0.14592531                0.52760616                0.01140236                0.75104727               -1.32532380
               4.78717915                2.31193365               30.07258517                0.00010000               -0.98699470               -0.11457426                0.24153556                0.56343862                4.64199993               -2.01909375
               5.76857161                2.15687554               30.05107087                0.00010000               -1.04782866                0.05582153                0.07237213                0.97737137                5.51506699               -1.18417088
               6.76622258                2.00455290               29.97152801                0.00010000               -0.11077692               -0.07535085               -0.16935855                0.76699708                2.24613919               -0.18986266
               7.76635607                1.85348756               29.88428570                0.00010000                0.04505180               -0.09323823               -0.39646740                0.59671280                3.49679957                0.64126249
               8.76712361                1.70428270               29.82989656                0.00010000                0.13889982               -0.04786956               -0.67912366                0.38210611                4.15601807                1.20759612
               9.76913406                1.55407082               29.75674153                1.00000000                0.24681390                0.24535732               -0.85348202                0.01965699                2.17353090                1.63364581
              10.77205989                1.40347536               29.66314332                1.00000000                0.32900131                0.31124121               -1.09624534               -0.00567917                0.77513799                0.76517514
              11.77571409                1.25317000               29.56197482                1.00000000                0.36541985                0.44041756               -1.36675056               -0.00421670                0.39896411               -1.03037408
               1.95694434                3.80317797               30.33426739                1.00000000               -0.22844393               -0.30255193                0.91668914               -0.01253792                0.09364552                1.51778968
               2.95465990                3.63972641               30.22386121                1.00000000               -0.19407048               -0.20021150                0.65762804                0.00895562                0.12755465               -0.02675179
               3.95306293                3.47584757               30.11409072                1.00000000               -0.10592855               -0.10297562                0.40697551               -0.02515449                1.07205599               -1.67782650
               4.95254133                3.31091559               30.02256092                0.00010000               -0.54109185               -0.05823470                0.14767126                0.49690243                5.07952087               -2.72681825
               5.94224110                3.15665694               29.99314621                0.00010000               -1.00280290               -0.02053171               -0.02202562                1.31958883                7.74914342               -3.05262120
               6.93248527                3.00184391               29.95367756                0.00010000               -0.79901751               -0.10287989               -0.20091705                1.02049443                6.93265365               -0.82976961
               7.92626075                2.85056103               29.90629392                0.00010000               -0.49719445               -0.16561741               -0.39824608                0.77639936                6.46717019                1.41192280
               8.92254138                2.70121131               29.85660876                0.00010000               -0.35515607               -0.17392379               -0.59639599                0.63186149                6.11103210                1.79838496
               9.91915762                2.55640663               29.80138551                0.00010000               -0.03660885                0.09871114               -0.80081753                0.15323330                3.94746525                3.06315166
              10.92180921                2.40640437               29.70768662                1.00000000                0.30707967                0.27392971               -1.03390281               -0.05322662                1.02976128                1.20431702
              11.92529922                2.25762272               29.59395812                1.00000000                0.34900096                0.43777060               -1.31746634               -0.00856926                0.03750296               -0.67609617
               2.11973892                4.80026356               30.29960019                1.00000000               -0.18689221               -0.27374153                0.78679530               -0.02024953                0.14056642                1.31911914
               3.11786999                4.63790046               30.18170824                1.00000000               -0.15598439               -0.15810290                0.52519509               -0.00197007                0.21112281               -0.24985580
               4.11661923                4.47507322               30.06517144                0.00010000               -0.07810815               -0.04753635                0.27586059               -0.06051823                1.22348453               -1.68576610
               5.11630783                4.31076896               29.96751043                0.00010000               -0.62920820                0.07103419                0.02233043                0.31677871                6.61645275               -2.72069609
               6.10403507                4.15646490               29.95903162                0.00010000               -1.17897298                0.07963614               -0.09774898                0.60575687               10.72730879               -1.40649231
               7.09272837                4.00249530               29.94245768                0.00010000               -1.07592046                0.12842409               -0.23122860                0.47947523               10.04290166               -0.20788064
               8.08251666                3.85017521               29.91907390                0.00010000               -0.94065618                0.05866625               -0.38148413                0.35553512                9.56716637                1.06924220
               9.07391525                3.70080423               29.89154791                0.00010000               -0.77554899                0.01314827               -0.54514667                0.32277326                9.38261195                2.29223360
              10.06700568                3.55604504               29.86302916                0.00010000               -0.20679871               -0.08017696               -0.72906346                0.11085289                5.20408754                3.74541832
              11.06977927                3.40895396               29.75040624                1.00000000                0.30501659                0.22567620               -0.95638162               -0.01726813                0.58994724                1.26804221
              12.07310601                3.26192542               29.62932151                1.00000000                0.33267334                0.43753592               -1.26613661               -0.03049141                0.17544143               -0.44698399
               2.28126555                5.79770314               30.26268637                1.00000000               -0.14547028               -0.23207455                0.64781004               -0.02543477                0.12951947                1.10537649
               3.27981085                5.63656435               30.13676485                0.00010000               -0.11407405               -0.10724606                0.37170121               -0.01036466                0.29899318               -0.51303869
               4.27898407                5.47489684               30.01416717                0.00010000               -0.11628145                0.01386288                0.11269687               -0.03866686                1.76278348               -1.99808462
               5.27748522                5.31233628               29.91751514                0.00010000               -0.81770875                0.24673096               -0.12218275                0.08449679                8.71671166               -1.40590356
               6.26262989                5.15824966               29.93398201                0.00010000               -1.45603725                0.27217115               -0.15978331                0.29801387               13.76841966               -0.51497422
               7.24836447                5.00441239               29.93736361                0.00010000               -1.37836861                0.27476644               -0.24873715                0.09163612               12.86570956                0.32892411
               8.23506252                4.85173436               29.93443269                0.00010000               -1.26187294                0.21934833               -0.36006824               -0.03338553               12.48055462                1.28848039
               9.22312701                4.70147428               29.92843709                0.00010000               -1.09187852                0.09647748               -0.48504150               -0.05131867               12.39363762                2.35608512
              10.21322495                4.55480309               29.92187726                0.00010000               -0.37717702               -0.11260815               -0.62583171               -0.03833316                6.51222194                3.45280331
              11.21558347                4.41091789               29.79619808                0.00010000                0.27607605                0.18202271               -0.88631861                0.02937063                0.32287409                1.39606732
              12.21874647                4.26637343               29.66555334                1.00000000                0.31629983                0.44215284               -1.21492273               -0.02327958                0.07840128               -0.36543493
               2.44150780                6.79562207               30.22375879                0.00010000               -0.10387992               -0.18196723                0.50338143               -0.02478187                0.06247450                0.94383974
               3.44046900                6.63575554               30.08929314                0.00010000               -0.07169157               -0.05748332                0.22037554               -0.01015344                0.26955971               -0.67947053
               4.44007397                6.47535047               29.95890048                0.00010000               -0.29120255                0.07003321               -0.04990854                0.04558514                3.49765587               -2.33010091
               5.43464495                6.31570358               29.88899837                0.00010000               -1.10773710                0.37423962               -0.18348610               -0.08134464               11.45901336                0.34068314
               6.41791923                6.16190833               29.91777527                0.00010000               -1.67842758                0.44285305               -0.19406845                0.03766655               15.98066199                0.23539401
               7.40107640                6.00799063               29.93718924                0.00010000               -1.65660822                0.44739915               -0.25576005               -0.19691918               15.36669037                0.70424145
               8.38478706                5.85456217               29.95208228                0.00010000               -1.56281268                0.35776972               -0.33185815               -0.39880317               15.15036669                1.41463607
               9.36982014                5.70273378               29.96521545                0.00010000               -1.39958312                0.16917555               -0.41662621               -0.49606853               15.17693617                2.27035635
              10.35679540                5.55379288               29.97847575                0.00010000               -0.55119001               -0.07942694               -0.50687083               -0.28882921                7.78563102                3.18981367
              11.35879634                5.41259441               29.84156874                0.00010000                0.24669651                0.16216880               -0.80900436                0.03596097                0.17308398                1.30621752
              12.36172933                5.27076847               29.70231631                0.00010000                0.29329857                0.42865946               -1.15228094               -0.01624416                0.06197203               -0.38493213
               2.60050297                7.79406380               30.18361752                0.00010000               -0.06235960               -0.13002289                0.36015627               -0.02369125                0.02425690                0.86540928
               3.59987938                7.63541469               30.04093871                0.00010000               -0.02776197               -0.01283588                0.07259512               -0.00551898                0.17007317               -0.72591714
               4.59994773                7.47629751               29.90110298                0.00010000               -0.52894517                0.11201358               -0.21078317                0.15052319                5.97319547               -2.48524120
               5.58930047                7.31982107               29.87448437                0.00010000               -1.44257781                0.45513467               -0.14204494                0.00311066               14.64985298                0.90757595
               6.57109618                7.16710672               29.90810938                0.00010000               -1.87641156                0.60914909               -0.21506142               -0.02639870               17.65218525                0.61296766
               7.55177224                7.01336038               29.94010010                0.00010000               -1.93764324                0.65508892               -0.25745870               -0.37532383               17.58874500                0.84902239
               8.53234331                6.85888975               29.97058535                0.00010000               -1.88986516                0.54065815               -0.29929844               -0.73550888               17.61994977                1.38667172
               9.51397494                6.70485779               30.00104806                0.00010000               -1.73777896                0.28411196               -0.34725492               -0.96471595               17.79066801                2.09390939
              10.49758773                6.55321455               30.03267941                0.00010000               -0.73239177               -0.03462548               -0.39535185               -0.58092415                9.02986017                2.90652488
              11.49932710                6.41416127               29.88576808                0.00010000                0.22428674                0.15929098               -0.74444930                0.01696412                0.07317030                1.15564188
              12.50207347                6.27494662               29.73800679                0.00010000                0.27463647                0.40300271               -1.10214881               -0.00678902                0.03873954               -0.50719986
               2.75833220                8.79302161               30.14309860                0.00010000               -0.02072855               -0.07959902                0.21920689               -0.02294396                0.00785045                0.85704119
               3.75812491                8.63549882               29.99244909                0.00010000                0.01729267                0.02892409               -0.07272228               -0.00088377                0.05021391               -0.72335999
               4.75867805                8.47759074               29.84256821                0.00010000               -0.71134817                0.14253251               -0.36683805                0.28351302                8.35942050               -2.35967010
               5.74389795                8.32480627               29.85808302                0.00010000               -1.74130522                0.59487864               -0.18380806                0.30217740               17.98490325                0.56455564
               6.72385195                8.17409131               29.90009370                0.00010000               -2.10555284                0.82341476               -0.25318058                0.07809529               19.46541840                0.56797830
               7.70178689                8.02109241               29.94351420                0.00010000               -2.26362363                0.89399919               -0.26448834               -0.39579162               19.70887988                0.73525393
               8.67857947                7.86537534               29.98841416                0.00010000               -2.27929318                0.82767289               -0.25713585               -0.93028515               19.96907486                1.15535067
               9.65620103                7.70841601               30.03493251                0.00010000               -2.13530173                0.47916291               -0.27445776               -1.46150997               20.28248201                1.89659872
              10.63587344                7.55310037               30.08388508                0.00010000               -0.93987359                0.01352089               -0.31667012               -0.90946996               10.26865893                2.50914245
              11.63740356                7.41578023               29.92818246                0.00010000                0.20746990                0.16888430               -0.69667793               -0.00840685                0.03059369                0.98426307
              12.64002284                7.27882853               29.77208366                0.00010000                0.26192810                0.37142211               -1.06804319                0.00096579                0.02186289               -0.66628536
               2.91508967                9.79247182               30.10273388                0.00010000                0.02028971               -0.03247698                0.08095733               -0.02261338               -0.01340669                0.74934817
               3.91529257                9.63599317               29.94406478                0.00010000                0.06104357                0.06991341               -0.21649255                0.00086516                0.07931063               -0.61284325
               4.91631054                9.47914816               29.78716523                0.00010000               -0.82245556                0.17067057               -0.51463665                0.49701230               10.52175415               -1.60675688
               5.89884346                9.33171864               29.83730288                0.00010000               -1.99692971                0.90457472               -0.34432101                0.48258036               21.09573590                0.21737535
               6.87637195                9.18357502               29.89023008                0.00010000               -2.31355390                1.00904545               -0.32211060                0.15605104               21.43180934                0.30609192
               7.85257238                9.03124036               29.94490674                0.00010000               -2.49789739                1.08017579               -0.28788902               -0.24161212               21.79623856                0.41731896
               8.82641400                8.87544321               30.00309978                0.00010000               -2.77763370                1.10616137               -0.22185529               -0.76612270               22.36562853                0.66832469
               9.79701970                8.71444105               30.06738925                0.00010000               -2.71899414                0.99642011               -0.10237359               -1.47065175               22.66402288                1.32060513
              10.77203412                8.55348497               30.13010760                0.00010000               -1.17944471                0.07260644               -0.27991845               -1.27241317               11.48356100                1.59636421
              11.77343081                8.41753895               29.96882734                0.00010000                0.19810370                0.18344155               -0.67029669               -0.02983062                0.13890971                0.73312890
              12.77599619                8.28237507               29.80429921                0.00010000                0.25653809                0.34157279               -1.05083609                0.00302402               -0.00854631               -0.67645091
               3.07083723               10.79237207               30.05997185                0.00010000                0.06286478               -0.00997460               -0.05486822                0.02725741                0.41072428                0.63513037
               4.07146587               10.63689709               29.89771590                0.00010000                0.10277983                0.09039210               -0.35665492                0.04893479                0.82447387               -0.50799260
               5.07289282               10.48100416               29.74364080                0.00010000               -1.11715895                0.18559967               -0.65025767                0.95826192               12.47673130               -1.01158106
               6.04912269               10.34289777               29.81435447                0.00010000               -2.27207870                1.11791242               -0.49863181                0.69132690               23.53709080                0.05993763
               7.02745125               10.19427222               29.87765401                0.00010000               -2.20181196                1.06971977               -0.40498816                0.09783787               23.38266722                0.13730333
               8.00508646               10.04269592               29.94261867                0.00010000               -2.36974576                1.14555617               -0.33584977               -0.08727487               23.77974891                0.20804488
               8.98005633                9.88749857               30.01183023                0.00010000               -2.81701106                1.20553528               -0.22961972               -0.35334194               24.53728815                0.35688330
               9.94874623                9.72834442               30.09043736                0.00010000               -3.63645323                1.39033702                0.00646375               -1.47465025               24.71946160                0.83319528
              10.90732727                9.55455250               30.16280116                0.00010000               -2.04146933                0.10675297               -0.28728891               -1.91545260               12.99320138                0.94004239
              11.90791685                9.41944906               30.00595142                0.00010000                0.15419112                0.19101086               -0.66298424                0.00397786                0.99221271                0.57612467
              12.91041109                9.28565998               29.83786875                0.00010000                0.24942435                0.32849163               -1.04164067                0.06258207                0.44969073               -0.59210150
               1.55154830                0.86303655               31.45279787                1.00000000               -0.34148966               -0.36750734                1.27837202               -0.06092645               -0.91461526                0.93781639
               2.54813340                0.68896170               31.35388825                1.00000000               -0.29404323               -0.28988023                1.02900816               -0.04322584               -1.18500300                0.10351142
               3.54566743                0.51458003               31.24955298                1.00000000               -0.18933073               -0.21172290                0.76800907               -0.03826758               -1.14895567               -0.21419068
               4.54434678                0.34050602               31.15140457                1.00000000                0.11824866               -0.15775303                0.51279857                0.23745225               -0.29906178               -0.81769592
               5.54803240                0.17267162               31.06423377                0.00010000                0.25243879               -0.07171290                0.24013556               -0.07021395                0.05146276                0.26613038
               6.54939556                0.00976533               30.97426464                0.00010000                0.12447225                0.01758894               -0.03166377               -0.02829317               -0.27499248                0.15334208
               7.55052185               -0.15179635               30.88076870                0.00010000                0.14108395                0.09314237               -0.30331102               -0.01047988               -0.50583910               -0.07764232
               8.55221724               -0.31266996               30.78614866                0.00010000                0.19190546                0.17895308               -0.58643844               -0.01787154               -0.77240221                0.10560577
               9.55435996               -0.47359322               30.68708375                1.00000000                0.25429003                0.26056092               -0.86541697               -0.01772472               -1.07035245                0.56333138
              10.55730304               -0.63491161               30.58623144                1.00000000                0.33532782                0.33974390               -1.13469618               -0.03159141               -1.04159746               -0.00029791
              11.56106651               -0.79635438               30.48767568                1.00000000                0.37634749                0.42807527               -1.39652547               -0.03805167               -0.92790070               -0.92060476
               1.72501388                1.85936148               31.41178603                1.00000000               -0.30844807               -0.35156057                1.14972046               -0.02055068               -0.13441858                1.27830519
               2.72192940                1.68606290               31.31259863                1.00000000               -0.27506450               -0.26920530                0.90114579               -0.00094164               -0.14605367                0.14404230
               3.71951259                1.51246280               31.21313416                1.00000000               -0.21269477               -0.18732743                0.64503505                0.00667589                0.01292138               -0.54420439
               4.71767551                1.33892849               31.11709388                1.00000000               -0.34059923               -0.13470363                0.39572946                0.34146142                1.63452455               -1.20399704
               5.71270061                1.17195450               31.05002643                0.00010000               -0.31644475                0.02299491                0.16193096               -0.06926630                2.45092414                1.05961624
               6.71134661                1.00994122               30.96883563                0.00010000               -0.05329579                0.06594449               -0.09924258                0.06259640                1.53265285                0.46959780
               7.71163469                0.84913508               30.88297720                0.00010000                0.07951744                0.10449370               -0.35954352                0.10861605                1.44653248               -0.32338359
               8.71293696                0.68911957               30.80004949                0.00010000                0.18344220                0.19962120               -0.62522201                0.07530362                1.48193824                0.55636224
               9.71530354                0.52901239               30.71511199                1.00000000                0.27153715                0.26019925               -0.86893619                0.03208397                0.76031279                0.80943108
              10.71836770                0.36848583               30.61796821                1.00000000                0.34126148                0.33556995               -1.12918176                0.00990507                0.08627130                0.11981359
              11.72212877                0.20792637               30.51955074                1.00000000                0.37610627                0.43659205               -1.38902567                0.00420886                0.02366341               -1.07686777
               1.89773445                2.85600534               31.37756671                1.00000000               -0.27211984               -0.32510863                1.03085820               -0.01316644                0.04727782                1.61989356
               2.89501325                2.68357759               31.27211307                1.00000000               -0.23995455               -0.23239090                0.77902500                0.01196020                0.22192252                0.12354973
               3.89293536                2.51083348               31.17010543                1.00000000               -0.16644664               -0.14536985                0.52051936                0.02348307                0.73583362               -1.32182287
               4.89168432                2.33781195               31.07494163                1.00000000               -0.86505032               -0.10365347                0.24203452                0.48554046                4.66990425               -2.02452311
               5.87563435                2.17313152               31.05177743                0.00010000               -0.91087052                0.03279197                0.05636917                0.80417927                5.57573178               -1.19306259
               6.87346691                2.01108422               30.96978943                0.00010000               -0.10592663               -0.07455995               -0.17800899                0.62240875                2.28131441               -0.17464271
               7.87351582                1.85029353               30.88032926                0.00010000                0.01895488               -0.07973891               -0.39641155                0.47486736                3.50998231                0.67098442
               8.87384600                1.69132247               30.82302239                0.00010000                0.10597834               -0.03075488               -0.69548756                0.29688154                4.20082002                1.24604168
               9.87563538                1.53161076               30.74813512                1.00000000                0.23705769                0.24447347               -0.86992407               -0.01257260                2.24423825                1.66926561
              10.87858716                1.37179979               30.65211934                1.00000000                0.33171103                0.31364255               -1.11277429               -0.01478541                0.79844776                0.78841333
              11.88226960                1.21237746               30.54824516                1.00000000                0.36824475                0.45322575               -1.38511430               -0.00332131                0.40928574               -1.03998123
               2.06960605                3.85285931               31.34340123                1.00000000               -0.22655802               -0.30355502                0.90949984               -0.01164885                0.09893152                1.53033637
               3.06734047                3.68141508               31.23041101                1.00000000               -0.19290751               -0.19863662                0.65261087                0.01163248                0.13762304               -0.02516979
               4.06574790                3.50955540               31.11814258                1.00000000               -0.11260989               -0.10190881                0.40413677               -0.00941653                1.08308820               -1.67926080
               5.06508827                3.33685542               31.02405953                0.00010000               -0.51179889               -0.05699557                0.15452445                0.41370324                5.12960744               -2.72661203
               6.05551192                3.17261033               30.99287629                0.00010000               -0.92277457               -0.03430803               -0.03266326                1.05954712                7.84296729               -3.04723083
               7.04663278                3.00845002               30.95161278                0.00010000               -0.73090644               -0.10714165               -0.21520581                0.80145087                7.01968721               -0.78777166
               8.04089379                2.84754030               30.90223139                0.00010000               -0.45377118               -0.16175416               -0.41714901                0.58292152                6.55042814                1.46712266
               9.03755736                2.68850448               30.85055760                0.00010000               -0.31595147               -0.16849212               -0.61712503                0.49014430                6.19896684                1.89381513
              10.03457477                2.53390186               30.79330660                0.00010000               -0.01260294                0.08212629               -0.81578448                0.08923497                4.01916993                3.12742873
              11.03730530                2.37475868               30.69715307                1.00000000                0.31661158                0.27763017               -1.06792810               -0.06866720                1.06590745                1.26119521
              12.04090700                2.21699089               30.58059793                1.00000000                0.36016973                0.45611961               -1.35233124               -0.01169091                0.05501328               -0.66433680
               2.24038993                4.84993424               31.30742480                1.00000000               -0.18401210               -0.27475885                0.77770354               -0.01987305                0.15013819                1.32142285
               3.23854980                4.67960486               31.18693002                1.00000000               -0.15416212               -0.15587983                0.51898308               -0.00165763                0.22708223               -0.26224652
               4.23730668                4.50879530               31.06791259                0.00010000               -0.08231789               -0.04419891                0.27257075               -0.05294922                1.24619682               -1.70924774
               5.23690345                4.33667204               30.96778852                0.00010000               -0.60379953                0.06138217                0.03395325                0.23501678                6.71074120               -2.75527465
               6.22523069                4.17244536               30.95802683                0.00010000               -1.11687448                0.07923801               -0.10371279                0.42869689               10.87344764               -1.37801792
               7.21456596                4.00894139               30.94007349                0.00010000               -1.00554503                0.11246934               -0.24780489                0.31272193               10.18151958               -0.15647077
               8.20511979                3.84705844               30.91515237                0.00010000               -0.86393123                0.04153420               -0.40664688                0.19925164                9.70088834                1.14123349
               9.19728733                3.68795262               30.88597271                0.00010000               -0.69769558               -0.00830056               -0.57340921                0.17861369                9.51329634                2.37548852
              10.19116588                3.53325329               30.85563855                0.00010000               -0.15812749               -0.11437334               -0.75258570                0.04694223                5.31193045                3.82971360
              11.19412478                3.37735239               30.74067676                1.00000000                0.32027451                0.22397266               -0.98625488               -0.02111017                0.63646622                1.34177383
              12.19757137                3.22149985               30.61643669                1.00000000                0.34465879                0.45547703               -1.30024559               -0.03869688                0.18067394               -0.41618802
               2.40986735                5.84736413               31.26911121                1.00000000               -0.14210921               -0.23272391                0.63677764               -0.02567144                0.13042936                1.10005489
               3.40844626                5.67829748               31.14044563                0.00010000               -0.11228044               -0.10360660                0.36437268               -0.01183678                0.30875129               -0.53409563
               4.40762174                5.50867142               31.01527867                0.00010000               -0.11538543                0.02066294                0.10959443               -0.04563295                1.79948157               -2.03574377
               5.40613855                5.33808307               30.91642881                0.00010000               -0.79026151                0.22573925               -0.10062030               -0.00985448                8.85750892               -1.39212348
               6.39181651                5.17419509               30.93240441                0.00010000               -1.39322062                0.26028969               -0.15740906                0.12381523               13.97796598               -0.46488638
               7.37827414                5.01069941               30.93480710                0.00010000               -1.29744604                0.25371092               -0.26540270               -0.06341296               13.05170840                0.39228260
               8.36586759                4.84837098               30.93070429                0.00010000               -1.16696741                0.19092865               -0.38938456               -0.18009353               12.66354431                1.36630147
               9.35493479                4.68833846               30.92343112                0.00010000               -0.98768736                0.06558702               -0.52062807               -0.19926175               12.57639892                2.44842285
              10.34611384                4.53161439               30.91544607                0.00010000               -0.31491282               -0.14789003               -0.66362286               -0.10364837                6.64632774                3.56198642
              11.34863653                4.37923813               30.78729238                0.00010000                0.28621470                0.17255884               -0.89568623                0.03414239                0.36726460                1.46114187
              12.35183814                4.22610043               30.65338147                1.00000000                0.32016046                0.45333310               -1.22278667               -0.02634830                0.08407816               -0.32547795
               2.57800979                6.84527976               31.22872948                0.00010000               -0.10040152               -0.18156287                0.49043055               -0.02511089                0.06167959                0.93626433
               3.57700578                6.67753273               31.09145678                0.00010000               -0.07006748               -0.05294283                0.21225239               -0.01223644                0.27526564               -0.69679518
               4.57660844                6.50920856               30.95838587                0.00010000               -0.29115456                0.07868895               -0.05295859                0.01869171                3.59156539               -2.36496071
               5.57118269                6.34118682               30.88744685                0.00010000               -1.07588940                0.34075394               -0.12839991               -0.19763078               11.66675620                0.45028312
               6.55509065                6.17765116               30.91589019                0.00010000               -1.60304384                0.41597173               -0.18603942               -0.13279671               16.21651166                0.30065755
               7.53912181                6.01401561               30.93456107                0.00010000               -1.56058950                0.41611364               -0.27331398               -0.35166578               15.59171217                0.77222220
               8.52387886                5.85087702               30.94861902                0.00010000               -1.45315585                0.32235371               -0.36474960               -0.54411807               15.38246706                1.49632204
               9.51005869                5.68926436               30.96086643                0.00010000               -1.28428094                0.13614318               -0.45730885               -0.64722643               15.41896926                2.36816134
              10.49819325                5.53029549               30.97321832                0.00010000               -0.48685494               -0.10127031               -0.54861094               -0.36309193                7.93729247                3.30957193
              11.50032159                5.38080357               30.83340031                0.00010000                0.25632842                0.15612458               -0.82723047                0.04047326                0.19871070                1.36296366
              12.50331981                5.23056651               30.69072638                0.00010000                0.29982211                0.43887706               -1.17013815               -0.01539770                0.06283789               -0.35371007
               2.74485920                7.84373287               31.18714654                0.00010000               -0.05864683               -0.12797883                0.34533469               -0.02400877                0.02356459                0.85969224
               3.74427273                7.67723863               31.04162105                0.00010000               -0.02588585               -0.00841657                0.06368594               -0.00713371                0.17163539               -0.73973939
               4.74434148                7.51024520               30.89898197                0.00010000               -0.52646962                0.11954963               -0.21365852                0.09829129                6.16682262               -2.51581380
               5.73374334                7.34489814               30.87335888                0.00010000               -1.40048449                0.41983705               -0.08807837               -0.11997088               14.93741816                1.00692827
               6.71633179                7.18251453               30.90599813                0.00010000               -1.78641904                0.57467330               -0.21142322               -0.17929246               17.87715012                0.66930136
               7.69801496                7.01902168               30.93743897                0.00010000               -1.82976617                0.61728418               -0.27886052               -0.52242991               17.85232082                0.91246658
               8.67973647                6.85481806               30.96743071                0.00010000               -1.77215840                0.49998475               -0.33576056               -0.87759229               17.90024673                1.47262701
               9.66257179                6.69106133               30.99737507                0.00010000               -1.62118343                0.25264051               -0.39088246               -1.10970603               18.08619781                2.19335825
              10.64731280                6.52958898               31.02852522                0.00010000               -0.66984094               -0.03976437               -0.43745479               -0.65543640                9.19025834                3.00908584
              11.64917497                6.38236062               30.87818155                0.00010000                0.23457447                0.16280905               -0.77540719                0.02112962                0.07863695                1.20278269
              12.65200429                6.23487797               30.72686284                0.00010000                0.28293191                0.41792157               -1.13171363               -0.00483442                0.03874563               -0.48539008
               2.91051811                8.84272019               31.14520889                0.00010000               -0.01673364               -0.07578742                0.20251977               -0.02314662                0.00737047                0.85407952
               3.91035077                8.67736440               30.99167447                0.00010000                0.01983202                0.03275909               -0.08246188               -0.00196318                0.04860720               -0.73488225
               4.91091475                8.51159955               30.83888363                0.00010000               -0.69184167                0.14659320               -0.37145799                0.21362428                8.59860080               -2.38411942
               5.89651394                8.34958356               30.85632497                0.00010000               -1.67667411                0.57031922               -0.17659791                0.18196301               18.34381414                0.55555292
               6.87738127                8.18914462               30.89753624                0.00010000               -2.00721293                0.78868748               -0.26330463               -0.05098456               19.72946891                0.59732006
               7.85636968                8.02636129               30.94075145                0.00010000               -2.15469490                0.85753808               -0.29285635               -0.52337814               20.02675440                0.78426317
               8.83428737                7.86087671               30.98567418                0.00010000               -2.16380180                0.78953147               -0.29583326               -1.05871280               20.30127740                1.23881795
               9.81309365                7.69431717               31.03197704                0.00010000               -2.02510740                0.44561926               -0.32048173               -1.59790689               20.60799044                2.05026669
              10.79378522                7.52950020               31.08049061                0.00010000               -0.88192227                0.02134029               -0.36202074               -0.97566922               10.42617750                2.57382969
              11.79545520                7.38405975               30.92101141                0.00010000                0.22016066                0.18001587               -0.73896959               -0.00609142                0.02481568                1.01610765
              12.79818844                7.23892494               30.76122484                0.00010000                0.27332355                0.38797247               -1.10758722                0.00368548                0.02130675               -0.65644121
               3.07510785                9.84221713               31.10345225                0.00010000                0.02462569               -0.02721017                0.06228858               -0.02268294               -0.01451428                0.74927843
               4.07535410                9.67789381               30.94184922                0.00010000                0.06434795                0.07317758               -0.22677050               -0.00010464                0.07677185               -0.62150942
               5.07639481                9.51317707               30.78198342                0.00010000               -0.77582851                0.17187264               -0.52076351                0.41786970               10.74914943               -1.62029767
               6.05983753                9.35630453               30.83378522                0.00010000               -1.89302139                0.86935320               -0.36449661                0.38531896               21.49700904                0.16318162
               7.03853438                9.19828828               30.88690802                0.00010000               -2.20111139                0.97490626               -0.34756530                0.06792422               21.77975490                0.31363901
               8.01581531                9.03617244               30.94186874                0.00010000               -2.39640240                1.05041970               -0.32524141               -0.32245747               22.18046498                0.44387495
               8.99060633                8.87060869               31.00070442                0.00010000               -2.69125691                1.08264313               -0.26378103               -0.85536234               22.81199347                0.72301940
               9.96199017                8.69997371               31.06626549                0.00010000               -2.62747425                0.96923382               -0.13006106               -1.56709578               22.99288321                1.49035420
              10.93805684                8.53001579               31.12701751                0.00010000               -1.11808836                0.08914046               -0.33668567               -1.31704982               11.56968292                1.61562454
              11.93962840                8.38596094               30.96185302                0.00010000                0.21453821                0.20030201               -0.72529140               -0.02859605                0.13453868                0.74547010
              12.94234761                8.24263742               30.79355552                0.00010000                0.27192089                0.35872777               -1.10095932                0.00591071               -0.00628300               -0.67665823
               3.23871109               10.84217598               31.05932342                0.00010000                0.06776553               -0.00411413               -0.07534197                0.02552058                0.41036714                0.63660207
               4.23938874               10.67882795               30.89409702                0.00010000                0.10751699                0.09341417               -0.36727830                0.04651491                0.82697614               -0.51466833
               5.24086143               10.51503701               30.73710393                0.00010000               -1.01398167                0.18599403               -0.65537172                0.85379590               12.70039867               -1.01834454
               6.21910911               10.36697063               30.80926889                0.00010000               -2.09947927                1.06660990               -0.52172932                0.60744446               23.97228900                0.01049378
               7.19887184               10.20864275               30.87344870                0.00010000               -2.07544913                1.03544675               -0.44136450                0.05369906               23.79772924                0.13694836
               8.17760012               10.04736968               30.93905598                0.00010000               -2.27464935                1.11972412               -0.38291894               -0.12717655               24.21905729                0.22148694
               9.15337885                9.88252958               31.00932358                0.00010000               -2.76277479                1.19208885               -0.27962666               -0.40613922               25.08175443                0.39017871
              10.12234463                9.71370185               31.09045221                0.00010000               -3.59609267                1.37281378               -0.01550004               -1.52688208               25.05596346                0.96898227
              11.08145700                9.53128301               31.15955392                0.00010000               -2.00414886                0.12672206               -0.36122687               -1.94178759               13.03078641                0.93571154
              12.08226165                9.38806579               30.99896986                0.00010000                0.17483488                0.21048482               -0.73426580                0.00414977                1.00625706                0.57894361
              13.08495370                9.24609950               30.82715011                0.00010000                0.26920453                0.34620831               -1.10527075                0.06398003                0.46475033               -0.59473671
               1.64248712                0.91413735               32.46555548                1.00000000               -0.34131361               -0.36692340                1.27425258               -0.05936907               -0.92950498                0.95166732
               2.63907398                0.73194501               32.36416609                1.00000000               -0.29560023               -0.28937565                1.02746724               -0.03924563               -1.20846660                0.10701236
               3.63657511                0.54944731               32.25721265                1.00000000               -0.19524009               -0.21177650                0.76664704               -0.03538746               -1.17958593               -0.21594444
               4.63516918                0.36713343               32.15649383                1.00000000                0.08626766               -0.15433579                0.51246377                0.18929687               -0.33356095               -0.82629637
               5.63830047                0.18994443               32.06662953                0.00010000                0.22059124               -0.07552619                0.23919508               -0.07395029                0.01994153                0.27077013
               6.63958101                0.01707607               31.97397398                0.00010000                0.12117939                0.01420234               -0.02540551               -0.03427493               -0.30154606                0.15701369
               7.64072406               -0.15449833               31.87778819                0.00010000                0.14716102                0.08958910               -0.29096607               -0.01536470               -0.53840234               -0.07539539
               8.64252423               -0.32532927               31.78034044                0.00010000                0.20378705                0.17514920               -0.57143865               -0.02509652               -0.81267754                0.10494127
               9.64479980               -0.49592482               31.67848453                1.00000000                0.26234086                0.25615635               -0.84972093               -0.02423497               -1.10586808                0.57323116
              10.64777104               -0.66670375               31.57492973                1.00000000                0.33594404                0.33916609               -1.12248678               -0.03038933               -1.07031782               -0.00426764
              11.65151868               -0.83760781               31.47374120                1.00000000                0.37476336                0.43153456               -1.38835900               -0.03417039               -0.95420351               -0.94688762
               1.82408577                1.91046812               32.42325421                1.00000000               -0.30592240               -0.35200410                1.14418257               -0.01907321               -0.13812374                1.29629476
               2.82102655                1.72905125               32.32159177                1.00000000               -0.27293738               -0.26908497                0.89790738                0.00238244               -0.15189430                0.15155687
               3.81862703                1.54732954               32.21961458                1.00000000               -0.21064821               -0.18797288                0.64850536                0.00816615                0.00968120               -0.55154100
               4.81681359                1.36559008               32.12114548                1.00000000               -0.30186910               -0.13279417                0.40222787                0.27978430                1.63947531               -1.24557757
               5.81258964                1.18918917               32.05163711                0.00010000               -0.26769745                0.01099965                0.15298896               -0.07170008                2.45013587                1.04548632
               6.81145964                1.01721810               31.96785120                0.00010000               -0.04082815                0.06034106               -0.10069551                0.04622099                1.52631239                0.46552671
               7.81177308                0.84639756               31.87940255                0.00010000                0.07634350                0.10756935               -0.35594142                0.09014090                1.43912839               -0.31235632
               8.81298651                0.67642222               31.79378480                0.00010000                0.17358011                0.20123501               -0.62529614                0.05245572                1.48598735                0.53759982
               9.81524468                0.50663674               31.70639770                1.00000000                0.26610689                0.25931717               -0.87372932                0.01938872                0.76870129                0.81879203
              10.81830865                0.33668791               31.60664598                1.00000000                0.34181755                0.33812608               -1.13612467                0.01092787                0.08666415                0.12054282
              11.82208104                0.16670753               31.50561525                1.00000000                0.37723899                0.44655010               -1.40040680                0.00843734                0.02441161               -1.10482792
               2.00493939                2.90709727               32.38784148                1.00000000               -0.26791816               -0.32707547                1.02372593               -0.01251464                0.05097949                1.64011826
               3.00226021                2.72656331               32.27988917                1.00000000               -0.23698895               -0.23225920                0.77449824                0.01175192                0.22441855                0.13129277
               4.00019961                2.54568785               32.17530554                1.00000000               -0.16774867               -0.14371736                0.52558811                0.01816988                0.73240304               -1.32825581
               4.99890524                2.36447755               32.07742586                1.00000000               -0.74805840               -0.10268066                0.25900717                0.40313803                4.70500020               -2.07228017
               5.98523845                2.19016443               32.05219826                0.00010000               -0.78041014                0.01368751                0.02209471                0.63814422                5.61892434               -1.20630999
               6.98329703                2.01828289               31.96796783                0.00010000               -0.09578466               -0.07068399               -0.18995902                0.47764577                2.32173072               -0.16443443
               7.98332275                1.84765306               31.87635747                0.00010000                0.00185633               -0.06585879               -0.40277728                0.34819686                3.51454541                0.69654308
               8.98333416                1.67869543               31.81598680                0.00010000                0.07995625               -0.01424620               -0.70996811                0.20337343                4.23786927                1.28508972
               9.98492188                1.50926152               31.73934305                1.00000000                0.22923240                0.24075150               -0.89260148               -0.04678894                2.31488783                1.71190864
              10.98791881                1.34005877               31.64088784                1.00000000                0.33631507                0.31914743               -1.13756249               -0.02054753                0.82250202                0.81227374
              11.99164818                1.17132319               31.53427253                1.00000000                0.37293693                0.47184571               -1.41569914               -0.00212217                0.42104170               -1.04918732
               2.18490341                3.90392661               32.35245739                1.00000000               -0.22323965               -0.30576145                0.90083723               -0.01246152                0.10492703                1.54251779
               3.18267101                3.72440607               32.23691342                1.00000000               -0.19136130               -0.19711981                0.64760124                0.00961108                0.14913922               -0.02470260
               4.18107618                3.54445519               32.12217346                1.00000000               -0.11356214               -0.09678364                0.40257673               -0.01922773                1.10033184               -1.68300005
               5.18039977                3.36353646               32.02565141                0.00010000               -0.47644988               -0.05916840                0.15731243                0.32554531                5.18750285               -2.75624926
               6.17154719                3.18946292               31.99249294                0.00010000               -0.84379247               -0.03939968               -0.04302613                0.81242790                7.92362599               -3.02601974
               7.16352392                3.01580442               31.94937344                0.00010000               -0.66113491               -0.10556650               -0.23581612                0.57768318                7.09688231               -0.74555923
               8.15832449                2.84508039               31.89795094                0.00010000               -0.40392039               -0.15630382               -0.44250609                0.38226638                6.62464098                1.51757455
               9.15544551                2.67613729               31.84426626                0.00010000               -0.26894641               -0.16274722               -0.64707248                0.33661076                6.28324830                1.98943812
              10.15294556                2.51145177               31.78506982                0.00010000                0.01952569                0.06191607               -0.83107410                0.02759658                4.08329867                3.19253768
              11.15583603                2.34307086               31.68632806                1.00000000                0.32820979                0.27956714               -1.09716331               -0.07578356                1.09713842                1.32254470
              12.15950975                2.17614445               31.56691150                1.00000000                0.36737286                0.47474621               -1.38480766               -0.01506912                0.07324653               -0.63883367
               2.36373125                4.90098204               32.31515426                1.00000000               -0.18073992               -0.27635202                0.76759919               -0.02101930                0.15991832                1.32263805
               3.36192385                4.72262091               32.19208791                1.00000000               -0.15232922               -0.15251920                0.51230735               -0.00412340                0.24338808               -0.27483892
               4.36068466                4.54375218               32.07062286                0.00010000               -0.07577165               -0.03732476                0.26921446               -0.07061965                1.27508397               -1.73191429
               5.36040842                4.36329418               31.96818950                0.00010000               -0.57328072                0.06495095                0.03615350                0.13670724                6.79511017               -2.78979818
               6.34921905                4.18937643               31.95695736                0.00010000               -1.05875917                0.08128294               -0.11111186                0.25705599               10.99914864               -1.34016436
               7.33923323                4.01617156               31.93750158                0.00010000               -0.92919235                0.09830268               -0.26957206                0.13626947               10.30469353               -0.09939764
               8.33063520                3.84452698               31.91094096                0.00010000               -0.77691211                0.02566734               -0.44016600                0.03269112                9.82328776                1.21658085
               9.32369499                3.67544048               31.88007972                0.00010000               -0.60474801               -0.02941384               -0.61288877                0.02202781                9.64095696                2.46063565
              10.31854024                3.51049984               31.84797744                0.00010000               -0.09922644               -0.14943596               -0.78262069               -0.02228431                5.42378304                3.89946214
              11.32171046                3.34565011               31.73068115                1.00000000                0.33296885                0.21731563               -1.00376084               -0.02621935                0.68532256                1.42710424
              12.32519962                3.18081811               31.60331660                1.00000000                0.34891573                0.47148681               -1.31594062               -0.04619455                0.18483448               -0.36424432
               2.54120528                5.89839957               32.27542192                1.00000000               -0.13868729               -0.23350123                0.62497134               -0.02661182                0.13131519                1.09357672
               3.53981841                5.72135568               32.14405231                0.00010000               -0.11073822               -0.09883489                0.35682088               -0.01483983                0.31855204               -0.55441615
               4.53899052                5.54370870               32.01635906                0.00010000               -0.11543769                0.02978901                0.10634256               -0.06448299                1.84365956               -2.07088231
               5.53750966                5.36483548               31.91550274                0.00010000               -0.75897985                0.22424957               -0.08919426               -0.12763930                8.99658243               -1.35463894
               6.52381092                5.19108858               31.93083383                0.00010000               -1.32054490                0.24756614               -0.15949774               -0.05744096               14.16481562               -0.40541167
               7.51109876                5.01777047               31.93205556                0.00010000               -1.20507654                0.23158222               -0.28868141               -0.22731349               13.21603391                0.46142570
               8.49970939                4.84559373               31.92664500                0.00010000               -1.05927764                0.16176030               -0.42791737               -0.33628069               12.83209908                1.44965514
               9.48991321                4.67554902               31.91802453                0.00010000               -0.87095765                0.03562867               -0.56804355               -0.36127185               12.75338888                2.54476887
              10.48229024                4.50846305               31.90860480                0.00010000               -0.24599196               -0.17973353               -0.71351138               -0.18323592                6.79475088                3.66985613
              11.48499337                4.34741717               31.77828435                0.00010000                0.29798123                0.16572005               -0.91086397                0.03315833                0.42449688                1.53580286
              12.48824986                4.18557418               31.64109761                1.00000000                0.32564961                0.46973909               -1.24302819               -0.02758224                0.08955717               -0.27681734
               2.71728678                6.89631202               32.23356740                0.00010000               -0.09688615               -0.18106685                0.47689982               -0.02578252                0.06083460                0.92764965
               3.71631792                6.72064421               32.09353819                0.00010000               -0.06857895               -0.04767351                0.20384313               -0.01529084                0.28097439               -0.71313924
               4.71591521                6.54434796               31.95784130                0.00010000               -0.29210873                0.08873853               -0.05611613               -0.01546016                3.71125668               -2.39703830
               5.71047575                6.36777917               31.88643037                0.00010000               -1.03899821                0.31230168               -0.07660070               -0.32485906               11.87443474                0.57827584
               6.69513524                6.19432775               31.91405448                0.00010000               -1.51469697                0.38790590               -0.18492887               -0.31138976               16.41050018                0.37025906
               7.68018181                6.02080321               31.93172296                0.00010000               -1.45021002                0.38244303               -0.29892336               -0.51391281               15.79095337                0.84467448
               8.66613104                5.84776219               31.94478729                0.00010000               -1.32907878                0.28467032               -0.40718040               -0.69736997               15.59838074                1.58404426
               9.65360023                5.67615305               31.95606928                0.00010000               -1.15618367                0.10326660               -0.50877818               -0.80829167               15.65391756                2.47422111
              10.64300737                5.50690517               31.96750353                0.00010000               -0.41688686               -0.11695365               -0.60181767               -0.44461832                8.10049658                3.44168924
              11.64526250                5.34896452               31.82502413                0.00010000                0.26632911                0.15943232               -0.85547282                0.04382861                0.23698819                1.42352062
              12.64833395                5.19021290               31.67891355                0.00010000                0.30714535                0.45830912               -1.20309439               -0.01336529                0.06405690               -0.31891438
               2.89202524                7.89477823               32.19052421                0.00010000               -0.05485846               -0.12572583                0.33001602               -0.02451888                0.02282153                0.85294932
               3.89147666                7.72040221               32.04221243                0.00010000               -0.02394421               -0.00356012                0.05429715               -0.00951874                0.17309015               -0.75254259
               4.89154636                7.54548347               31.89682981                0.00010000               -0.52219900                0.12794748               -0.21769754                0.03818287                6.38343179               -2.54455824
               5.88103268                7.37108151               31.87272280                0.00010000               -1.34936326                0.38559076               -0.04580307               -0.24954521               15.22259418                1.08158704
               6.86455909                7.19884670               31.90388091                0.00010000               -1.68233034                0.54000289               -0.21705781               -0.33912889               18.05989713                0.72178353
               7.84738607                7.02541933               31.93452289                0.00010000               -1.70734731                0.57723435               -0.30958504               -0.67786610               18.09038200                0.97815434
               8.83041215                6.85128714               31.96387014                0.00010000               -1.63908409                0.45578999               -0.38207554               -1.02782951               18.16478956                1.56534218
               9.81460439                6.67761435               31.99323041                0.00010000               -1.49128674                0.21889342               -0.44364819               -1.26094938               18.37697786                2.30252873
              10.80058641                6.50612398               32.02393031                0.00010000               -0.60210864               -0.04102490               -0.48584882               -0.73266435                9.35713624                3.12748656
              11.80256222                6.35060582               31.87025994                0.00010000                0.24496924                0.17331992               -0.81279584                0.02597663                0.08969807                1.25607493
              12.80548580                6.19474037               31.71537251                0.00010000                0.29235805                0.43970645               -1.17270095               -0.00213628                0.03931403               -0.45548587
               3.06554845                8.89379750               32.14714899                0.00010000               -0.01261344               -0.07176884                0.18534092               -0.02343940                0.00673093                0.84986171
               4.06542231                8.72057301               31.99079985                0.00010000                0.02255573                0.03691091               -0.09278661               -0.00352124                0.04532193               -0.74505433
               5.06599956                8.54690690               31.83513905                0.00010000               -0.66503482                0.15192176               -0.37815378                0.13645726                8.83478528               -2.40549662
               6.05212162                8.37549099               31.85455106                0.00010000               -1.59923566                0.54784217               -0.18678453                0.05236320               18.69130978                0.51435953
               7.03401485                8.20512781               31.89482761                0.00010000               -1.89687854                0.75443233               -0.28418582               -0.19093286               19.97057481                0.61878548
               8.01418405                8.03234790               31.93765708                0.00010000               -2.03177077                0.81969968               -0.33189557               -0.66253083               20.32315704                0.83361151
               8.99337943                7.85687799               31.98249750                0.00010000               -2.03198197                0.74835310               -0.34657879               -1.19859994               20.61913553                1.32885648
               9.97354441                7.68053092               32.02852288                0.00010000               -1.90084111                0.40793026               -0.37618515               -1.74167097               20.92921827                2.22131701
              10.95536261                7.50608467               32.07664467                0.00010000               -0.81893819                0.03050833               -0.40797318               -1.04230877               10.58548725                2.64815486
              11.95716564                7.35243091               31.91340307                0.00010000                0.23297587                0.19420426               -0.78432411               -0.00281463                0.01927579                1.05381954
              12.96002213                7.19900703               31.74993192                0.00010000                0.28564860                0.40881318               -1.15472819                0.00659800                0.02077813               -0.63694109
               3.23800543                9.89334286               32.10397965                0.00010000                0.02913954               -0.02178660                0.04305086               -0.02279626               -0.01565194                0.74771577
               4.23829683                9.72114043               31.93952937                0.00010000                0.06760464                0.07675608               -0.23758565               -0.00091903                0.07247508               -0.62838660
               5.23935753                9.54852190               31.77674996                0.00010000               -0.72188976                0.17446701               -0.52529519                0.33136447               10.96024694               -1.62777868
               6.22385903                9.38203836               31.83001294                0.00010000               -1.77369991                0.83246637               -0.39446300                0.27577651               21.87536540                0.10200959
               7.20388353                9.21393534               31.88327878                0.00010000               -2.07368774                0.94010108               -0.38406892               -0.03105717               22.10931685                0.31537202
               8.18238528                9.04181332               31.93840191                0.00010000               -2.28132043                1.02016421               -0.37481334               -0.41362317               22.54620368                0.47000246
               9.15825712                8.86625420               31.99782416                0.00010000               -2.59104983                1.05929226               -0.32178923               -0.95623048               23.25386968                0.78190553
              10.13056428                8.68577295               32.06478803                0.00010000               -2.52084373                0.94098490               -0.17966389               -1.67146516               23.31440376                1.68039018
              11.10784025                8.50673415               32.12337389                0.00010000               -1.04903548                0.10546149               -0.39068506               -1.36101576               11.64275019                1.63570790
              12.10958357                8.35448990               31.95432151                0.00010000                0.23126443                0.21816675               -0.78143083               -0.02686760                0.12847603                0.75991464
              13.11246553                8.20291663               31.78228002                0.00010000                0.28819612                0.37845260               -1.15671477                0.00884701               -0.00434244               -0.66999865
               3.40949737               10.89336177               32.05846501                0.00010000                0.07275125                0.00189135               -0.09641090                0.02383011                0.40952341                0.63643529
               4.41022488               10.72210813               31.89037033                0.00010000                0.11157765                0.09677019               -0.37874674                0.04452923                0.82745770               -0.51922263
               5.41172892               10.55039625               31.73053337                0.00010000               -0.90005886                0.18743410               -0.65955112                0.73874887               12.90457122               -1.01736010
               6.39222371               10.39214032               31.80391989                0.00010000               -1.90550925                1.01019576               -0.55125581                0.51314668               24.37783640               -0.03445904
               7.37361874               10.22392983               31.86882672                0.00010000               -1.93154910                0.99944900               -0.48844841                0.00406424               24.18734132                0.13338245
               8.35359272               10.05275118               31.93496029                0.00010000               -2.16617730                1.09378555               -0.44374892               -0.17255553               24.63805191                0.23497707
               9.33029519                9.87806383               32.00623769                0.00010000               -2.69787834                1.18096313               -0.34891405               -0.46622059               25.62487340                0.42678510
              10.29963516                9.69935062               32.09012736                0.00010000               -3.54349240                1.35776672               -0.07114207               -1.58640890               25.37955032                1.12228768
              11.25942534                9.50819390               32.15557663                0.00010000               -1.95946758                0.14597580               -0.43262988               -1.96930860               13.04476347                0.92806086
              12.26044581                9.35679425               31.99126610                0.00010000                0.19601350                0.23043451               -0.80656020                0.00533197                1.01845143                0.58111468
              13.26334561                9.20657608               31.81576334                0.00010000                0.28998091                0.36594468               -1.17448705                0.06619095                0.47981193               -0.59287331
               1.73573697                0.96667244               33.47828293                1.00000000               -0.34300773               -0.36710673                1.27282195               -0.05825235               -0.94393754                0.96412795
               2.73230689                0.77625059               33.37443760                1.00000000               -0.29944954               -0.28796380                1.02718490               -0.03833103               -1.23084444                0.11041677
               3.72974797                0.58545729               33.26488592                1.00000000               -0.20241007               -0.21181995                0.76904773               -0.03823713               -1.20524988               -0.21246063
               4.72825869                0.39467679               33.16165384                1.00000000                0.06015547               -0.15918780                0.51974103                0.14910916               -0.36747004               -0.83431282
               5.73095108                0.20807188               33.06901767                0.00010000                0.19736487               -0.07763824                0.23720221               -0.07162930               -0.01256159                0.27423293
               6.73220598                0.02515116               32.97375653                0.00010000                0.12181299                0.01067452               -0.01894807               -0.04010040               -0.31894586                0.16015539
               7.73338734               -0.15653299               32.87494938                0.00010000                0.15306830                0.08516522               -0.27672707               -0.02091896               -0.56018420               -0.07173471
               8.73526735               -0.33745986               32.77471989                0.00010000                0.21329784                0.16850630               -0.54841992               -0.03167745               -0.84199364                0.10492595
               9.73765330               -0.51795495               32.67008934                1.00000000                0.26863289                0.24846610               -0.82427179               -0.03217114               -1.13617284                0.57952148
              10.74064001               -0.69842946               32.56378170                1.00000000                0.33531040                0.33680358               -1.10321837               -0.02992065               -1.09749069               -0.00888907
              11.74435951               -0.87904023               32.45990850                1.00000000                0.37195010                0.43387154               -1.37485171               -0.02918282               -0.97915973               -0.97393177
               1.92557629                1.96300137               33.43466968                1.00000000               -0.30451381               -0.35339546                1.13991855               -0.01695710               -0.14292080                1.31293114
               2.92253115                1.77337095               33.33055678                1.00000000               -0.27118907               -0.26843981                0.89573516                0.00342006               -0.15889461                0.15783503
               3.92015251                1.58333909               33.22610427                1.00000000               -0.20443320               -0.18739071                0.64354399                0.00063556                0.00032247               -0.54599435
               4.91844248                1.39308491               33.12513844                1.00000000               -0.25774497               -0.14081835                0.38621068                0.22946593                1.63016711               -1.25780149
               5.91499761                1.20729550               33.05308621                0.00010000               -0.21675359                0.00388026                0.13380020               -0.06536138                2.45005100                1.02367535
               6.91410741                1.02525790               32.96682172                0.00010000               -0.02569716                0.05610686               -0.10967887                0.02797435                1.53081342                0.46201395
               7.91448366                0.84431867               32.87585838                0.00010000                0.07770733                0.11044951               -0.35601528                0.06838538                1.43658905               -0.30071648
               8.91566156                0.66422520               32.78754357                0.00010000                0.16663619                0.20013309               -0.62034956                0.02807525                1.48852662                0.52005390
               9.91781639                0.48452971               32.69763740                1.00000000                0.26109404                0.25658871               -0.87616142                0.00460927                0.77623008                0.82537934
              10.92088344                0.30493858               32.59524572                1.00000000                0.34310352                0.33963210               -1.14374259                0.01182400                0.08742506                0.11984059
              11.92467846                0.12529848               32.49154261                1.00000000                0.37950166                0.45688497               -1.41430710                0.01406737                0.02531883               -1.13629872
               2.11465866                2.95960453               33.39804123                1.00000000               -0.26210914               -0.33022424                1.01667658               -0.01146147                0.05110376                1.65973076
               3.11203756                2.77088179               33.28760303                1.00000000               -0.23059625               -0.23243287                0.76920322                0.00904946                0.22808370                0.14014596
               4.11004673                2.58170948               33.18061719                1.00000000               -0.15729812               -0.13805080                0.53089727               -0.00786631                0.72903253               -1.32498438
               5.10889160                2.39186042               33.08012177                1.00000000               -0.62879333               -0.10590562                0.26183384                0.32581843                4.68996345               -2.07509564
               6.09747086                2.20814949               33.05221933                0.00010000               -0.65746493                0.00176670               -0.01741699                0.48388388                5.64768898               -1.20199139
               7.09574230                2.02627329               32.96599025                0.00010000               -0.08415564               -0.06264067               -0.21208156                0.32657688                2.37904538               -0.14926055
               8.09578775                1.84567600               32.87227372                0.00010000               -0.00622440               -0.05051824               -0.42092761                0.21398186                3.52063049                0.72073931
               9.09561781                1.66654280               32.80882303                0.00010000                0.06221785               -0.00124411               -0.72003041                0.09713506                4.26511700                1.32122213
              10.09703211                1.48717682               32.73028309                1.00000000                0.22449486                0.22942525               -0.92408364               -0.09085277                2.38168102                1.76905466
              11.10010771                1.30836319               32.62936809                1.00000000                0.34444710                0.32388418               -1.17058318               -0.02782022                0.84751049                0.84072093
              12.10392105                1.13009747               32.51993117                1.00000000                0.38133382                0.49358330               -1.45759807               -0.00024253                0.43303767               -1.05605704
               2.30279252                3.95639688               33.36141798                1.00000000               -0.21853362               -0.30910290                0.89165812               -0.01434135                0.10979752                1.55513719
               3.30060719                3.76872230               33.24336304                1.00000000               -0.18879835               -0.19562979                0.64217137                0.00462993                0.15827615               -0.02108161
               4.29901655                3.58057808               33.12619412                1.00000000               -0.10441690               -0.08690310                0.40214704               -0.05477304                1.11189621               -1.68678244
               5.29851885                3.39096680               33.02720577                0.00010000               -0.43770723               -0.04178380                0.15368972                0.21661496                5.22024437               -2.75352133
               6.29026241                3.20733083               32.99201577                0.00010000               -0.77032076               -0.04241506               -0.05565715                0.57345064                7.98346618               -2.98113329
               7.28311243                3.02400509               32.94689646                0.00010000               -0.58843085               -0.10009892               -0.26237204                0.34556983                7.16004186               -0.69611957
               8.27849379                2.84330830               32.89338127                0.00010000               -0.35044934               -0.14900026               -0.47377126                0.17074417                6.68985595                1.56829978
               9.27610345                2.66420032               32.83761615                0.00010000               -0.21574235               -0.15678648               -0.68744073                0.16310423                6.36348774                2.08948092
              10.27417895                2.48911821               32.77668512                0.00010000                0.06514720                0.02653650               -0.84299075               -0.03880230                4.11607837                3.23927964
              11.27740639                2.31141626               32.67520980                1.00000000                0.35130494                0.27874971               -1.14235861               -0.07818463                1.12177269                1.40478681
              12.28120504                2.13517015               32.55290178                1.00000000                0.37986553                0.49656936               -1.43125991               -0.02080583                0.10324241               -0.58977570
               2.48972101                4.95342247               33.32277679                1.00000000               -0.17720370               -0.27871793                0.75704695               -0.02330889                0.16839624                1.32463514
               3.48794897                4.76696920               33.19717617                1.00000000               -0.15071182               -0.14817081                0.50540730               -0.00890362                0.25792650               -0.28572676
               4.48670677                4.57997142               33.07329688                0.00010000               -0.07389108               -0.02713725                0.26516827               -0.09582529                1.29846297               -1.75165011
               5.48647115                4.39102474               32.96851159                0.00010000               -0.54025919                0.08913086                0.02763252                0.02031720                6.85883412               -2.78201776
               6.47590159                4.20730118               32.95580460                0.00010000               -0.98974585                0.08294567               -0.12320817                0.07720811               11.10848737               -1.29212940
               7.46667623                4.02427131               32.93468205                0.00010000               -0.84470910                0.08507280               -0.29781008               -0.04669858               10.40781588               -0.03494415
               8.45900740                3.84269600               32.90634905                0.00010000               -0.68031202                0.01047292               -0.48342102               -0.14087166                9.92922294                1.29749853
               9.45306999                3.66340707               32.87371494                0.00010000               -0.49836422               -0.04780156               -0.66804575               -0.15245625                9.76584790                2.55570865
              10.44904012                3.48770755               32.83998614                0.00010000               -0.02889534               -0.18163935               -0.84358696               -0.09493989                5.55312390                3.96358760
              11.45249208                3.31393818               32.72060154                1.00000000                0.34785219                0.20974731               -1.01235922               -0.02257121                0.74538089                1.53032335
              12.45599716                3.14002885               32.59011788                1.00000000                0.35050799                0.48984901               -1.33191879               -0.05104652                0.19723639               -0.29084953
               2.67523288                5.95082253               33.28161063                1.00000000               -0.13527192               -0.23460005                0.61288313               -0.02816913                0.13174928                1.08730350
               3.67388016                5.76575888               33.14758205                0.00010000               -0.10941896               -0.09296859                0.34904674               -0.01923987                0.32773448               -0.57326491
               4.67304450                5.58003533               33.01740552                0.00010000               -0.11423698                0.04128110                0.10287271               -0.08874223                1.89016992               -2.10248375
               5.67159542                5.39274941               32.91464493                0.00010000               -0.72422515                0.22537647               -0.08054617               -0.25292650                9.12829431               -1.27142638
               6.65856000                5.20898975               32.92921445                0.00010000               -1.24058892                0.23540365               -0.16764802               -0.24681906               14.32973925               -0.33515136
               7.64678365                5.02570654               32.92903347                0.00010000               -1.10096985                0.20852238               -0.32036443               -0.39700736               13.35577985                0.53699914
               8.63654060                4.84351776               32.92214594                0.00010000               -0.93704382                0.13183831               -0.47851844               -0.49847498               12.98166972                1.54084665
               9.62804277                4.66324429               32.91207025                0.00010000               -0.73957824                0.00679155               -0.63320054               -0.53407623               12.91956410                2.65333925
              10.62174904                4.48548542               32.90117584                0.00010000               -0.17045541               -0.19518952               -0.78436151               -0.27124344                6.96131875                3.78691770
              11.62463366                4.31561121               32.76907510                0.00010000                0.31268636                0.16801067               -0.94552742                0.03204816                0.50116059                1.62449386
              12.62800277                4.14496713               32.62852091                1.00000000                0.33691050                0.49422328               -1.29176660               -0.02316060                0.09351029               -0.21876142
               2.85928492                6.94873047               33.23826747                0.00010000               -0.09335519               -0.18061279                0.46321165               -0.02674808                0.05982388                0.91881206
               3.85835136                6.76510983               33.09553364                0.00010000               -0.06717625               -0.04163835                0.19494906               -0.01923293                0.28649354               -0.72836276
               4.85794139                6.58079704               32.95726354                0.00010000               -0.29465793                0.10104785               -0.06008392               -0.05611578                3.85477544               -2.42602874
               5.85245820                6.39553227               32.88591484                0.00010000               -0.99666585                0.28298926               -0.02648136               -0.46195400               12.07672131                0.72646759
               6.83800807                6.21200926               32.91219161                0.00010000               -1.41250683                0.35936617               -0.19234456               -0.49604323               16.56041692                0.44497984
               7.82420807                6.02844176               32.92858260                0.00010000               -1.32539571                0.34720521               -0.33457430               -0.68133839               15.96289693                0.92274201
               8.81150016                5.84533277               32.94047541                0.00010000               -1.18936339                0.24484669               -0.46232386               -0.85573620               15.79566783                1.68084998
               9.80042080                5.66354290               32.95069087                0.00010000               -1.01259151                0.07070068               -0.57621623               -0.97602997               15.88000259                2.59527449
              10.79124833                5.48380376               32.96118197                0.00010000               -0.33847292               -0.12439241               -0.67498020               -0.52837722                8.27843980                3.59838889
              11.79365134                5.31729839               32.81629085                0.00010000                0.27868913                0.17459839               -0.89861477                0.05013148                0.29094911                1.50091886
              12.79682211                5.14991332               32.66666449                0.00010000                0.31707697                0.48913765               -1.25613764               -0.01037482                0.06625220               -0.26632589
               3.04193920                7.94721027               33.19374686                0.00010000               -0.05102689               -0.12342421                0.31460547               -0.02511073                0.02191758                0.84566074
               4.04142893                7.76492611               33.04270700                0.00010000               -0.02197300                0.00182706                0.04421320               -0.01190942                0.17379637               -0.76429293
               5.04149974                7.58205629               32.89462802                0.00010000               -0.51424037                0.13862173               -0.22415804               -0.02995283                6.61678347               -2.57136771
               6.03114413                7.39840920               32.87244282                0.00010000               -1.28850479                0.35241700               -0.01830585               -0.38429247               15.50186685                1.12681262
               7.01572965                7.21617707               32.90165697                0.00010000               -1.56553778                0.50566037               -0.23323260               -0.50399380               18.20267433                0.77074063
               7.99983337                7.03265065               32.93124727                0.00010000               -1.57024530                0.53563712               -0.35166859               -0.84037524               18.30281604                1.04761255
               8.98432474                6.84841469               32.95978920                0.00010000               -1.48910973                0.40835293               -0.44142635               -1.18441131               18.41376353                1.66657199
               9.97005118                6.66465830               32.98850210                0.00010000               -1.34493688                0.18215011               -0.50994252               -1.41535396               18.66566085                2.42585197
              10.95742600                6.48299758               33.01880824                0.00010000               -0.52622225               -0.03920192               -0.54573260               -0.80943390                9.53587719                3.27120757
              11.95952673                6.31910318               32.86192564                0.00010000                0.25697073                0.18880868               -0.85751182                0.03272168                0.10941187                1.32515980
              12.96256542                6.15474988               32.70340882                0.00010000                0.30386867                0.46826498               -1.22464745                0.00088038                0.04079229               -0.40603373
               3.22335102                8.94626198               33.14891570                0.00010000               -0.00838611               -0.06774232                0.16809768               -0.02375329                0.00590377                0.84472549
               4.22326715                8.76514637               32.98981873                0.00010000                0.02541159                0.04147418               -0.10388329               -0.00440749                0.04011199               -0.75386402
               5.22385925                8.58356947               32.83132055                0.00010000               -0.63077890                0.15854428               -0.38600439                0.05253355                9.06012556               -2.42258308
               6.21065158                8.40258061               32.85258928                0.00010000               -1.50862499                0.52833465               -0.21393078               -0.08875555               19.02451159                0.44423718
               7.19368675                8.22212246               32.89185253                0.00010000               -1.77443192                0.72097689               -0.31609531               -0.34120022               20.19219838                0.63331276
               8.17516294                8.03915450               32.93411354                0.00010000               -1.89412341                0.78093157               -0.38371734               -0.81310076               20.59795472                0.88445887
               9.15580428                7.85349982               32.97874260                0.00010000               -1.88160499                0.70459527               -0.41351686               -1.34978683               20.92449845                1.42495174
              10.13753084                7.66718590               33.02445333                0.00010000               -1.75947518                0.36593662               -0.44563517               -1.89013834               21.25472316                2.40402900
              11.12061478                7.48301972               33.07233114                0.00010000               -0.74886841                0.04002069               -0.45675391               -1.10794888               10.75466655                2.73884651
              12.12255347                7.32107457               32.90532493                0.00010000                0.24657670                0.20965132               -0.83288596                0.00119780                0.01532035                1.10208944
              13.12554631                7.15927862               32.73813027                0.00010000                0.29928396                0.43280701               -1.20821921                0.00932142                0.02029117               -0.60250283
               3.40369537                9.94585542               33.10431326                0.00010000                0.03379264               -0.01640064                0.02380558               -0.02298788               -0.01675954                0.74508923
               4.40403329                9.76575560               32.93709751                0.00010000                0.07104010                0.08076046               -0.24941322               -0.00129326                0.06774609               -0.63381137
               5.40511617                9.58522718               32.77147752                0.00010000               -0.66086345                0.17767588               -0.53073107                0.23821703               11.15205044               -1.63075961
               6.39081602                9.40897589               32.82589596                0.00010000               -1.63922092                0.79434738               -0.43364995                0.15451667               22.22874950                0.03918726
               7.37233175                9.23059661               32.87922665                0.00010000               -1.93110138                0.90460189               -0.43131406               -0.14075470               22.41986354                0.31294314
               8.35219400                9.04826928               32.93437248                0.00010000               -2.15170727                0.98989794               -0.43881055               -0.51513768               22.89174672                0.49610518
               9.32929761                8.86250660               32.99426864                0.00010000               -2.47327423                1.03691914               -0.40150834               -1.06936384               23.68693699                0.84365144
              10.30272851                8.67197703               33.06267221                0.00010000               -2.39596212                0.91415141               -0.26475943               -1.78213715               23.64420170                1.87812697
              11.28137836                8.48379799               33.11920381                0.00010000               -0.97183614                0.12095156               -0.44218894               -1.40410384               11.72065403                1.66005555
              12.28329179                8.32329620               32.94622441                0.00010000                0.24826895                0.23621672               -0.83800989               -0.02507352                0.12098425                0.77862788
              13.28634374                8.16340602               32.77042122                0.00010000                0.30519525                0.39983888               -1.21674684                0.01143944               -0.00291529               -0.65478274
               3.58309091               10.94593397               33.05739520                0.00010000                0.07786239                0.00785473               -0.11744495                0.02231528                0.40802787                0.63519163
               4.58386954               10.76676158               32.88652208                0.00010000                0.11561896                0.10059818               -0.39170209                0.04307539                0.82645020               -0.52246219
               5.58540329               10.58712299               32.72391291                0.00010000               -0.77485289                0.18958159               -0.66647345                0.61401146               13.09025060               -1.01429170
               6.56837248               10.41846756               32.79824377                0.00010000               -1.69125134                0.94916691               -0.58645184                0.41022102               24.74959448               -0.07218785
               7.55157827               10.24021450               32.86367973                0.00010000               -1.77111435                0.96178962               -0.54639991               -0.05110337               24.54867948                0.12824813
               8.53295019               10.05895246               32.93018100                0.00010000               -2.04345088                1.06831843               -0.52050725               -0.22319530               25.03295007                0.24821649
               9.51070925                9.87423821               33.00234530                0.00010000               -2.61767439                1.17316074               -0.44404081               -0.53301233               26.15599072                0.46500565
              10.48059670                9.68546893               33.08902937                0.00010000               -3.47478591                1.34918980               -0.17989941               -1.65315351               25.70906109                1.28155833
              11.44121353                9.48543875               33.15090132                0.00010000               -1.90763680                0.16407621               -0.50035522               -1.99998488               13.06139976                0.91880029
              12.44244397                9.32579890               32.98283866                0.00010000                0.21709660                0.25026978               -0.87785767                0.00705008                1.02945682                0.58380320
              13.44555546                9.16727540               32.80366036                0.00010000                0.31114934                0.38693746               -1.24714258                0.06882150                0.49468969               -0.58624675
               1.83129902                1.02064640               34.49101191                1.00000000               -0.34449270               -0.36779610                1.27394473               -0.05772860               -0.95689840                0.97418961
               2.82785410                0.82191498               34.38470979                1.00000000               -0.30225752               -0.28724608                1.02728340               -0.03825183               -1.24888894                0.11623046
               3.82525387                0.62276141               34.27259361                1.00000000               -0.20830314               -0.20830235                0.76917929               -0.04205534               -1.22225643               -0.21108901
               4.82368803                0.42347798               34.16688865                1.00000000                0.03463384               -0.15118662                0.51929236                0.10122494               -0.39842587               -0.85167912
               5.82594655                0.22729201               34.07137358                0.00010000                0.17911737               -0.08309852                0.23171529               -0.07037595               -0.04529026                0.28008588
               6.82727038                0.03414879               33.97359502                0.00010000                0.13052312                0.00758620               -0.01684422               -0.04881517               -0.32614518                0.16272216
               7.82855701               -0.15775102               33.87225365                0.00010000                0.16370063                0.08099100               -0.26596337               -0.02874554               -0.56639531               -0.06772625
               8.83054439               -0.34887812               33.76937204                0.00010000                0.22287544                0.15982755               -0.52140088               -0.04061319               -0.85261560                0.10571788
               9.83301452               -0.53943052               33.66199909                1.00000000                0.27288348                0.23810981               -0.79410907               -0.04130961               -1.15633444                0.58329969
              10.83600206               -0.72980955               33.55286537                1.00000000                0.33336831                0.33078859               -1.07782504               -0.03121873               -1.11925140               -0.01075209
              11.83968189               -0.92035465               33.44624417                1.00000000                0.36798236                0.43135407               -1.35537191               -0.02333577               -0.99806852               -0.99419146
               2.02945316                2.01696844               34.44605258                1.00000000               -0.30390861               -0.35514021                1.13803743               -0.01565053               -0.14741526                1.32731869
               3.02641407                1.81904251               34.33950647                1.00000000               -0.27006714               -0.26775020                0.89366734                0.00508846               -0.17050496                0.16537568
               4.02405182                1.62067838               34.23248546                1.00000000               -0.19895457               -0.18315478                0.63426448               -0.00343748               -0.02184289               -0.53094287
               5.02243498                1.42196611               34.12886970                1.00000000               -0.20722169               -0.12848385                0.36655060                0.15984893                1.61028176               -1.25432654
               6.01990738                1.22646102               34.05431311                0.00010000               -0.15656203               -0.00484833                0.11059018               -0.06821288                2.45489898                1.00362213
               7.01930374                1.03422466               33.96565763                0.00010000               -0.00621846                0.05370759               -0.12694779                0.00755185                1.54665956                0.46005845
               8.01978301                0.84305889               33.87228225                0.00010000                0.08371354                0.11479851               -0.36464641                0.04205333                1.44729216               -0.28967735
               9.02097801                0.65272015               33.78137781                0.00010000                0.16420627                0.19627035               -0.61572833               -0.00127890                1.49534494                0.50801689
              10.02306714                0.46295058               33.68887447                1.00000000                0.25869644                0.25127106               -0.87504457               -0.01129547                0.78231228                0.83027721
              11.02615194                0.27349833               33.58377113                1.00000000                0.34632455                0.33593292               -1.15056851                0.01135901                0.08799933                0.12254994
              12.02999363                0.08395889               33.47732911                1.00000000                0.38416889                0.45987661               -1.42684662                0.02109946                0.02673188               -1.16336679
               2.22683786                3.01354359               34.40817501                1.00000000               -0.25919379               -0.33373202                1.01163801               -0.01055854                0.04962450                1.67822852
               3.22424592                2.81655997               34.29527324                1.00000000               -0.22881668               -0.23156061                0.76545915                0.01005180                0.22958343                0.15040715
               4.22226153                2.61909831               34.18592348                1.00000000               -0.15717734               -0.13192637                0.52715350               -0.01160583                0.71275228               -1.30690269
               5.22110237                2.42090830               34.08266254                1.00000000               -0.49688871               -0.09449483                0.24549919                0.23223746                4.64016912               -2.03720023
               6.21232375                2.22719504               34.05184992                0.00010000               -0.51394124               -0.01030188               -0.05428911                0.29665411                5.66290207               -1.18385879
               7.21082355                2.03522294               33.96372620                0.00010000               -0.07105851               -0.05172166               -0.24411684                0.17027136                2.44437271               -0.12500056
               8.21090258                1.84454495               33.86793892                0.00010000               -0.00982094               -0.03439181               -0.45208682                0.07216191                3.53906603                0.74986522
               9.21062713                1.65504729               33.80158620                0.00010000                0.05539254                0.01574249               -0.73312959               -0.02583234                4.28381362                1.35362503
              10.21201043                1.46559490               33.72086137                1.00000000                0.22969012                0.17918700               -0.96219393               -0.17659197                2.44140586                1.85751033
              11.21522093                1.27690911               33.61747617                1.00000000                0.35861692                0.32174088               -1.21055759               -0.04245710                0.87272910                0.87447050
              12.21918277                1.08884288               33.50512057                1.00000000                0.39618370                0.51016725               -1.50216999                0.00322812                0.44005041               -1.05839071
               2.42320924                4.01029380               34.37029055                1.00000000               -0.21488410               -0.31307533                0.88428428               -0.01512172                0.11299558                1.56809281
               3.42106039                3.81441130               34.24975685                1.00000000               -0.18689326               -0.19363038                0.63689460                0.00312099                0.16590294               -0.01495490
               4.41947137                3.61803986               34.13021640                1.00000000               -0.10386955               -0.07952697                0.40133141               -0.06390566                1.11843008               -1.68598922
               5.41898300                3.42007622               34.02872520                0.00010000               -0.39727730               -0.03468145                0.15184890                0.10950691                5.22992038               -2.71885110
               6.41152582                3.22625498               33.99137980                0.00010000               -0.68118723               -0.04299383               -0.07686678                0.30042964                8.02491422               -2.91549106
               7.40535926                3.03319022               33.94412600                0.00010000               -0.50619557               -0.09436394               -0.29500153                0.10688113                7.21300185               -0.63613312
               8.40140191                2.84237105               33.88847551                0.00010000               -0.29739202               -0.14163345               -0.51202361               -0.04355126                6.75134163                1.62443190
               9.39941142                2.65303500               33.83051745                0.00010000               -0.18642165               -0.14733624               -0.73034810               -0.05445059                6.47122432                2.17971149
              10.39767348                2.46653432               33.76821000                0.00010000                0.13217011               -0.01570155               -0.93429085               -0.11980827                4.20296934                3.36278472
              11.40205482                2.27993315               33.66348088                1.00000000                0.42585846                0.27410851               -1.23800475               -0.05533382                1.13084606                1.53609314
              12.40619065                2.09416223               33.53828630                1.00000000                0.41358281                0.52695580               -1.52029808               -0.03064694                0.15034038               -0.50988776
               2.61830041                5.00728209               34.33029520                1.00000000               -0.17381308               -0.28194212                0.74770306               -0.02506236                0.17551719                1.32745831
               3.61656228                4.81268736               34.20219605                1.00000000               -0.14909577               -0.14391962                0.49876879               -0.01282477                0.27017411               -0.29455793
               4.61531850                4.61750777               34.07592623                0.00010000               -0.07424492               -0.01737457                0.26018805               -0.11065095                1.31600798               -1.76883612
               5.61507738                4.42021467               33.96874215                0.00010000               -0.50500796                0.09637466                0.02286486               -0.09444999                6.91672407               -2.75499359
               6.60521834                4.22633516               33.95449320                0.00010000               -0.91161415                0.08717766               -0.14205585               -0.11938355               11.20299537               -1.23150717
               7.59684510                4.03333567               33.93154538                0.00010000               -0.75157823                0.07098397               -0.33377081               -0.23496360               10.49205908                0.03617971
               8.59018677                3.84171228               33.90127254                0.00010000               -0.57351222               -0.00433783               -0.53690657               -0.31655022               10.01839798                1.37966578
               9.58537486                3.65210056               33.86671881                0.00010000               -0.37353281               -0.06975658               -0.74266781               -0.32841241                9.86647703                2.65671035
              10.58271612                3.46528087               33.83110570                0.00010000                0.05557418               -0.17643683               -0.94002527               -0.14355036                5.69522510                4.05754788
              11.58648634                3.28239128               33.71043396                1.00000000                0.36977759                0.21422908               -1.05565601               -0.01410881                0.84509195                1.67433017
              12.59011167                3.09938199               33.57667822                1.00000000                0.36253294                0.52450542               -1.40039308               -0.04903724                0.22185043               -0.18925354
               2.81189744                6.00465495               34.28767959                1.00000000               -0.13192203               -0.23650306                0.60160672               -0.02967895                0.13153962                1.08163561
               3.81057822                5.81153291               34.15103324                0.00010000               -0.10831973               -0.08676767                0.34120575               -0.02365751                0.33633009               -0.59087797
               4.80973104                5.61769236               34.01841651                0.00010000               -0.11558021                0.05485540                0.09899703               -0.11090889                1.94165573               -2.13154650
               5.80826661                5.42200371               33.91389181                0.00010000               -0.68569403                0.21479789               -0.06927459               -0.38445533                9.25021726               -1.15036770
               6.79601716                5.22799854               33.92748087                0.00010000               -1.14918716                0.22248336               -0.18225776               -0.44681664               14.46827625               -0.25417910
               7.78528287                5.03460990               33.92564827                0.00010000               -0.98555735                0.18542952               -0.36173695               -0.57016971               13.46903576                0.61823701
               8.77630601                4.84228430               33.91707463                0.00010000               -0.80041423                0.10118205               -0.54320680               -0.66103359               13.10635280                1.63890208
               9.76927458                4.65163987               33.90536052                0.00010000               -0.58971289               -0.02369356               -0.72020278               -0.70799200               13.06596593                2.77855389
              10.76451176                4.46300558               33.89291757                0.00010000               -0.08015328               -0.20201580               -0.88859471               -0.35810408                7.14757309                3.94055584
              11.76767152                4.28421773               33.75937380                0.00010000                0.33583557                0.18705428               -1.01064701                0.03796858                0.60326486                1.73623804
              12.77122847                4.10465234               33.61526228                1.00000000                0.35569495                0.53082325               -1.37128698               -0.01653681                0.09491864               -0.13685436
               3.00395092                7.00255203               34.24283163                0.00010000               -0.08992002               -0.18058703                0.45012319               -0.02770704                0.05841885                0.91016642
               4.00305172                6.81095201               34.09743717                0.00010000               -0.06607015               -0.03508243                0.18540830               -0.02269664                0.29169976               -0.74282608
               5.00262952                6.61860488               33.95663963                0.00010000               -0.29848092                0.11533700               -0.06588905               -0.10131077                4.02378972               -2.45556368
               5.99708210                6.42451063               33.88590075                0.00010000               -0.94768529                0.24698061                0.02099261               -0.60227991               12.27552456                0.88405326
               6.98367581                6.23078483               33.91020759                0.00010000               -1.29630794                0.33010293               -0.20901812               -0.68377014               16.66270975                0.52352542
               7.97115595                6.03704426               33.92503147                0.00010000               -1.18698413                0.31153726               -0.38167990               -0.85108083               16.10553575                1.00666248
               8.95993613                5.84373592               33.93554081                0.00010000               -1.03311056                0.20335472               -0.53303531               -1.01455001               15.96960632                1.78835857
               9.95049373                5.65162669               33.94454495                0.00010000               -0.84799785                0.03645252               -0.66524225               -1.14356939               16.09111078                2.73665583
              10.94297617                5.46124055               33.95400393                0.00010000               -0.24473918               -0.13033138               -0.77825480               -0.60628307                8.47474110                3.78805617
              11.94559895                5.28613236               33.80705183                0.00010000                0.29677719                0.19286028               -0.95281692                0.06181303                0.36790915                1.60753052
              12.94891172                5.10999846               33.65379079                0.00010000                0.33127677                0.52507865               -1.32067906               -0.00805041                0.07045935               -0.17655862
               3.19454333                8.00104321               34.19681632                0.00010000               -0.04718974               -0.12132067                0.29970508               -0.02571822                0.02077071                0.83814499
               4.19407143                7.81083126               34.04309669                0.00010000               -0.01985613                0.00766051                0.03319871               -0.01380650                0.17309001               -0.77516938
               5.19414621                7.61999910               33.89234665                0.00010000               -0.50151840                0.15004331               -0.23389486               -0.10429668                6.86020924               -2.59769598
               6.18404106                7.42694332               33.87235669                0.00010000               -1.21690359                0.32059777               -0.00965617               -0.52003698               15.77382094                1.13622759
               7.16980813                7.23460060               33.89921626                0.00010000               -1.43654515                0.47197814               -0.26022256               -0.67219649               18.30839969                0.81777433
               8.15531016                7.04084065               33.92748952                0.00010000               -1.41877761                0.49338033               -0.40689015               -1.00760422               18.48846044                1.12175804
               9.14143258                6.84635139               33.95504161                0.00010000               -1.32057963                0.35808321               -0.51687231               -1.34391259               18.64546397                1.77717921
              10.12889857                6.65236892               33.98303156                0.00010000               -1.17760797                0.14073511               -0.59471984               -1.56979243               18.95221135                2.56727906
              11.11788042                6.46039895               34.01301566                0.00010000               -0.43743478               -0.03872565               -0.62401969               -0.88429080                9.73242244                3.45088314
              12.12014987                6.28807494               33.85310970                0.00010000                0.27274211                0.20207856               -0.90832625                0.04144661                0.14256949                1.41466263
              13.12333526                6.11515391               33.69087957                0.00010000                0.31853929                0.49730545               -1.28208619                0.00317507                0.04249636               -0.33049313
               3.38386046                9.00012561               34.15051095                0.00010000               -0.00407608               -0.06390343                0.15132671               -0.02411805                0.00496363                0.83898923
               4.38381970                8.81110522               33.98872218                0.00010000                0.02855311                0.04647969               -0.11605324               -0.00519010                0.03357878               -0.76153806
               5.38443153                8.62160575               33.82741896                0.00010000               -0.58699148                0.16576265               -0.39570122               -0.03643804                9.26797218               -2.43632047
               6.37207987                8.43092259               33.85027244                0.00010000               -1.40484829                0.51121442               -0.25227516               -0.23687598               19.33439626                0.34992615
               7.35633456                8.24022439               33.88850570                0.00010000               -1.64134043                0.68832039               -0.35939564               -0.50072842               20.39557914                0.64348856
               8.33925307                8.04691186               33.92998273                0.00010000               -1.74024779                0.74136556               -0.45020601               -0.97293726               20.84921260                0.93783268
               9.32152960                7.85089759               33.97422716                0.00010000               -1.71013694                0.65865722               -0.50033676               -1.51034658               21.21816183                1.52583870
              10.30505033                7.65444139               34.01961018                0.00010000               -1.59726311                0.31952663               -0.53270914               -2.04084838               21.59269168                2.58810828
              11.28958434                7.46046604               34.06750959                0.00010000               -0.66887022                0.04830625               -0.51223642               -1.17233728               10.94191143                2.85391383
              12.29167292                7.29017393               33.89674535                0.00010000                0.26164642                0.22368969               -0.88427610                0.00572496                0.01433785                1.16307032
              13.29481727                7.11994457               33.72576753                0.00010000                0.31443488                0.45684845               -1.26491875                0.01097978                0.01972047               -0.55212003
               3.57210175                9.99976515               34.10445576                0.00010000                0.03857444               -0.01119428                0.00502648               -0.02324404               -0.01787231                0.74168527
               4.57248750                9.81176086               33.93454111                0.00010000                0.07491632                0.08522604               -0.26260462               -0.00171567                0.06240318               -0.63812085
               5.57360008                9.62331436               33.76613534                0.00010000               -0.59013006                0.18169415               -0.53957114                0.13937370               11.32170885               -1.63081324
               6.56068490                9.43716761               33.82133995                0.00010000               -1.48978949                0.75391781               -0.47825023                0.02107728               22.55001854               -0.01928923
               7.54380429                9.24836700               33.87465250                0.00010000               -1.77533374                0.86821164               -0.48898838               -0.25895587               22.70945209                0.30691833
               8.52517822                9.05566796               33.92962570                0.00010000               -2.00540838                0.95932934               -0.51885588               -0.62546854               23.21316255                0.52296923
               9.50369612                8.85952454               33.98979399                0.00010000               -2.33325368                1.01565227               -0.50732716               -1.19357331               24.10192216                0.90637820
              10.47851315                8.65875945               34.05949284                0.00010000               -2.24974936                0.89130412               -0.39788661               -1.89747180               24.00020342                2.06399750
              11.45870113                8.46136508               34.11453011                0.00010000               -0.88636530                0.13544189               -0.49214607               -1.44755069               11.82748066                1.69276692
              12.46078584                8.29254873               33.93756131                0.00010000                0.26562273                0.25339350               -0.89438491               -0.02356070                0.11220306                0.80318079
              13.46401359                8.12429088               33.75794508                0.00010000                0.32277479                0.42141471               -1.27918046                0.01315144               -0.00234760               -0.63169907
               3.75940416               10.99990173               34.05611611                0.00010000                0.08320149                0.01365821               -0.13811995                0.02104254                0.40589646                0.63311730
               4.76023618               10.81280974               33.88253629                0.00010000                0.12040408                0.10488860               -0.40621981                0.04176325                0.82365217               -0.52473234
               5.76181225               10.62523963               33.71720390                0.00010000               -0.63937027                0.19252715               -0.67675252                0.48077675               13.25633782               -1.00958789
               6.74744877               10.44600094               33.79219085                0.00010000               -1.45785745                0.88333324               -0.62768189                0.29383769               25.08660610               -0.09881083
               7.73265510               10.25758863               33.85789873                0.00010000               -1.59313060                0.92216228               -0.61497219               -0.11004392               24.87799782                0.12054522
               8.71558616               10.06609845               33.92455014                0.00010000               -1.90442273                1.04304922               -0.61458702               -0.27810561               25.39818414                0.26124230
               9.69456664                9.87121063               33.99735688                0.00010000               -2.51629057                1.16860957               -0.56988709               -0.60449677               26.65715140                0.50230769
              10.66526035                9.67226747               34.08652937                0.00010000               -3.38612955                1.35080189               -0.35873702               -1.72706746               26.06760390                1.42956682
              11.62684405                9.46317488               34.14556952                0.00010000               -1.84922237                0.18097999               -0.56417162               -2.03699184               13.11726417                0.91015846
              12.62827590                9.29524180               33.97370895                0.00010000                0.23759746                0.26930708               -0.94605289                0.00890547                1.04043757                0.58824187
              13.63159600                9.12837286               33.79082049                0.00010000                0.33200974                0.40819805               -1.32057050                0.07134708                0.50950682               -0.57581756
               1.92920325                1.07607490               35.50376182                1.00000000               -0.34558343               -0.36902572                1.27679825               -0.05761214               -0.96891423                0.98360640
               2.92574741                0.86898183               35.39498327                1.00000000               -0.30396317               -0.28668157                1.02723448               -0.03707837               -1.26664493                0.12291504
               3.92312399                0.66145182               35.28026951                1.00000000               -0.21186069               -0.20614565                0.76466909               -0.04219231               -1.24064569               -0.20937485
               4.92151020                0.45368111               35.17203969                1.00000000                0.01074621               -0.14566201                0.50941749                0.04816218               -0.42794619               -0.86803849
               5.92333891                0.24779453               35.07365198                0.00010000                0.16464050               -0.09029306                0.22031398               -0.07316181               -0.06749863                0.28470971
               6.92480301                0.04428038               34.97341964                0.00010000                0.14717531                0.00475044               -0.02423327               -0.06011684               -0.31994744                0.16531096
               7.92628242               -0.15794472               34.86963011                0.00010000                0.18332915                0.07845597               -0.26601889               -0.03918102               -0.55136424               -0.06359546
               8.92846959               -0.35935705               34.76429187                0.00010000                0.23754344                0.15284283               -0.50372049               -0.05408699               -0.84162726                0.10663229
               9.93103328               -0.56003973               34.65420715                1.00000000                0.27701543                0.23126974               -0.77155027               -0.05134564               -1.16192225                0.59122908
              10.93400990               -0.76045602               34.54222520                1.00000000                0.33036256                0.32347916               -1.05211966               -0.03482175               -1.12907562               -0.00714368
              11.93764054               -0.96109395               34.43280106                1.00000000                0.36306333                0.42486890               -1.33409954               -0.01813282               -1.00548588               -0.99878773
               2.13572019                2.07238464               35.45743043                1.00000000               -0.30320227               -0.35718877                1.13844753               -0.01439007               -0.15254381                1.34084473
               3.13268817                1.86611502               35.34843013                1.00000000               -0.26838853               -0.26711373                0.89114361                0.00695337               -0.18392676                0.17500202
               4.13035242                1.65939036               35.23878956                1.00000000               -0.19338528               -0.18056683                0.62688242               -0.00510180               -0.04689434               -0.51493484
               5.12882047                1.45222449               35.13246945                1.00000000               -0.15223842               -0.12101010                0.35503878                0.08797943                1.58570799               -1.25638540
               6.12730766                1.24689160               35.05529802                0.00010000               -0.08745001               -0.01944559                0.08586606               -0.07851362                2.45772934                0.98617545
               7.12707147                1.04432789               34.96428277                0.00010000                0.02008327                0.05122623               -0.15141123               -0.01570074                1.57248651                0.46105656
               8.12770932                0.84283984               34.86856545                0.00010000                0.09523829                0.12123789               -0.38400355                0.01350763                1.47612030               -0.27862069
               9.12897623                0.64217138               34.77522900                0.00010000                0.16799972                0.19163554               -0.62173168               -0.03324188                1.51897505                0.50179960
              10.13106932                0.44227297               34.68013651                1.00000000                0.26062806                0.25156139               -0.87597475               -0.02278234                0.79360335                0.83592729
              11.13418879                0.24277877               34.57223435                1.00000000                0.35139083                0.32994305               -1.15677967                0.00874852                0.08987215                0.13276780
              12.13809713                0.04315474               34.46300567                1.00000000                0.39083391                0.45332038               -1.43665203                0.02723379                0.02935287               -1.17082817
               2.34145470                3.06893112               35.41827399                1.00000000               -0.25739354               -0.33730449                1.00959424               -0.00917474                0.04830470                1.69584647
               3.33888076                2.86363956               35.30291222                1.00000000               -0.22711107               -0.23073171                0.76219096                0.01102901                0.23046769                0.16262757
               4.33691248                2.65784048               35.19116026                1.00000000               -0.15561062               -0.12674053                0.51918754               -0.01571345                0.69412784               -1.28527906
               5.33576855                2.45126091               35.08503176                1.00000000               -0.36236182               -0.08571650                0.22935656                0.13492634                4.58890815               -2.00870151
               6.32966524                2.24740562               35.05113354                0.00010000               -0.36138990               -0.02569372               -0.08800913                0.10481195                5.67036087               -1.15331226
               7.32854075                2.04530491               34.96110791                0.00010000               -0.04780829               -0.04323199               -0.28113214                0.01398559                2.51562781               -0.09027537
               8.32870908                1.84448004               34.86323198                0.00010000               -0.00845593               -0.01882631               -0.49163655               -0.07046936                3.57750269                0.78326174
               9.32837163                1.64447566               34.79416044                0.00010000                0.06305869                0.02452782               -0.76266481               -0.13356673                4.32415683                1.40047594
              10.32997025                1.44499150               34.71103921                1.00000000                0.24657315                0.19283036               -0.99650196               -0.20636209                2.49470817                1.89561067
              11.33330310                1.24614284               34.60515694                1.00000000                0.37315085                0.32007835               -1.25164486               -0.06304069                0.89662334                0.89573840
              12.33743327                1.04797246               34.48988777                1.00000000                0.41301685                0.51300001               -1.53887962                0.00815670                0.44173917               -1.05762629
               2.54611983                4.06563855               35.37910366                1.00000000               -0.21204373               -0.31742622                0.87991644               -0.01506950                0.11580357                1.58054446
               3.54399940                3.86150038               35.25610093                1.00000000               -0.18515135               -0.19189551                0.63204992                0.00288307                0.17448061               -0.00805339
               4.54241681                3.65685555               35.13422074                1.00000000               -0.10227699               -0.07229496                0.39797340               -0.07109350                1.12663513               -1.68253624
               5.54195386                3.45051016               35.03024275                0.00010000               -0.35284547               -0.02513244                0.14674100               -0.00038611                5.23559857               -2.69272916
               6.53535990                3.24637773               34.99047843                0.00010000               -0.58385500               -0.04178255               -0.10481959                0.02230551                8.05191597               -2.83300489
               7.53027676                3.04346325               34.94099643                0.00010000               -0.41153589               -0.09161350               -0.33455407               -0.13585454                7.26203477               -0.56703084
               8.52712918                2.84246332               34.88314080                0.00010000               -0.22416563               -0.13949239               -0.55916608               -0.26542267                6.81973946                1.68481497
               9.52579344                2.64266194               34.82300919                0.00010000               -0.09271403               -0.13887280               -0.78628719               -0.20695060                6.54628314                2.25397769
              10.52527490                2.44612957               34.75799930                0.00010000                0.20767863               -0.04202781               -1.10508365               -0.21111908                4.32179694                3.55626578
              11.52994702                2.24918034               34.65044970                1.00000000                0.46630620                0.26945120               -1.37595040               -0.10982608                1.17855132                1.71329600
              12.53460102                2.05341474               34.52249581                1.00000000                0.46540064                0.56476716               -1.64342484               -0.05093985                0.20169162               -0.41388319
               2.74942965                5.06258260               35.33773085                1.00000000               -0.17082221               -0.28598748                0.74090360               -0.02626883                0.18213616                1.32989604
               3.74772143                4.85980165               35.20715154                1.00000000               -0.14744091               -0.14000898                0.49237626               -0.01587869                0.28134003               -0.30231549
               4.74648083                4.65639458               35.07850064                0.00010000               -0.07413864               -0.00822742                0.25355413               -0.12205731                1.33425385               -1.78393398
               5.74623865                4.45075826               34.96896889                0.00010000               -0.46612831                0.10366518                0.01952547               -0.21215294                6.96781903               -2.72786500
               6.73715826                4.24656997               34.95296348                0.00010000               -0.82502917                0.09070241               -0.16637976               -0.32382251               11.27833744               -1.15941374
               7.72973807                4.04347264               34.92800663                0.00010000               -0.64781660                0.05609717               -0.37840692               -0.42929644               10.55912305                0.11203666
               8.72420193                3.84169019               34.89561091                0.00010000               -0.45858518               -0.02178933               -0.60136647               -0.49740969               10.08800403                1.45838102
               9.72056637                3.64169821               34.85886158                0.00010000               -0.24862323               -0.08363578               -0.83757703               -0.49067718                9.94686099                2.74635962
              10.71922947                3.44415094               34.82118563                0.00010000                0.16275202               -0.23656277               -1.05320743               -0.23770123                5.84259800                4.22035711
              11.72382141                3.25153186               34.69948842                1.00000000                0.43580945                0.22688821               -1.19605173               -0.02379500                0.95841581                1.91037494
              12.72794566                3.05926780               34.56211002                1.00000000                0.41242495                0.58513619               -1.56129411               -0.05024731                0.23539342               -0.03274660
               2.95115636                6.05991880               35.29364277                1.00000000               -0.12865210               -0.23927702                0.59224893               -0.03123109                0.13103611                1.07582048
               3.94986984                5.85870020               35.15440616                0.00010000               -0.10686560               -0.08058951                0.33300228               -0.02859294                0.34496958               -0.60770626
               4.94901905                5.65669100               35.01938546                0.00010000               -0.11672143                0.06805212                0.09346618               -0.13219815                2.00050781               -2.15810988
               5.94753541                5.45258346               34.91325943                0.00010000               -0.64249898                0.19951031               -0.05904191               -0.51685744                9.36596540               -1.00683040
               6.93616907                5.24819177               34.92556930                0.00010000               -1.04824050                0.20872048               -0.20346433               -0.65124974               14.57684887               -0.16580454
               7.92657060                5.04458519               34.92179873                0.00010000               -0.86068271                0.16305627               -0.41354876               -0.74583763               13.55335984                0.70304335
               8.91895541                4.84202753               34.91128180                0.00010000               -0.65257238                0.07213808               -0.62311783               -0.82095486               13.20104194                1.73921357
               9.91351915                4.64098922               34.89766619                0.00010000               -0.41340987               -0.05466173               -0.83143114               -0.87078400               13.17889053                2.91443519
              10.91068722                4.44139832               34.88340395                0.00010000                0.04175494               -0.23420750               -1.04465926               -0.41321572                7.34241590                4.11803935
              11.91435425                4.25371810               34.74886216                0.00010000                0.37184878                0.20906207               -1.09474994                0.05601999                0.73638974                1.88925305
              12.91812419                4.06511747               34.60109517                1.00000000                0.37699408                0.57485260               -1.45461354               -0.01967760                0.10294385                0.00068465
               3.15124223                7.05779706               35.24726994                0.00010000               -0.08648585               -0.18124726                0.43854721               -0.02884422                0.05654178                0.90154296
               4.15037737                6.85818986               35.09924181                0.00010000               -0.06443097               -0.02812474                0.17491739               -0.02754357                0.29645550               -0.75680658
               5.14995361                6.65775563               34.95594576                0.00010000               -0.29883176                0.13160149               -0.07519928               -0.15082543                4.21711214               -2.48476806
               6.14440073                6.45474847               34.88633469                0.00010000               -0.89110325                0.20892942                0.06009996               -0.73978590               12.46816248                1.03764695
               7.13213154                6.25074438               34.90801125                0.00010000               -1.17075862                0.30213321               -0.23505871               -0.87094829               16.71488334                0.60375413
               8.12098556                6.04673376               34.92094900                0.00010000               -1.03763691                0.27746799               -0.44134419               -1.02023980               16.21575663                1.09480636
               9.11137880                5.84313296               34.92981471                0.00010000               -0.86028306                0.16221991               -0.62155334               -1.16961128               16.11331038                1.90503320
              10.10377990                5.64060497               34.93738602                0.00010000               -0.65712653               -0.00252805               -0.78187299               -1.30319810               16.27415330                2.89856703
              11.09823627                5.43946679               34.94561687                0.00010000               -0.12786205               -0.14443717               -0.92215557               -0.67913851                8.69288007                4.01602953
              12.10122266                5.25571310               34.79723452                0.00010000                0.32585496                0.19924036               -1.01589133                0.07290147                0.47982297                1.74620583
              13.10475337                5.07076486               34.64025091                0.00010000                0.35307142                0.55229071               -1.38508790               -0.00725359                0.07399636               -0.04842695
               3.34979388                8.05629386               35.19974097                0.00010000               -0.04334765               -0.11973661                0.28602729               -0.02633562                0.01933515                0.83046140
               4.34936040                7.85813771               35.04337097                0.00010000               -0.01749736                0.01406669                0.02101857               -0.01587403                0.17060466               -0.78535922
               5.34944393                7.65932303               34.88995012                0.00010000               -0.48047317                0.16493765               -0.24735948               -0.18304163                7.10529495               -2.62228838
               6.33975094                7.45676205               34.87224970                0.00010000               -1.13395630                0.29237055               -0.02120806               -0.66182832               16.03318496                1.10919469
               7.32676481                7.25423444               34.89645252                0.00010000               -1.29868565                0.44058105               -0.29889752               -0.84354998               18.38190970                0.86169225
               8.31377723                7.05013455               34.92310946                0.00010000               -1.25364137                0.45206102               -0.47655955               -1.17611667               18.64492657                1.20014412
               9.30169198                6.84527193               34.94945176                0.00010000               -1.13279350                0.30656308               -0.61109305               -1.50173120               18.85560215                1.89672371
              10.29112136                6.64093866               34.97660771                0.00010000               -0.98478319                0.09409118               -0.70363837               -1.72200071               19.23149080                2.73060107
              11.28199631                6.43850958               35.00632785                0.00010000               -0.33035703               -0.04416216               -0.73022660               -0.95770988                9.95116605                3.67652694
              12.28451422                6.25770291               34.84375911                0.00010000                0.29396508                0.20856285               -0.96408130                0.05066671                0.19596215                1.52174262
              13.28787562                6.07616328               34.67776710                0.00010000                0.33614007                0.52029224               -1.33816288                0.00318667                0.04426544               -0.23428910
               3.54702781                9.05540233               35.15194224                0.00010000                0.00028997               -0.06049472                0.13554654               -0.02444584                0.00397659                0.83268893
               4.54703071                8.85847119               34.98749767                0.00010000                0.03203090                0.05206826               -0.12963518               -0.00532864                0.02604792               -0.76824353
               5.54766843                8.66105438               34.82340653                0.00010000               -0.53889764                0.17514713               -0.40902605               -0.12838703                9.45820961               -2.44639581
               6.53625276                8.46059588               34.84754378                0.00010000               -1.28901936                0.49548235               -0.29423427               -0.39750395               19.61787283                0.24131815
               7.52188804                8.25955600               34.88466461                0.00010000               -1.49135121                0.65537565               -0.41618404               -0.66753292               20.57970535                0.64992143
               8.50642574                8.05577498               34.92510942                0.00010000               -1.56739869                0.70133497               -0.53240265               -1.13766276               21.07501791                0.99467855
               9.49054007                7.84926422               34.96873587                0.00010000               -1.51617482                0.61162566               -0.60948841               -1.67556281               21.49954169                1.63000052
              10.47610224                7.64248680               35.01379915                0.00010000               -1.41111211                0.26995628               -0.64091559               -2.19027814               21.94832948                2.76081896
              11.46231783                7.43858355               35.06208642                0.00010000               -0.57599764                0.05419113               -0.58058378               -1.23696244               11.15438100                3.00392792
              12.46458229                7.25988436               34.88763941                0.00010000                0.27892661                0.23466575               -0.93874583                0.00969083                0.01921086                1.23626845
              13.46789636                7.08117070               34.71283190                0.00010000                0.33140733                0.47779021               -1.32193573                0.01131573                0.01917718               -0.49138678
               3.74316723               10.05508396               35.10441379                0.00010000                0.04345459               -0.00633544               -0.01293689               -0.02345532               -0.01895795                0.73747960
               4.74360178                9.85917907               34.93184542                0.00010000                0.07921364                0.09026868               -0.27734603               -0.00169546                0.05640943               -0.64136666
               5.74475151                9.66282598               34.76068609                0.00010000               -0.51512704                0.18698690               -0.55260420                0.03498400               11.47119243               -1.62776251
               6.73329924                9.46667170               34.81633096                0.00010000               -1.32582325                0.70968282               -0.52351498               -0.11635046               22.83918667               -0.07304269
               7.71823504                9.26734195               34.86944688                0.00010000               -1.59917435                0.82884746               -0.55784329               -0.38097818               22.97485162                0.29956358
               8.70131575                9.06416125               34.92399536                0.00010000               -1.83830661                0.92767170               -0.61542216               -0.74037614               23.50676562                0.55184587
               9.68146891                8.85750444               34.98412210                0.00010000               -2.16596442                0.99471848               -0.64079798               -1.32452441               24.48521762                0.96839520
              10.65799646                8.64633779               35.05471448                0.00010000               -2.08047044                0.87501995               -0.58580587               -2.01385728               24.40008807                2.21385835
              11.63985950                8.43959340               35.10936089                0.00010000               -0.79377925                0.14897751               -0.54265323               -1.49400758               11.99134799                1.74002117
              12.64212088                8.26239622               34.92833671                0.00010000                0.28348752                0.26920535               -0.95062361               -0.02274224                0.10239592                0.83423174
              13.64552925                8.08571909               34.74483762                0.00010000                0.34083724                0.44187678               -1.34262048                0.01359423               -0.00287509               -0.60505577
               3.93836849               11.05527562               35.05463280                0.00010000                0.08863054                0.01916548               -0.15808185                0.02022005                0.40320464                0.63015079
               4.93925479               10.86027657               34.87839769                0.00010000                0.12534994                0.10974917               -0.42226777                0.04122617                0.81937856               -0.52600463
               5.94087549               10.66479412               34.71037786                0.00010000               -0.49225092                0.19681406               -0.69084729                0.33804635               13.40174202               -1.00207590
               6.92940977               10.47478953               34.78569013                0.00010000               -1.20482783                0.81178340               -0.67603469                0.17799518               25.38769544               -0.11904772
               7.91677893               10.27613295               34.85138029                0.00010000               -1.39770260                0.87909964               -0.69382490               -0.16866699               25.17398411                0.11205388
               8.90145572               10.07432842               34.91788926                0.00010000               -1.74529417                1.01671669               -0.72599730               -0.33472099               25.72807487                0.27435032
               9.88187305                9.86915859               34.99094755                0.00010000               -2.38597914                1.16541446               -0.72743117               -0.67664739               27.10497656                0.53594994
              10.85373614                9.65998720               35.08185463                0.00010000               -3.27469035                1.36494092               -0.61565412               -1.80580688               26.47944633                1.54503888
              11.81637924                9.44156310               35.13961789                0.00010000               -1.78671923                0.19697001               -0.62532121               -2.08396245               13.25638756                0.90521992
              12.81800175                9.26526847               34.96391760                0.00010000                0.25716408                0.28722455               -1.00990330                0.01034461                1.05359386                0.59584197
              13.82152252                9.09000824               34.77724895                0.00010000                0.35207659                0.42891519               -1.39292052                0.07330385                0.52496827               -0.56434268
               2.02947785                1.13298131               36.51654788                1.00000000               -0.34643382               -0.37081428                1.28162067               -0.05767103               -0.98198702                0.99337010
               3.02601351                0.91747955               36.40525448                1.00000000               -0.30466556               -0.28659484                1.02731181               -0.03608400               -1.28670026                0.12984003
               4.02338454                0.70153382               36.28788699                1.00000000               -0.21334330               -0.20448840                0.75808389               -0.04208637               -1.26242360               -0.20832537
               5.02174664                0.48525768               36.17707700                1.00000000               -0.00839567               -0.14113463                0.49668757               -0.00258071               -0.45971092               -0.88466848
               6.02321662                0.26969412               36.07577986                0.00010000                0.15733274               -0.09911586                0.19937431               -0.07324234               -0.08260724                0.28685289
               7.02489330                0.05572877               35.97311035                0.00010000                0.17204394                0.00287509               -0.04633122               -0.07011190               -0.30074464                0.16675511
               8.02665750               -0.15689360               35.86693327                0.00010000                0.21207525                0.07782075               -0.28294892               -0.04725753               -0.51521178               -0.06005157
               9.02913480               -0.36861974               35.75929763                0.00010000                0.25926196                0.15073223               -0.50672231               -0.06338760               -0.80954118                0.10722828
              10.03184274               -0.57946465               35.64656808                1.00000000                0.28459192                0.23017171               -0.76419265               -0.05843576               -1.14789177                0.60553526
              11.03482664               -0.78997071               35.53182297                1.00000000                0.32888544                0.31926594               -1.03467557               -0.03839077               -1.12186020                0.00072707
              12.03842045               -1.00073963               35.41956218                1.00000000                0.35938078                0.41952391               -1.31851563               -0.01513358               -0.99956385               -0.98622433
               2.24440289                2.12927316               36.46882153                1.00000000               -0.30264757               -0.35970053                1.14095892               -0.01347330               -0.15851349                1.35467278
               3.24137641                1.91461360               36.35732934                1.00000000               -0.26641416               -0.26689150                0.88908238                0.00856302               -0.19888642                0.18530235
               4.23907461                1.69948893               36.24502310                1.00000000               -0.18678654               -0.17861370                0.61913089               -0.00636304               -0.07322099               -0.49924753
               5.23764068                1.48384634               36.13597047                1.00000000               -0.09129748               -0.11483555                0.34366738                0.01873224                1.55559413               -1.26083933
               6.23724866                1.26870296               36.05603043                0.00010000               -0.00773211               -0.03728725                0.05840302               -0.08253131                2.45637481                0.96795480
               7.23748604                1.05575752               35.96262940                0.00010000                0.05552627                0.04875031               -0.18290791               -0.03369948                1.60643906                0.46333675
               8.23835918                0.84388460               35.86460218                0.00010000                0.11502048                0.12642197               -0.41232858               -0.00636673                1.52163937               -0.26823876
               9.23978645                0.63288758               35.76894318                0.00010000                0.17873411                0.19481804               -0.63815916               -0.04396512                1.56298172                0.49357716
              10.24193387                0.42283707               35.67135498                1.00000000                0.26468854                0.25544866               -0.88302379               -0.03001390                0.81633865                0.84520876
              11.24508022                0.21322195               35.56063553                1.00000000                0.35520837                0.32896113               -1.16312215                0.00483699                0.09588038                0.14856466
              12.24903803                0.00345561               35.44859607                1.00000000                0.39578104                0.44699186               -1.44452697                0.03013803                0.03338985               -1.15395590
               2.45852750                3.12578729               36.42836690                1.00000000               -0.25584974               -0.34126666                1.01033294               -0.00816326                0.04694267                1.71347611
               3.45596900                2.91214172               36.31051706                1.00000000               -0.22514781               -0.23013469                0.75894037                0.01153774                0.23023032                0.17579769
               4.45402454                2.69796154               36.19630723                1.00000000               -0.15308719               -0.12200904                0.50968445               -0.01965536                0.67240872               -1.26033356
               5.45290726                2.48296097               36.08724967                1.00000000               -0.21848636               -0.07809177                0.21388572                0.03917178                4.52794687               -1.97696305
               6.44965482                2.26894838               36.05008973                0.00010000               -0.19347953               -0.04690064               -0.12369025               -0.08476941                5.67974375               -1.11221621
               7.44903767                2.05670377               35.95810356                0.00010000               -0.01273534               -0.04033185               -0.32088166               -0.14309945                2.59538893               -0.04975935
               8.44940011                1.84563484               35.85810619                0.00010000                0.01326860               -0.00980915               -0.53297482               -0.20012006                3.63053916                0.81569793
               9.44930304                1.63527662               35.78633290                0.00010000                0.07539904                0.02629177               -0.78993928               -0.21491938                4.38638609                1.44294153
              10.45090809                1.42564432               35.70093133                1.00000000                0.25008981                0.23380717               -1.01869509               -0.19665310                2.54335072                1.87182607
              11.45430484                1.21660851               35.59244328                1.00000000                0.38238994                0.33228219               -1.28656829               -0.06975007                0.91279083                0.88878081
              12.45855589                1.00820021               35.47434298                1.00000000                0.42510529                0.51033575               -1.56665603                0.01388097                0.44119635               -1.05660444
               2.67153077                4.12244783               36.38788888                1.00000000               -0.20978469               -0.32231960                0.87866609               -0.01497946                0.11868607                1.59241012
               3.66943292                3.91001091               36.26239785                1.00000000               -0.18342600               -0.19029518                0.62749052                0.00256034                0.18408488               -0.00048713
               4.66786225                3.69704875               36.13817587                1.00000000               -0.09978189               -0.06485818                0.39136892               -0.07823612                1.13414425               -1.67600403
               5.66743728                3.48228450               36.03166002                0.00010000               -0.30258911               -0.01601407                0.13374730               -0.11100650                5.22985380               -2.65879601
               6.66181047                3.26776495               35.98928341                0.00010000               -0.47498464               -0.04461741               -0.13650706               -0.26205458                8.06603493               -2.74131321
               7.65793759                3.05495088               35.93743492                0.00010000               -0.30132639               -0.09648408               -0.38027919               -0.38670336                7.30647978               -0.49297290
               8.65578394                2.84368842               35.87729219                0.00010000               -0.12295075               -0.14479702               -0.61457273               -0.49228346                6.88066610                1.74085957
               9.65547858                2.63341341               35.81479170                0.00010000                0.04424824               -0.14529322               -0.86241354               -0.33704458                6.56654451                2.32042612
              10.65666890                2.42751321               35.74610833                0.00010000                0.28253775               -0.06804811               -1.21957147               -0.27563335                4.34875527                3.65354975
              11.66112933                2.21986760               35.63596188                1.00000000                0.47316778                0.27889000               -1.47963597               -0.17127216                1.23179368                1.84596231
              12.66613226                2.01366233               35.50541780                1.00000000                0.50029278                0.59637501               -1.73069133               -0.06950395                0.23231870               -0.34433360
               2.88310175                5.11934090               36.34511327                1.00000000               -0.16824607               -0.29077758                0.73720514               -0.02747873                0.18879806                1.33136318
               3.88141929                4.90833582               36.21204358                1.00000000               -0.14577596               -0.13611946                0.48602223               -0.01872661                0.29223067               -0.30955572
               4.88018623                4.69666438               36.08099731                0.00010000               -0.07241790                0.00181494                0.24499040               -0.13347248                1.35312492               -1.79634513
               5.87997093                4.48264069               35.96913266                0.00010000               -0.42194425                0.11084010                0.00951796               -0.33217761                7.00938491               -2.68864056
               6.87174734                4.26805603               35.95116560                0.00010000               -0.72954004                0.09348634               -0.19680045               -0.53311138               11.33496543               -1.08015498
               7.86538013                4.05477409               35.92397724                0.00010000               -0.53277176                0.03887586               -0.43148336               -0.63085833               10.60688847                0.18916097
               8.86109191                3.84273890               35.88924521                0.00010000               -0.33213845               -0.04118229               -0.67765447               -0.68639420               10.13268363                1.52972947
               9.85873736                3.63237075               35.84996727                0.00010000               -0.10753339               -0.10046393               -0.94480900               -0.66019327               10.00819471                2.82038909
              10.85894124                3.42428336               35.81004156                0.00010000                0.29964574               -0.32890398               -1.21637881               -0.33446204                5.97053275                4.37567068
              11.86473027                3.22218632               35.68651293                1.00000000                0.53175519                0.21945501               -1.38677558               -0.02884423                1.02668793                2.20859839
              12.86957634                3.02012771               35.54545234                1.00000000                0.48460703                0.64314047               -1.72450055               -0.07140633                0.20815588                0.17501183
               3.09299136                6.11663228               36.29952456                1.00000000               -0.12564473               -0.24281079                0.58580132               -0.03256227                0.13027118                1.06920026
               4.09173492                5.90728852               36.15769329                0.00010000               -0.10517176               -0.07423733                0.32369793               -0.03307541                0.35407761               -0.62419713
               5.09088793                5.69708505               36.02028584                0.00010000               -0.11664163                0.08402386                0.08408841               -0.15472811                2.06697316               -2.18080295
               6.08940208                5.48450130               35.91271098                0.00010000               -0.59365446                0.18163088               -0.05280702               -0.65207179                9.47237948               -0.84031354
               7.07901484                5.26963468               35.92341158                0.00010000               -0.93822628                0.19603305               -0.23282309               -0.85805407               14.65379937               -0.07342203
               8.07063756                5.05572840               35.91737730                0.00010000               -0.72777209                0.14277814               -0.47608044               -0.92412039               13.60596471                0.78843414
               9.06445940                4.84286478               35.90461228                0.00010000               -0.49536551                0.04638685               -0.71789659               -0.98254257               13.25989576                1.83619922
              10.06073025                4.63140413               35.88873190                0.00010000               -0.21476479               -0.08571183               -0.96933280               -1.02461820               13.23688660                3.04467584
              11.06016410                4.42093513               35.87202438                0.00010000                0.19889248               -0.28230580               -1.26013382               -0.45516991                7.54054605                4.29348821
              12.06470810                4.22425670               35.73747880                0.00010000                0.43286201                0.19866088               -1.19700128                0.07105510                0.91262022                2.11848902
              13.06882134                4.02652514               35.58617001                1.00000000                0.41132443                0.61151373               -1.53689757               -0.03403020                0.11444037                0.21288831
               3.30113802                7.11448469               36.25160258                0.00010000               -0.08330086               -0.18260692                0.42936665               -0.02942861                0.05400324                0.89250724
               4.30030501                6.90685107               36.10093552                0.00010000               -0.06295662               -0.02101525                0.16324814               -0.03001896                0.30041694               -0.77047484
               5.29987888                6.69834485               35.95513564                0.00010000               -0.29625704                0.15037600               -0.08958911               -0.20461557                4.43253230               -2.51345638
               6.29437987                6.48627331               35.88710274                0.00010000               -0.82598583                0.17084115                0.08977191               -0.87839430               12.65033062                1.17994595
               7.28335917                6.27197669               35.90550641                0.00010000               -1.03561227                0.27732001               -0.27199771               -1.05359652               16.71709843                0.68193398
               8.27366762                6.05762966               35.91620459                0.00010000               -0.87969226                0.24773586               -0.51409664               -1.18690798               16.29033027                1.18458853
               9.26576532                5.84366663               35.92310974                0.00010000               -0.67464902                0.12499663               -0.72900524               -1.31930774               16.21755109                2.02676210
              10.26017464                5.63065652               35.92890749                0.00010000               -0.43900200               -0.04181597               -0.93026549               -1.45536721               16.40936906                3.07654780
              11.25698528                5.41863724               35.93556082                0.00010000                0.01933641               -0.17375931               -1.12117420               -0.74543732                8.92973655                4.29218202
              12.26056137                5.22615953               35.78673400                0.00010000                0.36867879                0.19241015               -1.08882592                0.08212532                0.63776929                1.90808264
              13.26435886                5.03235799               35.62608904                0.00010000                0.37974885                0.56810044               -1.44137587               -0.01099214                0.07531083                0.09614116
               3.50767002                8.11298014               36.20253687                0.00010000               -0.03956519               -0.11890601                0.27425471               -0.02663627                0.01767185                0.82225494
               4.50727437                7.90686822               36.04351706                0.00010000               -0.01483203                0.02074173                0.00756060               -0.01581024                0.16654857               -0.79505988
               5.50737338                7.70009257               35.88739946                0.00010000               -0.45360023                0.17985013               -0.26499027               -0.26396806                7.34639348               -2.64646101
               6.49820236                7.48791813               35.87193253                0.00010000               -1.03934092                0.26971889               -0.05212759               -0.80560570               16.28041193                1.04932938
               7.48658656                7.27518108               35.89323831                0.00010000               -1.14964550                0.41258878               -0.34978182               -1.01155735               18.42775773                0.89888395
               8.47520945                7.06068312               35.91795833                0.00010000               -1.07700896                0.41449418               -0.56122408               -1.34009088               18.76983933                1.28164585
               9.46504638                6.84536471               35.94281975                0.00010000               -0.92785811                0.25803132               -0.72586013               -1.65249592               19.03666301                2.02369465
              10.45665229                6.63056782               35.96895880                0.00010000               -0.76470223                0.04472393               -0.84240183               -1.87065190               19.49092309                2.92014341
              11.44975234                6.41745994               35.99841113                0.00010000               -0.20112148               -0.05628424               -0.87805146               -1.03082474               10.19406576                3.96183476
              12.45262986                6.22810490               35.83382808                0.00010000                0.32261272                0.20810865               -1.02568699                0.05887462                0.27934125                1.64370458
              13.45620459                6.03788715               35.66411631                0.00010000                0.35747300                0.53441663               -1.38974055                0.00107388                0.04611313               -0.13057456
               3.71282914                9.11210657               36.15322188                0.00010000                0.00472354               -0.05779813                0.12119081               -0.02459968                0.00303010                0.82550094
               4.71287637                8.90726591               35.98612948                0.00010000                0.03602372                0.05826451               -0.14495064               -0.00478472                0.01759508               -0.77418936
               5.71354961                8.70194186               35.81923844                0.00010000               -0.48485634                0.18476044               -0.42685469               -0.22166085                9.63363239               -2.45460746
               6.70317924                8.49166769               35.84438776                0.00010000               -1.15932906                0.48211362               -0.34543325               -0.56039562               19.88640658                0.12686475
               7.69036303                8.28022846               35.88018202                0.00010000               -1.32485367                0.62307630               -0.48498386               -0.83488922               20.74358099                0.65351989
               8.67668217                8.06591954               35.91933468                0.00010000               -1.37661627                0.66209546               -0.63037911               -1.29861715               21.27385717                1.05559556
               9.66283070                7.84882726               35.96203739                0.00010000               -1.30079024                0.56580226               -0.74132336               -1.83667887               21.76570776                1.73668064
              10.65066637                7.63155099               36.00679186                0.00010000               -1.19995006                0.22066627               -0.77339461               -2.33459369               22.32197997                2.91205573
              11.63883170                7.41751156               36.05589792                0.00010000               -0.46773541                0.05870399               -0.67042158               -1.30378788               11.39715486                3.20432169
              12.64131166                7.23032171               35.87797044                0.00010000                0.29920684                0.24251376               -0.99768081                0.01309637                0.03420348                1.31962164
              13.64481584                7.04304632               35.69932882                0.00010000                0.35041811                0.49427813               -1.37808086                0.00994518                0.01869922               -0.43147568
               3.91685935               10.11182418               36.10419702                0.00010000                0.04840367               -0.00199198               -0.03003097               -0.02359952               -0.01988370                0.73206759
               4.91734338                9.90803351               35.92899418                0.00010000                0.08395182                0.09596013               -0.29373777               -0.00170387                0.04981764               -0.64337857
               5.91853838                9.70378778               35.75508326                0.00010000               -0.43177692                0.19363628               -0.57065432               -0.07340404               11.60418554               -1.62264838
               6.90870784                9.49756040               35.81086965                0.00010000               -1.14507295                0.66169766               -0.57127204               -0.25620838               23.10103859               -0.12430641
               7.89563692                9.28764260               35.86349563                0.00010000               -1.40347646                0.78672110               -0.63766678               -0.50313770               23.21412319                0.29492010
               8.88063832                9.07392503               35.91731725                0.00010000               -1.64777871                0.89390518               -0.72756094               -0.85318141               23.76973636                0.58411695
               9.86268135                8.85668075               35.97697803                0.00010000               -1.96810992                0.97257279               -0.79899407               -1.45368911               24.82189817                1.02916040
              10.84127612                8.63498114               36.04777672                0.00010000               -1.88877407                0.86684797               -0.82402659               -2.12670793               24.85781467                2.30503832
              11.82490587                8.41863402               36.10367704                0.00010000               -0.69595435                0.16268520               -0.59767282               -1.54744199               12.23969989                1.81097739
              12.82735703                8.23295517               35.91854884                0.00010000                0.30242007                0.28375733               -1.00816972               -0.02281279                0.09211687                0.87249466
              13.83095427                8.04777271               35.73109267                0.00010000                0.35972395                0.46085066               -1.40726209                0.01259454               -0.00461256               -0.58165935
               4.11993849               11.11206673               36.05295447                0.00010000                0.09402060                0.02425507               -0.17688977                0.01975224                0.39948873                0.62583699
               5.12087869               10.90918511               35.87409093                0.00010000                0.13080751                0.11516032               -0.43993433                0.04092374                0.81315511               -0.52570792
               6.12255464               10.70581458               35.70338695                0.00010000               -0.33392198                0.20268049               -0.71056031                0.18745193               13.52740332               -0.99284637
               7.11420025               10.50490164               35.77867016                0.00010000               -0.93094940                0.73412405               -0.73148447                0.05665597               25.65285538               -0.13889165
               8.10393565               10.29596289               35.84402223                0.00010000               -1.18099303                0.83202834               -0.78278509               -0.22532735               25.43678246                0.10545754
               9.09058039               10.08379764               35.91003020                0.00010000               -1.56174209                0.98726169               -0.85279916               -0.39000087               26.01873108                0.28833332
              10.07270081                9.86827871               35.98280825                0.00010000               -2.22007272                1.15979614               -0.91100492               -0.74353873               27.47565241                0.56398243
              11.04617894                9.64888795               36.07421629                0.00010000               -3.13959886                1.39068128               -0.94234902               -1.88539049               26.96453475                1.60578378
              12.00990883                9.42076526               36.13306310                0.00010000               -1.72311101                0.21312399               -0.68716619               -2.14425891               13.52340620                0.90841822
              13.01171672                9.23599685               35.95351088                0.00010000                0.27619155                0.30416782               -1.07027412                0.01087215                1.07252162                0.60867379
              14.01543266                9.05226333               35.76296208                0.00010000                0.37159431                0.44906227               -1.46467935                0.07448705                0.54243530               -0.55608242
               2.13215031                1.19139500               37.52939423                1.00000000               -0.34760128               -0.37359237                1.28984505               -0.05821179               -0.99744980                1.00416517
               3.12867430                0.96742890               37.41552950                1.00000000               -0.30486590               -0.28704155                1.02855588               -0.03563904               -1.31077956                0.13697202
               4.12605299                0.74301308               37.29543119                1.00000000               -0.21255910               -0.20279151                0.74991612               -0.04201693               -1.28925086               -0.20771734
               5.12442312                0.51820080               37.18197344                1.00000000               -0.01997910               -0.13657606                0.48009249               -0.04894157               -0.49865028               -0.90114328
               6.12565341                0.29303044               37.07763946                0.00010000                0.16057949               -0.10896203                0.16476243               -0.06888936               -0.10098722                0.28573248
               7.12763471                0.06857739               36.97249302                0.00010000                0.20687459                0.00240295               -0.08751175               -0.07632073               -0.27456413                0.16518077
               8.12979090               -0.15448356               36.86397113                0.00010000                0.25046239                0.07857123               -0.31938240               -0.05030532               -0.46234009               -0.05927502
               9.13264395               -0.37650358               36.75415742                0.00010000                0.28796014                0.15112300               -0.52913100               -0.06705163               -0.75496816                0.10898556
              10.13555011               -0.59750282               36.63892330                1.00000000                0.29673265                0.23167079               -0.77037336               -0.06278872               -1.11147224                0.62182621
              11.13857861               -0.81806660               36.52153169                1.00000000                0.33103729                0.31963622               -1.03082851               -0.04049954               -1.09842422                0.01072400
              12.14217085               -1.03888622               36.40643075                1.00000000                0.35922446                0.41810398               -1.31399772               -0.01466041               -0.98216329               -0.96174764
               2.35553429                2.18765908               37.48024961                1.00000000               -0.30254264               -0.36308532                1.14658831               -0.01291303               -0.16579954                1.36938320
               3.35250887                1.96455849               37.36621178                1.00000000               -0.26437086               -0.26709473                0.88800822                0.00984122               -0.21621956                0.19604222
               4.35024688                1.74098517               37.25117217                1.00000000               -0.17919230               -0.17660178                0.60967234               -0.00742020               -0.10160156               -0.48386158
               5.34892502                1.51683503               37.13934280                1.00000000               -0.02353276               -0.10843493                0.32825418               -0.04612379                1.51863821               -1.26646076
               6.34977622                1.29194082               37.05646608                0.00010000                0.08517395               -0.05610607                0.02476405               -0.07404022                2.44773973                0.94429385
               7.35062850                1.06860142               36.96062461                0.00010000                0.10260551                0.04634076               -0.22271922               -0.04206514                1.64502243                0.46229447
               8.35182833                0.84630215               36.86031888                0.00010000                0.14272811                0.12937752               -0.44686458               -0.01470762                1.58151266               -0.26261939
               9.35348306                0.62500765               36.76246582                1.00000000                0.19376996                0.19947722               -0.65607496               -0.04289994                1.62193960                0.48873066
              10.35570373                0.40481389               36.66247603                1.00000000                0.26911244                0.25887419               -0.89260575               -0.03505559                0.84713071                0.85539171
              11.35886531                0.18512976               36.54897190                1.00000000                0.35700648                0.33293587               -1.16944595                0.00247968                0.10508462                0.16301043
              12.36284386               -0.03470518               36.43411513                1.00000000                0.39785486                0.44524276               -1.45092282                0.03085335                0.03881141               -1.12406852
               2.57809324                3.18413330               37.43848065                1.00000000               -0.25482023               -0.34593488                1.01424800               -0.00756297                0.04500291                1.73182998
               3.57554503                2.96208701               37.31809103                1.00000000               -0.22325979               -0.22971828                0.75622587                0.01164934                0.22828507                0.18977124
               4.57362804                2.73948105               37.20135395                1.00000000               -0.15000228               -0.11698854                0.49888439               -0.02321348                0.64857478               -1.23368226
               5.57254499                2.51603210               37.08930947                1.00000000               -0.06109077               -0.06918933                0.19657120               -0.05271797                4.45718335               -1.94598151
               6.57240623                2.29190832               37.04865974                0.00010000               -0.00564567               -0.07326144               -0.16613382               -0.26992098                5.68205441               -1.07085760
               7.57243208                2.06950420               36.95469028                0.00010000                0.03421447               -0.04356547               -0.36396136               -0.30176338                2.67922631               -0.01383595
               8.57309052                1.84810399               36.85257249                0.00010000                0.04210678               -0.00803304               -0.56971627               -0.32304265                3.69785298                0.83830067
               9.57327421                1.62748597               36.77836165                0.00010000                0.08181862                0.02142198               -0.79305960               -0.28020933                4.44061185                1.44967536
              10.57472689                1.40767467               36.69066531                1.00000000                0.24365296                0.26382273               -1.02926522               -0.17588762                2.57474722                1.82821504
              11.57814727                1.18859211               36.57942558                1.00000000                0.38654514                0.34500865               -1.30691353               -0.06239626                0.91660065                0.86896108
              12.58245779                0.97001864               36.45855465                1.00000000                0.43105201                0.50619440               -1.58157115                0.01723652                0.43770872               -1.04441841
               2.79947561                4.18074038               37.39667698                1.00000000               -0.20815096               -0.32795584                0.88080467               -0.01503781                0.12144027                1.60438887
               3.79739410                3.95996412               37.26865074                1.00000000               -0.18190479               -0.18859562                0.62329073                0.00209931                0.19381912                0.00753210
               4.79583752                3.73864540               37.14204812                1.00000000               -0.09753565               -0.05616676                0.38148079               -0.08433337                1.14034760               -1.66734455
               5.79544339                3.51545125               37.03291770                0.00010000               -0.24659104               -0.00488013                0.11489630               -0.22283701                5.21637073               -2.62253221
               6.79090570                3.29047559               36.98774829                0.00010000               -0.35229124               -0.05348135               -0.17376291               -0.55571873                8.06835889               -2.64366136
               7.78839757                3.06773011               36.93339084                0.00010000               -0.17599912               -0.10953617               -0.43117417               -0.64849734                7.34158930               -0.42236625
               8.78738571                2.84614149               36.87084934                0.00010000               -0.00446858               -0.15696432               -0.67486334               -0.72594770                6.92263450                1.78314874
               9.78830819                2.62543609               36.80576092                0.00010000                0.18470584               -0.16600845               -0.93875590               -0.46957175                6.56236610                2.34886830
              10.79107983                2.41009035               36.73360787                0.00010000                0.34826111               -0.09631836               -1.23116454               -0.30192923                4.31122614                3.60995612
              11.79527342                2.19202993               36.62085698                1.00000000                0.46278553                0.27973942               -1.51067386               -0.19372611                1.25759246                1.90415847
              12.80033554                1.97541871               36.48788199                1.00000000                0.50621253                0.59985996               -1.74938938               -0.07251387                0.24640950               -0.28925241
               3.01934500                5.17757418               37.35247495                1.00000000               -0.16629974               -0.29634393                0.73681450               -0.02847252                0.19555713                1.33249376
               4.01768201                4.95831509               37.21687199                1.00000000               -0.14453781               -0.13198992                0.47995547               -0.02102265                0.30379998               -0.31761797
               5.01645425                4.73835771               37.08340045                0.00010000               -0.07119752                0.01456076                0.23470222               -0.14386474                1.37303420               -1.80964095
               6.01625805                4.51593449               36.96915925                0.00010000               -0.37206271                0.11779300               -0.00836966               -0.45525804                7.04366090               -2.63777194
               7.00901299                4.29083869               36.94902747                0.00010000               -0.62309111                0.09534669               -0.23431426               -0.74739892               11.37437668               -0.99657163
               8.00379623                4.06731348               36.91937697                0.00010000               -0.40737080                0.01982095               -0.49218224               -0.83911779               10.63320103                0.26290022
               9.00086558                3.84496470               36.88205783                0.00010000               -0.19311581               -0.06272517               -0.76295436               -0.88673326               10.14956800                1.58882435
               9.99993392                3.62416580               36.83996540                0.00010000                0.06144435               -0.12467893               -1.05817595               -0.83399080               10.00773729                2.86617648
              11.00209446                3.40574830               36.79685806                0.00010000                0.45052339               -0.41707619               -1.42767370               -0.41537488                6.05608762                4.44118979
              12.00894438                3.19418690               36.67175291                1.00000000                0.60677456                0.19184366               -1.51790298               -0.02724229                1.09359893                2.47142218
              13.01422995                2.98201584               36.52762000                1.00000000                0.52855701                0.66599118               -1.79611590               -0.08235373                0.17388381                0.37550603
               3.23742433                6.17481350               37.30535879                1.00000000               -0.12342145               -0.24696391                0.58259899               -0.03334727                0.12856475                1.06191792
               4.23619012                5.95732432               37.16088012                0.00010000               -0.10417547               -0.06792531                0.31354821               -0.03531246                0.36397825               -0.64169027
               5.23534082                5.73893661               37.02106723                0.00010000               -0.11664342                0.10075790                0.07037219               -0.17672179                2.14563582               -2.20806404
               6.23385725                5.51780711               36.91220329                0.00010000               -0.53810448                0.15956707               -0.05237100               -0.78877855                9.57584571               -0.65379885
               7.22457873                5.29238252               36.92091283                0.00010000               -0.81840239                0.18588212               -0.27120354               -1.06609533               14.69961648                0.02046971
               8.21748920                5.06812653               36.91227713                0.00010000               -0.58900019                0.12655105               -0.54857792               -1.10514687               13.62620912                0.87085817
               9.21279873                4.84488698               36.89692387                0.00010000               -0.33222128                0.02480118               -0.82529989               -1.15113344               13.27492644                1.92422755
              10.21084478                4.62294251               36.87827954                0.00010000               -0.00237508               -0.11283850               -1.13013379               -1.17779342               13.21605238                3.15421110
              11.21275123                4.40174882               36.85820127                0.00010000                0.38081284               -0.34123070               -1.52712699               -0.50828389                7.73228434                4.46760326
              12.21846103                4.19586680               36.72492214                0.00010000                0.51396836                0.16692917               -1.31142936                0.07475759                1.12846891                2.40195060
              13.22303060                3.98873853               36.57035721                1.00000000                0.45695622                0.63627696               -1.61208928               -0.04684842                0.10728897                0.45294456
               3.45365642                7.17263490               37.25585727                0.00010000               -0.08037721               -0.18469216                0.42303995               -0.02970161                0.05109144                0.88256799
               4.45285265                6.95695659               37.10250677                0.00010000               -0.06096969               -0.01408876                0.15054780               -0.03116863                0.30374389               -0.78408607
               5.45243702                6.74037287               36.95415398                0.00010000               -0.29080376                0.16771991               -0.11003288               -0.26076197                4.67164010               -2.54702237
               6.44703657                6.51912584               36.88813013                0.00010000               -0.75326785                0.13282593                0.10922096               -1.00767272               12.82621066                1.30311397
               7.43737167                6.29455633               36.90257130                0.00010000               -0.89238675                0.25769918               -0.32070955               -1.22829577               16.67022942                0.75732302
               8.42918884                6.06984450               36.91066707                0.00010000               -0.71723738                0.22554264               -0.59938699               -1.34961221               16.32775423                1.27289743
               9.42302692                5.84546072               36.91523460                0.00010000               -0.48363137                0.09655964               -0.85418312               -1.46547151               16.27262083                2.14821762
              10.41951621                5.62190903               36.91878071                0.00010000               -0.20112132               -0.07426774               -1.10992898               -1.60166860               16.47041719                3.26411312
              11.41900449                5.39892369               36.92319339                0.00010000                0.19668079               -0.21698260               -1.38716249               -0.80632102                9.18197252                4.62232099
              12.42344982                5.19752549               36.77545800                0.00010000                0.42725162                0.17368820               -1.16937218                0.08762580                0.85867271                2.09922040
              13.42754953                4.99474138               36.61142339                0.00010000                0.40997015                0.57867371               -1.48876488               -0.01887004                0.07518218                0.25127598
               3.66818693                8.17111966               37.20522606                0.00010000               -0.03581492               -0.11913557                0.26476613               -0.02687172                0.01601938                0.81302764
               4.66782878                7.95704255               37.04352218                0.00010000               -0.01152945                0.02768465               -0.00713703               -0.01576229                0.16132070               -0.80442533
               5.66795634                7.74229101               36.88465032                0.00010000               -0.41542228                0.19527833               -0.28672135               -0.34665719                7.57765490               -2.67198159
               6.65952033                7.52046363               36.87120714                0.00010000               -0.93310914                0.25351079               -0.09978088               -0.93768815               16.51035112                0.95376632
               7.64929416                7.29753651               36.88945688                0.00010000               -0.99638812                0.39063708               -0.41288910               -1.16925852               18.44935930                0.93146686
               8.63959257                7.07263738               36.91188498                0.00010000               -0.89346912                0.38417357               -0.66049129               -1.49298274               18.85988922                1.36433985
               9.63142477                6.84681818               36.93493455                0.00010000               -0.71220641                0.21894136               -0.86125720               -1.79050507               19.17892647                2.15559427
              10.62534844                6.62145716               36.95975967                0.00010000               -0.52082110                0.00004801               -1.01509105               -2.01219499               19.70942795                3.13871364
              11.62100835                6.39740917               36.98876682                0.00010000               -0.04762906               -0.07598111               -1.08531250               -1.10193648               10.46165396                4.32884127
              12.62439586                6.19934057               36.82324537                0.00010000                0.36065312                0.20152718               -1.09401160                0.06442343                0.40826263                1.77753645
              13.62822141                6.00031201               36.64997229                0.00010000                0.38255526                0.54117233               -1.43688333               -0.00265318                0.04693781               -0.03611974
               3.88127321                9.17025219               37.15436606                0.00010000                0.00928404               -0.05634702                0.10851932               -0.02477531                0.00191251                0.81700173
               4.88136605                8.95751028               36.98459866                0.00010000                0.04047961                0.06537514               -0.16216076               -0.00453152                0.00844930               -0.77927366
               5.88208280                8.74427844               36.81486944                0.00010000               -0.41643698                0.19667432               -0.44916744               -0.31554060                9.78988174               -2.46109330
               6.87303731                8.52419605               36.84063511                0.00010000               -1.01350282                0.47197727               -0.40860567               -0.72610284               20.12808140                0.01440888
               7.86181274                8.30236908               36.87496494                0.00010000               -1.14948985                0.59318210               -0.56418137               -0.99461690               20.88712760                0.65442237
               8.85004751                8.07752797               36.91250183                0.00010000               -1.17078532                0.62553449               -0.74339751               -1.44470093               21.44098816                1.12061275
               9.83839704                7.84983955               36.95390940                0.00010000               -1.06830993                0.52493051               -0.89373996               -1.97976744               22.01111776                1.84644159
              10.82868131                7.62190999               36.99833126                0.00010000               -0.96573426                0.17784832               -0.93306377               -2.46650913               22.70662392                3.03962132
              11.81908235                7.39740406               37.04867798                0.00010000               -0.34229295                0.06192964               -0.79389998               -1.37404660               11.67383531                3.47800540
              12.82183546                7.20155603               36.86768579                0.00010000                0.32356142                0.24825508               -1.06321028                0.01562432                0.06711232                1.41147272
              13.82555358                7.00556482               36.68527028                0.00010000                0.37181266                0.50703151               -1.43457630                0.00727553                0.01874647               -0.38479098
               4.09317524               10.16999272               37.10381317                0.00010000                0.05366632                0.00126348               -0.04650884               -0.02366020               -0.01980876                0.72603521
               5.09371190                9.95835005               36.92597066                0.00010000                0.08922594                0.10293152               -0.31253607               -0.00244280                0.04298080               -0.64409182
               6.09495976                9.74622450               36.74927301                0.00010000               -0.34021323                0.20256789               -0.59409560               -0.18426756               11.72272653               -1.61561213
               7.08690764                9.52990317               36.80490552                0.00010000               -0.94449295                0.61073133               -0.62597352               -0.40150245               23.33463274               -0.16885768
               8.07606990                9.30940015               36.85669354                0.00010000               -1.18397797                0.74099147               -0.72815861               -0.62066548               23.42475227                0.29159358
               9.06322808                9.08514807               36.90944414                0.00010000               -1.43112452                0.85706127               -0.85362195               -0.95432801               23.99957959                0.62075624
              10.04744741                8.85731679               36.96814221                0.00010000               -1.73871661                0.94691207               -0.97487443               -1.56654909               25.10079040                1.09078347
              11.02845374                8.62501412               37.03823395                0.00010000               -1.67830150                0.86568698               -1.09112881               -2.22891725               25.38147140                2.32399918
              12.01388138                8.39864776               37.09740743                0.00010000               -0.59530782                0.17776468               -0.66373500               -1.61190176               12.59220950                1.91885266
              13.01654759                8.20430567               36.90817331                0.00010000                0.32339790                0.29809167               -1.07017535               -0.02386858                0.08299604                0.91857011
              14.02034934                8.01045264               36.71669237                0.00010000                0.38017470                0.47914795               -1.47540101                0.01045967               -0.00761381               -0.57018214
               4.30408534               11.17027746               37.05109501                0.00010000                0.10000720                0.02847404               -0.19522883                0.02015587                0.39583184                0.62195563
               5.30508542               10.95956891               36.86959900                0.00010000                0.13794922                0.12188621               -0.46122113                0.03996825                0.80557557               -0.52384166
               6.30684433               10.74832979               36.69616665                0.00010000               -0.16269042                0.21052974               -0.73669264                0.03054548               13.63416107               -0.98205107
               7.30183161               10.53641068               36.77106045                0.00010000               -0.63448947                0.65075060               -0.79468410               -0.06464732               25.88444003               -0.16044037
               8.29415454               10.31718891               36.83572459                0.00010000               -0.93936455                0.77887546               -0.88193151               -0.27860994               25.66658268                0.10076513
               9.28304432               10.09466920               36.90083328                0.00010000               -1.34772691                0.95211279               -0.99230273               -0.43893170               26.26901108                0.30364398
              10.26720000                9.86877779               36.97272746                0.00010000               -2.01361620                1.14610048               -1.10887352               -0.79701409               27.75306334                0.58702899
              11.24277199                9.63922373               37.06300765                0.00010000               -2.98236139                1.42096025               -1.30445368               -1.95909687               27.53755270                1.59274577
              12.20755277                9.40095936               37.12587457                0.00010000               -1.66093918                0.23115944               -0.75649282               -2.21815366               13.95329232                0.92650473
              13.20955321                9.20751786               36.94251212                0.00010000                0.29580325                0.32121923               -1.13058726                0.00998326                1.10202877                0.62904897
              14.21346884                9.01514778               36.74795537                0.00010000                0.39156291                0.46951434               -1.53873075                0.07494226                0.56320814               -0.55670754
               2.23725832                1.25135386               38.54234478                1.00000000               -0.34973497               -0.37794462                1.30367198               -0.05951598               -1.01607120                1.01640112
               3.23376097                1.01885445               38.42582560                1.00000000               -0.30513670               -0.28815199                1.03208745               -0.03596877               -1.34007432                0.14443604
               4.23115558                0.78589749               38.30288531                1.00000000               -0.20978011               -0.20085610                0.74025298               -0.04232022               -1.32277581               -0.20741169
               5.22956536                0.55249610               38.18667885                1.00000000               -0.02391406               -0.13150086                0.45810719               -0.09167933               -0.55098087               -0.91801968
               6.23067730                0.31775554               38.07907510                0.00010000                0.17524917               -0.11869799                0.11424279               -0.06191016               -0.13454922                0.28149572
               7.23307035                0.08276921               37.97136012                0.00010000                0.25344982                0.00369432               -0.14972252               -0.08017229               -0.24872383                0.15922713
               8.23574630               -0.15077459               37.86054562                0.00010000                0.30064613                0.08054536               -0.37533930               -0.05110899               -0.39521561               -0.06253216
               9.23908327               -0.38305683               37.74871501                0.00010000                0.32463649                0.15147901               -0.56449514               -0.06946847               -0.67622380                0.11168785
              10.24223903               -0.61413359               37.63116062                1.00000000                0.31337194                0.23364853               -0.78654273               -0.06585389               -1.05418929                0.63497824
              11.24535071               -0.84463665               37.51120640                1.00000000                0.33700201                0.32249230               -1.03973894               -0.04127693               -1.06278629                0.02024717
              12.24897907               -1.07534334               37.39328222                1.00000000                0.36283584                0.41936832               -1.32079603               -0.01579662               -0.95629585               -0.93196306
               2.46916257                2.24757441               38.49175329                1.00000000               -0.30331079               -0.36786678                1.15709882               -0.01272402               -0.17487523                1.38543844
               3.46612946                2.01597293               38.37508951                1.00000000               -0.26255075               -0.26781310                0.88848977                0.01074779               -0.23678514                0.20726976
               4.46391155                1.78388893               38.25721655                1.00000000               -0.17049566               -0.17427736                0.59779743               -0.00849124               -0.13304515               -0.46843258
               5.46271955                1.55118109               38.14253555                1.00000000                0.05050462               -0.10148277                0.30646316               -0.10702977                1.47412952               -1.27273010
               6.46492164                1.31656856               38.05652571                0.00010000                0.19070724               -0.07532679               -0.01839510               -0.05685714                2.42943555                0.91226168
               7.46653369                1.08280615               37.95817502                0.00010000                0.16132895                0.04458056               -0.27362357               -0.04493006                1.68606769                0.45364737
               8.46814822                0.85003086               37.85566488                0.00010000                0.17671967                0.13224876               -0.48852371               -0.02043447                1.65679895               -0.26306056
               9.47006808                0.61845796               37.75582168                1.00000000                0.21110866                0.20159255               -0.67307747               -0.04443918                1.69431639                0.48929335
              10.47237040                0.38820289               37.65350286                1.00000000                0.27373654                0.26051890               -0.90046531               -0.03848020                0.88219017                0.86211060
              11.47554281                0.15858828               37.53724661                1.00000000                0.35787002                0.33696500               -1.17409009                0.00221199                0.11560552                0.17415498
              12.47952780               -0.07114966               37.41957761                1.00000000                0.39849824                0.44441659               -1.45445501                0.02984832                0.04514412               -1.08861009
               2.70020681                3.24399652               38.44865186                1.00000000               -0.25454065               -0.35165529                1.02258964               -0.00735912                0.04194955                1.75161680
               3.69766140                3.01349818               38.32564157                1.00000000               -0.22146071               -0.22961677                0.75437636                0.01120655                0.22438180                0.20458487
               4.69577759                2.78241195               38.20628492                1.00000000               -0.14581301               -0.11167865                0.48583481               -0.02705244                0.62339731               -1.20585458
               5.69474514                2.55046644               38.09118109                1.00000000                0.10687532               -0.05985050                0.17443373               -0.14089788                4.37663882               -1.91665749
               6.69791510                2.31624901               38.04676706                0.00010000                0.19821535               -0.10222863               -0.21685661               -0.45113857                5.66953376               -1.03753334
               7.69870945                2.08366082               37.95082433                0.00010000                0.08853483               -0.04946411               -0.41288110               -0.46219922                2.76653916                0.00851459
               8.69968579                1.85187038               37.84671186                0.00010000                0.06565037               -0.00824025               -0.60449032               -0.44837319                3.78381659                0.84130127
               9.70002245                1.62097502               37.77047171                0.00010000                0.08266570                0.01645337               -0.78647391               -0.34471553                4.49252963                1.41468545
              10.70133911                1.39107679               37.68034603                1.00000000                0.23625244                0.26583451               -1.02852111               -0.17227024                2.58932413                1.80190285
              11.70474750                1.16210265               37.56630501                1.00000000                0.38563991                0.35175790               -1.30781274               -0.05337747                0.91256788                0.84723637
              12.70905191                0.93354499               37.44271155                1.00000000                0.43044044                0.49807952               -1.57749380                0.01836575                0.43190613               -1.02205788
               2.93001206                4.24054131               38.40550497                1.00000000               -0.20738962               -0.33437772                0.88710965               -0.01547092                0.12373232                1.61708005
               3.92793816                4.01138059               38.27486366                1.00000000               -0.18049090               -0.18720540                0.61965466                0.00112205                0.20317816                0.01633642
               4.92640224                3.78165536               38.14580548                1.00000000               -0.09368177               -0.04797462                0.36822565               -0.09072249                1.14515872               -1.65659213
               5.92606453                3.54998408               38.03395795                0.00010000               -0.18488719                0.00666062                0.08872285               -0.33296910                5.19641921               -2.58649116
               6.92270450                3.31452399               37.98580815                0.00010000               -0.21980998               -0.06444759               -0.21890339               -0.85325758                8.06146481               -2.54303070
               7.92166833                3.08181687               37.92881144                0.00010000               -0.04189723               -0.12575012               -0.48824801               -0.91767923                7.36792312               -0.36211552
               8.92186655                2.84986606               37.86379493                0.00010000                0.11495202               -0.17147650               -0.73653235               -0.96103991                6.94953391                1.79895907
               9.92396737                2.61878703               37.79601659                0.00010000                0.29654038               -0.18996787               -0.99941494               -0.61385260                6.58451285                2.31391922
              10.92779736                2.39351958               37.72148504                0.00010000                0.40198470               -0.12815167               -1.19065606               -0.31136088                4.27957814                3.45534583
              11.93200706                2.16562343               37.60574840                1.00000000                0.46065406                0.27234756               -1.49494004               -0.18074261                1.24181776                1.91799546
              12.93701044                1.93881193               37.47043001                1.00000000                0.50033794                0.58088086               -1.72727118               -0.06775453                0.25380582               -0.23950048
               3.15821882                5.23730897               38.35984956                1.00000000               -0.16490325               -0.30264934                0.74027196               -0.03009231                0.20303603                1.33366115
               4.15656978                5.00975408               38.22164269                1.00000000               -0.14295833               -0.12803286                0.47400640               -0.02443150                0.31679428               -0.32638179
               5.15535965                4.78145245               38.08569135                0.00010000               -0.06763285                0.02574405                0.22105313               -0.15395946                1.39295330               -1.82339054
               6.15521713                4.55059966               37.96896527                0.00010000               -0.31712460                0.12351846               -0.03510663               -0.57417695                7.06940454               -2.57316296
               7.14901716                4.31496005               37.94647932                0.00010000               -0.51016667                0.09881281               -0.27945768               -0.96125018               11.39950600               -0.91086076
               8.14501379                4.08114582               37.91413359                0.00010000               -0.27611625                0.00192956               -0.55964964               -1.05184146               10.63979173                0.32957442
               9.14349483                3.84844085               37.87398612                0.00010000               -0.04609604               -0.08467541               -0.85210437               -1.09405938               10.13885271                1.62786291
              10.14409187                3.61717567               37.82880375                0.00010000                0.23903261               -0.15569923               -1.17122868               -1.00602887                9.93107589                2.86996987
              11.14827549                3.38851375               37.78148808                0.00010000                0.58742154               -0.47838589               -1.61762852               -0.46281201                6.10972701                4.34411557
              12.15584030                3.16754960               37.65615487                1.00000000                0.65221695                0.14835907               -1.55518667               -0.01183391                1.20457702                2.67141387
              13.16131983                2.94516261               37.50953002                1.00000000                0.54795208                0.64843545               -1.78782547               -0.08437370                0.15162366                0.55676356
               3.38452000                6.23448832               38.31117654                1.00000000               -0.12139507               -0.25200939                0.58280054               -0.03473737                0.12631056                1.05434089
               4.38330605                6.00881993               38.16396425                0.00010000               -0.10212624               -0.06133928                0.30283223               -0.04023444                0.37500215               -0.66033249
               5.38247747                5.78217024               38.02169328                0.00010000               -0.11163283                0.11844315                0.05103738               -0.20184023                2.23663479               -2.24062104
               6.38107339                5.55245445               37.91166356                0.00010000               -0.47720683                0.13660407               -0.05800371               -0.92001804                9.67655558               -0.44760912
               7.37293334                5.31650025               37.91798751                0.00010000               -0.69613443                0.18095221               -0.31770460               -1.26946696               14.71606863                0.11314262
               8.36715070                5.08185546               37.90640574                0.00010000               -0.44889100                0.11669666               -0.62917635               -1.28910470               13.61568166                0.94685770
               9.36395552                4.84817255               37.88810628                0.00010000               -0.16884048                0.00897243               -0.94071573               -1.32865758               13.24337017                1.99723771
              10.36377389                4.61567305               37.86612922                0.00010000                0.21058336               -0.13585109               -1.30078633               -1.33441765               13.09862473                3.23231255
              11.36816718                4.38395187               37.84148184                0.00010000                0.56738207               -0.39978174               -1.81397434               -0.57052357                7.92225609                4.61067969
              12.37512153                4.16859062               37.71125022                0.00010000                0.59648925                0.11355521               -1.39490012                0.07466410                1.40778021                2.68498371
              13.38009697                3.95178064               37.55392822                1.00000000                0.49754347                0.63029125               -1.64753733               -0.05040349                0.08787083                0.68631200
               3.60886084                7.23226878               38.26006338                0.00010000               -0.07776678               -0.18782066                0.41965157               -0.03024076                0.04790685                0.87186204
               4.60808317                7.00852729               38.10394647                0.00010000               -0.05862559               -0.00660548                0.13715653               -0.03384912                0.30562286               -0.79732983
               5.60768833                6.78382132               37.95293498                0.00010000               -0.27982053                0.18836204               -0.13579193               -0.32157541                4.93170407               -2.58255355
               6.60248676                6.55333174               37.88928716                0.00010000               -0.67307594                0.10170086                0.11158776               -1.13563953               12.99791361                1.40465593
               7.59422681                6.31857910               37.89909222                0.00010000               -0.74636825                0.24582634               -0.37982455               -1.39447073               16.57926171                0.82716286
               8.58755940                6.08347975               37.90421685                0.00010000               -0.55613572                0.21398458               -0.69508266               -1.50899661               16.32885101                1.35574909
               9.58310410                5.84862030               37.90602608                0.00010000               -0.29675976                0.08146247               -0.99273025               -1.61131984               16.27251559                2.26278410
              10.58162420                5.61445864               37.90670891                0.00010000                0.04216742               -0.09407516               -1.31351501               -1.74337451               16.43239004                3.44992937
              11.58394744                5.38051812               37.90781757                0.00010000                0.39403057               -0.26998483               -1.71519922               -0.86527024                9.45410374                4.99477331
              12.58950481                5.16982071               37.76334656                0.00010000                0.49921325                0.14186085               -1.24637183                0.08592109                1.16578233                2.30967806
              13.59393171                4.95776843               37.59631374                0.00010000                0.44268956                0.57686134               -1.52556180               -0.02560082                0.06919101                0.40205895
               3.83139816                8.23073190               38.20783219                0.00010000               -0.03216347               -0.12046450                0.25770726               -0.02734101                0.01455724                0.80277348
               4.83107653                8.00868782               38.04337432                0.00010000               -0.00783221                0.03523336               -0.02312490               -0.01678095                0.15554687               -0.81300621
               5.83124152                7.78593748               37.88166504                0.00010000               -0.37368537                0.21379913               -0.31216559               -0.42884480                7.79597385               -2.69344918
               6.82360282                7.55448847               37.86993691                0.00010000               -0.81728031                0.24628759               -0.16080244               -1.06810507               16.72306567                0.82648225
               7.81489591                7.32141677               37.88498053                0.00010000               -0.83366260                0.37505768               -0.48859069               -1.31706330               18.45067096                0.95862995
               8.80692957                7.08613515               37.90474850                0.00010000               -0.70728433                0.36464439               -0.77225840               -1.63084501               18.91372722                1.44465590
               9.80075022                6.84980180               37.92559461                0.00010000               -0.49604908                0.19640648               -1.01491217               -1.91120349               19.27270203                2.28774581
              10.79700859                6.61379154               37.94865698                0.00010000               -0.26252549               -0.02947525               -1.22236679               -2.14217851               19.85938537                3.38360091
              11.79549971                6.37855217               37.97670488                0.00010000                0.12905292               -0.10435308               -1.36938079               -1.16786401               10.75842600                4.79428459
              12.79958964                6.17142783               37.81194784                0.00010000                0.40948975                0.19012545               -1.16655722                0.06612459                0.60883035                1.91898878
              13.80368951                5.96331787               37.63537864                0.00010000                0.40998655                0.54309922               -1.48127055               -0.00649241                0.04632987                0.03776464
               4.05240218                9.22985949               38.15539226                0.00010000                0.01397928               -0.05579873                0.09757787               -0.02525146                0.00053412                0.80714521
               5.05254198                9.00923196               37.98288626                0.00010000                0.04543025                0.07317517               -0.18131462               -0.00477757               -0.00100494               -0.78346295
               6.05331079                8.78809730               37.81025509                0.00010000               -0.34483034                0.21204185               -0.47615661               -0.40789650                9.92813656               -2.46389785
               7.04564537                8.55825749               37.83621564                0.00010000               -0.85359645                0.46347226               -0.47384019               -0.88199512               20.33861026               -0.09342258
               8.03623886                8.32608025               37.86889840                0.00010000               -0.95439491                0.56490267               -0.65570469               -1.13937069               21.00773771                0.65245746
               9.02655747                8.09077264               37.90446673                0.00010000               -0.95076129                0.59367757               -0.86974058               -1.56400763               21.57317255                1.18752558
              10.01722363                7.85254843               37.94416259                0.00010000               -0.82636062                0.49382847               -1.06259455               -2.08731872               22.22682204                1.95905095
              11.01003026                7.61386914               37.98813059                0.00010000               -0.71348807                0.14965947               -1.12299429               -2.57428154               23.08677036                3.15383273
              12.00295387                7.37843106               38.04001992                0.00010000               -0.19843251                0.06311612               -0.96875522               -1.44674702               11.98798901                3.85450771
              13.00606161                7.17362322               37.85670623                0.00010000                0.35339613                0.25362080               -1.13718315                0.01708608                0.13144982                1.50902950
              14.01002180                6.96863041               37.67063729                0.00010000                0.39601863                0.51830559               -1.49490343                0.00443776                0.01940909               -0.36309180
               4.27214820               10.22961593               38.10326685                0.00010000                0.05949680                0.00413428               -0.06237098               -0.02421285               -0.01848799                0.71983859
               5.27274316               10.01015133               37.92274346                0.00010000                0.09549292                0.11098208               -0.33478636               -0.00305159                0.03659091               -0.64468106
               6.27405805                9.79017832               37.74320134                0.00010000               -0.23815997                0.21444866               -0.62362459               -0.29638960               11.82782929               -1.60673473
               7.26797996                9.56375791               37.79835018                0.00010000               -0.72323524                0.55627454               -0.68973542               -0.53888720               23.54040273               -0.20738520
               8.25959335                9.33271483               37.84893246                0.00010000               -0.93993644                0.69179252               -0.82913512               -0.72468021               23.60491414                0.28863982
               9.24918124                9.09800870               37.90024481                0.00010000               -1.18430014                0.81598005               -0.99226733               -1.03180937               24.19422148                0.66094797
              10.23590735                8.85967837               37.95748054                0.00010000               -1.47704532                0.91501907               -1.16014928               -1.64299502               25.31970274                1.15610070
              11.21964033                8.61678473               38.02595414                0.00010000               -1.45483259                0.86631644               -1.34935740               -2.30556283               25.96499735                2.27766378
              12.20681069                8.37981449               38.09040234                0.00010000               -0.49541610                0.19650122               -0.75094236               -1.68840750               13.05028879                2.08059977
              13.20973201                8.17650025               37.89714533                0.00010000                0.34765880                0.31384996               -1.14100229               -0.02578153                0.07844035                0.97306905
              14.21376387                7.97368398               37.70158465                0.00010000                0.40318637                0.49863891               -1.55103649                0.00779943               -0.01178730               -0.57802723
               4.49084714               11.22994217               38.04904990                0.00010000                0.10714218                0.03262443               -0.21457547                0.02083634                0.39261410                0.61955595
               5.49191856               11.01145160               37.86486651                0.00010000                0.14646383                0.13002720               -0.48794267                0.03974427                0.79859511               -0.52283194
               6.49377641               10.79238627               37.68865310                0.00010000                0.02062813                0.22079545               -0.77017802               -0.13159515               13.72451808               -0.97008688
               7.49233112               10.56938298               37.76277647                0.00010000               -0.31409728                0.56250681               -0.86639918               -0.18839300               26.08299093               -0.18335525
               8.48749447               10.33991610               37.82638360                0.00010000               -0.66866879                0.72012768               -0.99148315               -0.32442544               25.86297406                0.09753104
               9.47895774               10.10709224               37.89018414                0.00010000               -1.09533807                0.90835354               -1.14263002               -0.47571366               26.47976206                0.32026008
              10.46558770                9.87084881               37.96063078                0.00010000               -1.75874329                1.11704456               -1.30893271               -0.82680266               27.93840639                0.60912788
              11.44378288                9.63119547               38.04812722                0.00010000               -2.80587494                1.44107365               -1.63700408               -2.01013167               28.19377618                1.50081708
              12.40947021                9.38236108               38.11793324                0.00010000               -1.60531921                0.25465887               -0.84344763               -2.29881145               14.55311835                0.96660564
              13.41167649                9.17990022               37.93089914                0.00010000                0.31700608                0.33999681               -1.19647535                0.00655428                1.14851418                0.65956089
              14.41581033                8.97860319               37.73218746                0.00010000                0.41338337                0.49192154               -1.62010170                0.07494326                0.58841421               -0.57067529
               2.34486726                1.31290600               39.55546767                1.00000000               -0.35349770               -0.38452262                1.32554816               -0.06190930               -1.03809543                1.03017454
               3.34133228                1.07178980               39.43617125                1.00000000               -0.30615160               -0.29018933                1.03903255               -0.03741824               -1.37489546                0.15238425
               4.33874422                0.83020237               39.31023625                1.00000000               -0.20592864               -0.19854651                0.72957224               -0.04357004               -1.36375372               -0.20732770
               5.33721371                0.58812699               39.19113558                1.00000000               -0.02315332               -0.12487989                0.43039799               -0.13368708               -0.62126997               -0.93537558
               6.33828116                0.34375914               39.07992432                0.00010000                0.19880037               -0.12650392                0.04758058               -0.05531161               -0.19289626                0.27513886
               7.34118971                0.09813213               38.96949857                0.00010000                0.31252703                0.00780199               -0.23335774               -0.08449719               -0.22846485                0.14862844
               8.34453170               -0.14597274               38.85646434                0.00010000                0.36573833                0.08474308               -0.45144601               -0.05216928               -0.31236416               -0.07109517
               9.34850448               -0.38848316               38.74286752                0.00010000                0.37216140                0.15199776               -0.61078997               -0.07305730               -0.57093755                0.11299801
              10.35197493               -0.62948775               38.62319245                1.00000000                0.33483980                0.23584374               -0.81104708               -0.06817929               -0.97808591                0.64417939
              11.35520128               -0.86974209               38.50073691                1.00000000                0.34591847                0.32563402               -1.05740087               -0.04128574               -1.01782313                0.02896208
              12.35889330               -1.11011626               38.38001483                1.00000000                0.36920190                0.42095459               -1.33549520               -0.01827181               -0.92407005               -0.89882611
               2.58536436                2.30906077               39.50339159                1.00000000               -0.30544538               -0.37460205                1.17472130               -0.01300962               -0.18599537                1.40294505
               3.58230991                2.06888790               39.38398157                1.00000000               -0.26122174               -0.26926237                0.89132306                0.01117324               -0.26132225                0.21910255
               4.58013993                1.82821691               39.26312812                1.00000000               -0.16057287               -0.17136744                0.58295335               -0.00987341               -0.16869358               -0.45256496
               5.57909845                1.58687819               39.14547206                1.00000000                0.12927715               -0.09252174                0.27685924               -0.16704413                1.42133057               -1.27889286
               6.58272547                1.34249410               39.05609817                0.00010000                0.30561148               -0.09419631               -0.07394311               -0.03977683                2.40115812                0.87243082
               7.58521068                1.09821015               38.95515214                0.00010000                0.22960894                0.04529723               -0.33993562               -0.04955354                1.73013306                0.43645213
               8.58731765                0.85487469               38.85054840                0.00010000                0.21603652                0.13863546               -0.54344291               -0.02927806                1.75259848               -0.27228701
               9.58953141                0.61303682               38.74900427                1.00000000                0.23024737                0.20339626               -0.69424806               -0.05089223                1.78627837                0.48888812
              10.59192260                0.37287069               38.64446673                1.00000000                0.27856320                0.26091479               -0.90508109               -0.04087093                0.92349023                0.86428081
              11.59510268                0.13351425               38.52549010                1.00000000                0.35810763                0.33885717               -1.17513060                0.00272110                0.12753914                0.18321656
              12.59908475               -0.10590671               38.40502603                1.00000000                0.39820743                0.44206678               -1.45313227                0.02737931                0.05231203               -1.04915219
               2.82495280                3.30541395               39.45893244                1.00000000               -0.25531902               -0.35882457                1.03720142               -0.00751482                0.03738604                1.77307475
               3.82239961                3.06640455               39.33317855                1.00000000               -0.21981637               -0.22990831                0.75371206                0.01041580                0.21787398                0.22056736
               4.82055647                2.82677502               39.21107065                1.00000000               -0.14019886               -0.10548914                0.46867869               -0.03107574                0.59658816               -1.17627681
               5.81959563                2.58627655               39.09279815                1.00000000                0.27985957               -0.04704699                0.14319711               -0.23145757                4.28778581               -1.88938728
               6.82615366                2.34187521               39.04432261                0.00010000                0.41112109               -0.12956934               -0.27834463               -0.63412223                5.64421384               -1.01417538
               7.82781805                2.09903807               38.94643266                0.00010000                0.14829035               -0.05158091               -0.47403722               -0.62583357                2.86192626                0.01402787
               8.82911947                1.85679997               38.84048268                0.00010000                0.08362930               -0.00141426               -0.65279305               -0.57998576                3.89746217                0.81914303
               9.82949064                1.61558477               38.76263217                0.00010000                0.07803024                0.01728080               -0.78845931               -0.41462476                4.56448137                1.34463052
              10.83068007                1.37573055               38.67009489                1.00000000                0.22712326                0.25922596               -1.01495899               -0.17663623                2.59945797                1.78319068
              11.83403310                1.13703506               38.55326932                1.00000000                0.38013711                0.35128619               -1.29179031               -0.04716759                0.90532452                0.82860178
              12.83828282                0.89872508               38.42700478                1.00000000                0.42497123                0.48584741               -1.55606580                0.01718578                0.42590368               -0.99103372
               3.06323288                4.30188428               39.41441918                1.00000000               -0.20757214               -0.34190613                0.89872887               -0.01612017                0.12558753                1.63089026
               4.06115716                4.06428974               39.28104383                1.00000000               -0.17932347               -0.18588395                0.61658230               -0.00003300                0.21207337                0.02619985
               5.05964641                3.82610712               39.14941264                1.00000000               -0.08940236               -0.03864591                0.35082844               -0.09591125                1.14804289               -1.64355388
               6.05936911                3.58593725               39.03469216                0.00010000               -0.11824515                0.02445366                0.05221071               -0.44709308                5.17310194               -2.55274016
               7.05728151                3.33990271               38.98337023                0.00010000               -0.07999282               -0.07165512               -0.27458600               -1.15387982                8.05060906               -2.44022910
               8.05776925                3.09717853               38.92362588                0.00010000                0.09448684               -0.13637054               -0.55470982               -1.18945481                7.39268519               -0.31502230
               9.05917124                2.85484641               38.85611869                0.00010000                0.22695423               -0.17946836               -0.80114438               -1.19715445                6.97982932                1.78397558
              10.06230834                2.61338244               38.78577262                0.00010000                0.38841698               -0.20661029               -1.04648675               -0.76141792                6.65166824                2.21234939
              11.06693958                2.37805521               38.70979475                0.00010000                0.44282296               -0.15483715               -1.14424462               -0.32923229                4.29279398                3.22159548
              12.07116480                2.14053998               38.59095818                1.00000000                0.45544220                0.25391516               -1.45380465               -0.16420453                1.20957910                1.91895450
              13.07604843                1.90381024               38.45333656                1.00000000                0.48836292                0.54639128               -1.68219375               -0.06150874                0.25600747               -0.18380838
               3.29981948                5.29857583               39.36728039                1.00000000               -0.16433754               -0.30988863                0.74838888               -0.03178383                0.21080970                1.33506555
               4.29817610                5.06268687               39.22635212                1.00000000               -0.14143723               -0.12379250                0.46785669               -0.02787289                0.33076690               -0.33542421
               5.29699073                4.82600210               39.08782152                0.00010000               -0.06589617                0.03867187                0.20263816               -0.15967174                1.41182153               -1.83675043
               6.29685818                4.58676563               38.96845712                0.00010000               -0.25779746                0.12978891               -0.07173781               -0.69174876                7.09276763               -2.49728371
               7.29183478                4.34044211               38.94343832                0.00010000               -0.38864580                0.10648796               -0.33360954               -1.17892721               11.41616461               -0.82099486
               8.28908526                4.09631066               38.90818397                0.00010000               -0.14311536               -0.00990523               -0.63378604               -1.26583445               10.63398279                0.38810084
               9.28897248                3.85321060               38.86501574                0.00010000                0.09841071               -0.10273136               -0.94154587               -1.30433461               10.11051786                1.64251435
              10.29105348                3.61145256               38.81654083                0.00010000                0.39827042               -0.18494178               -1.27199899               -1.17217139                9.80673495                2.81677267
              11.29693788                3.37263381               38.76450549                0.00010000                0.69702554               -0.52111391               -1.74709304               -0.51017141                6.18240203                4.08056666
              12.30499399                3.14211336               38.64064917                0.00010000                0.67871201                0.09174040               -1.52087179                0.00122808                1.38451490                2.81217569
              13.31051212                2.90965290               38.49186349                1.00000000                0.55181374                0.59354098               -1.72890943               -0.07686674                0.14010149                0.71686008
               3.53437513                6.29568651               39.31701480                1.00000000               -0.12016998               -0.25796680                0.58711163               -0.03581728                0.12303905                1.04634078
               4.53317343                6.06181389               39.16693677                0.00010000               -0.10004543               -0.05434729                0.29125396               -0.04442730                0.38522554               -0.67873631
               5.53237422                5.82688056               39.02208797                0.00010000               -0.10396492                0.13739687                0.02364372               -0.22705885                2.33955953               -2.27132549
               6.53109413                5.58853303               38.91104322                0.00010000               -0.41081464                0.10899877               -0.06736288               -1.04343319                9.76934852               -0.22440138
               7.52415792                5.34203247               38.91455874                0.00010000               -0.57050279                0.18322335               -0.37296891               -1.46800831               14.70431921                0.20410929
               8.51968407                5.09698043               38.89969360                0.00010000               -0.31076356                0.11530257               -0.71579179               -1.47469786               13.58081444                1.01485250
               9.51794265                4.85279178               38.87810956                0.00010000               -0.01211826                0.00087359               -1.05769916               -1.51420688               13.17331686                2.05029121
              10.51944171                4.60968360               38.85226381                0.00010000                0.40663504               -0.15363510               -1.46418939               -1.49198996               12.89485054                3.26730866
              11.52607535                4.36763293               38.82192179                0.00010000                0.73642779               -0.45188442               -2.06619864               -0.63988881                8.14082187                4.66434224
              12.53417026                4.14237479               38.69702414                0.00010000                0.66783264                0.04540293               -1.41913728                0.06617176                1.77989851                2.92018126
              13.53943201                3.91568106               38.53740647                0.00010000                0.52617441                0.58396153               -1.63399599               -0.04502970                0.06872169                0.88533328
               3.76684837                7.29341650               39.26425030                0.00010000               -0.07548691               -0.19201306                0.41937616               -0.03072302                0.04473464                0.86057693
               4.76609350                7.06159992               39.10524990                0.00010000               -0.05589772                0.00143715                0.12318760               -0.03665055                0.30622461               -0.80930267
               5.76573041                6.82875004               38.95143814                0.00010000               -0.26279486                0.21106773               -0.16426183               -0.38576554                5.20615359               -2.61447011
               6.76083760                6.58894560               38.89036188                0.00010000               -0.58515981                0.07658813                0.09291164               -1.25357181               13.16547941                1.48278873
               7.75402722                6.34410658               38.89497481                0.00010000               -0.60028022                0.24352302               -0.44748087               -1.54954170               16.45327388                0.88744598
               8.74883200                6.09861672               38.89676542                0.00010000               -0.40210260                0.21500954               -0.79794617               -1.66547708               16.29884960                1.42960379
               9.74598517                5.85322808               38.89538000                0.00010000               -0.12297364                0.08224012               -1.13742850               -1.76045834               16.22003716                2.36262718
              10.74637253                5.60837986               38.89251041                0.00010000                0.27318779               -0.09880488               -1.52630072               -1.88238925               16.28306876                3.61601185
              11.75144892                5.36359612               38.88888940                0.00010000                0.59483871               -0.32702098               -2.07454164               -0.92738954                9.76639661                5.36275626
              12.75826930                5.14302142               38.75053056                0.00010000                0.57750348                0.09929445               -1.30143655                0.07322281                1.59336844                2.50760794
              13.76299899                4.92133213               38.58091216                0.00010000                0.47296919                0.55313466               -1.54438441               -0.02620820                0.05871685                0.52716709
               3.99739381                8.29184624               39.21038021                0.00010000               -0.02869407               -0.12280296                0.25319974               -0.02798544                0.01323369                0.79186295
               4.99710687                8.06184263               39.04305969                0.00010000               -0.00402905                0.04359780               -0.04066815               -0.01773532                0.14997488               -0.82053247
               5.99731323                7.83110192               38.87840700                0.00010000               -0.32203568                0.23570650               -0.34225963               -0.50960501                7.99970142               -2.70967721
               6.99066616                7.59006479               38.86799110                0.00010000               -0.69086254                0.24843648               -0.23834395               -1.19351862               16.92815164                0.67851895
               7.98349598                7.34690293               38.87968507                0.00010000               -0.67065610                0.36798575               -0.57288561               -1.45474866               18.43830124                0.97612379
               8.97725303                7.10128062               38.89643981                0.00010000               -0.52628174                0.35827284               -0.89273612               -1.75257897               18.93359202                1.51695440
               9.97297034                6.85443658               38.91463631                0.00010000               -0.29135772                0.19532787               -1.18124875               -2.01443318               19.31165294                2.41255357
              10.97142588                6.60770750               38.93531233                0.00010000               -0.00421700               -0.03451924               -1.45871109               -2.25785989               19.91087089                3.64158516
              11.97288600                6.36109251               38.96137920                0.00010000                0.32364126               -0.13996835               -1.74203953               -1.22646281               11.09763220                5.35519679
              12.97789870                6.14436068               38.79991423                0.00010000                0.47002058                0.17588548               -1.23768184                0.06145068                0.91990733                2.05564177
              13.98228641                5.92674375               38.62034688                0.00010000                0.43877102                0.53824213               -1.52552093               -0.00766008                0.04392790                0.08017055
               4.22629589                9.29096044               39.15631761                0.00010000                0.01872325               -0.05571935                0.08842450               -0.02593388               -0.00074009                0.79611675
               5.22648312                9.06247188               38.98097236                0.00010000                0.05101321                0.08167767               -0.20264243               -0.00469551               -0.01005474               -0.78678277
               6.22731615                8.83346417               38.80534630                0.00010000               -0.26584547                0.22949398               -0.50890083               -0.49805732               10.05479158               -2.46308450
               7.22116621                8.59391433               38.83115831                0.00010000               -0.67998678                0.45649233               -0.53963077               -1.03397288               20.52907496               -0.19532741
               8.21371642                8.35146629               38.86185084                0.00010000               -0.74597212                0.53924061               -0.75743000               -1.26772980               21.10341052                0.64700621
               9.20624677                8.10578217               38.89510702                0.00010000               -0.72233997                0.56844969               -1.00610902               -1.65101367               21.67007714                1.25024858
              10.19926962                7.85713463               38.93265751                0.00010000               -0.58436860                0.47670123               -1.24236536               -2.14654534               22.40088702                2.07067239
              11.19455940                7.60768947               38.97587137                0.00010000               -0.45015629                0.14316346               -1.34628054               -2.64659348               23.43559520                3.27825032
              12.19026649                7.36079675               39.02930288                0.00010000               -0.03561601                0.06269606               -1.21955501               -1.51701925               12.34615618                4.36433971
              13.19384708                7.14653913               38.84494213                0.00010000                0.39065748                0.26067348               -1.22011526                0.01678042                0.25236527                1.60675073
              14.19807964                6.93209698               38.65537221                0.00010000                0.42325647                0.52990876               -1.56405508                0.00321156                0.02113499               -0.37430085
               4.45385224               10.29073186               39.10256575                0.00010000                0.06569777                0.00710212               -0.07711368               -0.02514187               -0.01653626                0.71233789
               5.45450922               10.06347618               38.91927493                0.00010000                0.10286927                0.11971500               -0.36039629               -0.00345337                0.03052707               -0.64509797
               6.45590963                9.83569180               38.73680052                0.00010000               -0.12623233                0.22801859               -0.65981473               -0.40864869               11.91988914               -1.59568066
               7.45198458                9.59919464               38.79111081                0.00010000               -0.48180447                0.49883210               -0.76202041               -0.67046662               23.71788168               -0.24459980
               8.44627354                9.35768775               38.84011084                0.00010000               -0.67100779                0.63854769               -0.93905012               -0.81275451               23.75346460                0.28601759
               9.43856442                9.11264961               38.88959879                0.00010000               -0.90707037                0.77067850               -1.14146926               -1.07857687               24.35094606                0.70077652
              10.42813213                8.86397061               38.94493923                0.00010000               -1.18662650                0.87626176               -1.34864049               -1.66617022               25.48806647                1.22501581
              11.41483189                8.61057077               39.01124680                0.00010000               -1.22180855                0.86022231               -1.56313286               -2.34192554               26.58273146                2.20512861
              12.40369596                8.36234643               39.08238858                0.00010000               -0.39489013                0.22164639               -0.87482864               -1.77099487               13.59110052                2.31843255
              13.40693409                8.14957414               38.88535327                0.00010000                0.37694941                0.33311728               -1.22558387               -0.02911574                0.08630947                1.03530459
              14.41123495                7.93734192               38.68567164                0.00010000                0.43008631                0.52158418               -1.64016818                0.00581951               -0.01620785               -0.61030753
               4.68030440               11.29110248               39.04680350                0.00010000                0.11497158                0.03706220               -0.23460860                0.02158554                0.38847572                0.61597266
               5.68145412               11.06486618               38.85984015                0.00010000                0.15601628                0.13899970               -0.51879503                0.04059250                0.79076248               -0.52242920
               6.68342472               10.83802454               38.68076309                0.00010000                0.21534067                0.23327485               -0.81163321               -0.29725086               13.79923561               -0.95658275
               7.68576093               10.60389097               38.75373246                0.00010000                0.02908138                0.46963365               -0.94612457               -0.31172957               26.25015131               -0.20649641
               8.68400635               10.36423725               38.81589492                0.00010000               -0.36842791                0.65495014               -1.11000612               -0.36148042               26.02420701                0.09433365
               9.67839237               10.12119574               38.87798068                0.00010000               -0.79906493                0.85461305               -1.30215524               -0.49607396               26.65044905                0.33736789
              10.66802505                9.87465987               38.94654880                0.00010000               -1.45236553                1.06892606               -1.50536949               -0.82579905               28.05661865                0.63561656
              11.64934506                9.62489392               39.03026757                0.00010000               -2.60909164                1.43231493               -1.86922738               -2.02019250               28.90065246                1.35956881
              12.61584322                9.36522968               39.10900562                0.00010000               -1.55378937                0.28832454               -0.96176786               -2.36989643               15.28653802                1.03760487
              13.61826927                9.15320147               38.91858261                0.00010000                0.34086259                0.36273300               -1.27548355               -0.00153252                1.21989731                0.70217686
              14.62266047                8.94252866               38.71555333                0.00010000                0.43912006                0.51867359               -1.71663719                0.07527076                0.61833292               -0.60094631
               2.45508925                1.37610952               40.56885574                1.00000000               -0.35947678               -0.39409797                1.35791043               -0.06545943               -1.06354206                1.04560659
               3.45149448                1.12628149               40.44660625                1.00000000               -0.30865386               -0.29338148                1.05044999               -0.03991732               -1.41485503                0.16084705
               4.44891617                0.87596719               40.31747676                1.00000000               -0.20212953               -0.19639566                0.71783057               -0.04519150               -1.41171657               -0.20753630
               5.44745189                0.62511563               40.19528681                1.00000000               -0.02298917               -0.11749590                0.39461461               -0.18040773               -0.71289927               -0.95296466
               6.44845639                0.37091061               40.08002672                0.00010000                0.22545647               -0.12917172               -0.03519108               -0.05321510               -0.28270928                0.26770089
               7.45196102                0.11443464               39.96669296                0.00010000                0.38368356                0.01664647               -0.33902251               -0.09125043               -0.21660086                0.13317662
               8.45613006               -0.14036461               39.85151670                0.00010000                0.44876969                0.09313943               -0.55034588               -0.05345080               -0.21041819               -0.08689373
               9.46093642               -0.39307037               39.73649921                0.00010000                0.43389261                0.15414403               -0.67046577               -0.07780705               -0.43471633                0.10997381
              10.46480791               -0.64379857               39.61493968                1.00000000                0.36177229                0.23846362               -0.84292430               -0.07002474               -0.88237830                0.65192600
              11.46817186               -0.89356378               39.49005838                1.00000000                0.35669586                0.32839776               -1.08012453               -0.04094225               -0.96421908                0.03739974
              12.47194183               -1.14334227               39.36657232                1.00000000                0.37699695                0.42196195               -1.35418018               -0.02181531               -0.88639813               -0.86223929
               2.70426269                2.37216854               40.51524772                1.00000000               -0.30962117               -0.38395479                1.20181097               -0.01343400               -0.19926992                1.42195393
               3.70116648                2.12334768               40.39291597                1.00000000               -0.26077501               -0.27171105                0.89760890                0.01104382               -0.28994086                0.23114031
               4.69904719                1.87400323               40.26887562                1.00000000               -0.14951857               -0.16826452                0.56532950               -0.01167090               -0.20831286               -0.43562249
               5.69817611                1.62394067               40.14807274                1.00000000                0.21087725               -0.08285122                0.24153910               -0.22936686                1.35964403               -1.28188412
               6.70326473                1.36961889               40.05504685                0.00010000                0.42550093               -0.11085797               -0.14453911               -0.03155451                2.36214916                0.82547088
               7.70668612                1.11460111               39.95137630                0.00010000                0.30416623                0.05164929               -0.42706417               -0.06126132                1.77817402                0.41004676
               8.70934806                0.86056679               39.84479603                0.00010000                0.25945998                0.15237786               -0.61983055               -0.04122878                1.87592971               -0.29604873
               9.71187532                0.60847107               39.74193672                1.00000000                0.25031565                0.20848258               -0.72625006               -0.06086289                1.90914322                0.48019440
              10.71435437                0.35858607               39.63540124                1.00000000                0.28294840                0.26055719               -0.90644809               -0.04338338                0.97699025                0.86399258
              11.71753429                0.10972020               39.51374400                1.00000000                0.35738999                0.33851915               -1.17177231                0.00317580                0.14151548                0.19191901
              12.72150217               -0.13912265               39.39051497                1.00000000                0.39678791                0.43780268               -1.44606530                0.02357665                0.06066431               -1.00495889
               2.95246231                3.36843043               40.46939589                1.00000000               -0.25816347               -0.36786904                1.06005687               -0.00772541                0.03093326                1.79583263
               3.94988067                3.12084727               40.34071581                1.00000000               -0.21862730               -0.23083258                0.75548181                0.00955820                0.20792983                0.23719508
               4.94808976                2.87260190               40.21565850                1.00000000               -0.13158870               -0.09849072                0.44418481               -0.03605373                0.56573932               -1.14315715
               5.94724890                2.62345861               40.09404503                1.00000000                0.45375526               -0.03351816                0.09701000               -0.32577889                4.18830041               -1.85761798
               6.95716487                2.36869345               40.04120016                0.00010000                0.62695003               -0.15075965               -0.35604919               -0.82363808                5.61009626               -0.99970459
               7.95978790                2.11546763               39.94134359                0.00010000                0.21353272               -0.04180012               -0.55921787               -0.79615291                2.96839670                0.00433204
               8.96143552                1.86268295               39.83365600                0.00010000                0.09559878                0.02228614               -0.73139434               -0.71999991                4.04955343                0.77293056
               9.96169987                1.61109928               39.75470252                0.00010000                0.06277994                0.03271460               -0.80773405               -0.49105079                4.67959367                1.24108764
              10.96269112                1.36141258               39.66004685                1.00000000                0.21221134                0.24774116               -0.98812097               -0.18896858                2.62004930                1.76448920
              11.96594410                1.11320661               39.54046920                1.00000000                0.37039741                0.34512366               -1.26196211               -0.04381289                0.89652886                0.81278689
              12.97009907                0.86541378               39.41159024                1.00000000                0.41549665                0.46998488               -1.52012385                0.01430074                0.42002145               -0.95307583
               3.19927450                4.36481116               40.42347955                1.00000000               -0.20883256               -0.35078890                0.91715350               -0.01655112                0.12664240                1.64526650
               4.19718617                4.11873102               40.28719531                1.00000000               -0.17798595               -0.18473067                0.61397311               -0.00072095                0.21997995                0.03716487
               5.19571478                3.87203342               40.15282205                1.00000000               -0.08085963               -0.02798949                0.32890245               -0.10296978                1.14762532               -1.62695410
               6.19556898                3.62327031               40.03500216                0.00010000               -0.04659134                0.04221557                0.00449775               -0.56114704                5.14599466               -2.51548669
               7.19478295                3.36660370               39.98031643                0.00010000                0.06022926               -0.06709031               -0.34411245               -1.45282383                8.04015865               -2.33373085
               8.19677356                3.11376510               39.91771724                0.00010000                0.22667265               -0.13137546               -0.63625363               -1.46315275                7.42501269               -0.27660562
               9.19931640                2.86101251               39.84777204                0.00010000                0.32755579               -0.16913359               -0.87520514               -1.43634609                7.02922403                1.74689351
              10.20332468                2.60912536               39.77508685                0.00010000                0.45756371               -0.20396756               -1.09119385               -0.92173323                6.77753229                2.05849707
              11.20846768                2.36354089               39.69860015                1.00000000                0.46660754               -0.17072648               -1.08771965               -0.36893150                4.34678900                2.90615763
              12.21265683                2.11662267               39.57667230                1.00000000                0.44530766                0.22602806               -1.39533094               -0.15176777                1.17108655                1.91813888
              13.21737383                1.87027705               39.43678614                1.00000000                0.47170009                0.50080605               -1.61890900               -0.05485546                0.25382171               -0.12247563
               3.44429156                5.36141465               40.37481734                1.00000000               -0.16475631               -0.31829692                0.76184531               -0.03308161                0.21879375                1.33679432
               4.44264400                5.11715266               40.23099982                1.00000000               -0.14002403               -0.11918013                0.46168577               -0.03106627                0.34596741               -0.34501373
               5.44149108                4.87204211               40.08974412                0.00010000               -0.05941602                0.05468441                0.17772038               -0.17011529                1.43058973               -1.85329085
               6.44145568                4.62430292               39.96753051                0.00010000               -0.19387436                0.13956746               -0.11940212               -0.81349258                7.11977791               -2.40571387
               7.43761359                4.36735164               39.93980713                0.00010000               -0.26698238                0.12211238               -0.39784485               -1.39382044               11.43211902               -0.72481020
               8.43611603                4.11284012               39.90145787                0.00010000               -0.01326278               -0.00970188               -0.71639425               -1.48043757               10.62689330                0.44223734
               9.43734834                3.85930028               39.85515521                0.00010000                0.23103973               -0.10991988               -1.03061666               -1.51424730               10.08407024                1.63583498
              10.44073682                3.60701993               39.80336377                0.00010000                0.52334212               -0.20378650               -1.35197098               -1.33841180                9.67621478                2.70868351
              11.44781518                3.35799805               39.74654622                0.00010000                0.77178845               -0.53430489               -1.82016957               -0.57685758                6.31532360                3.66822095
              12.45617259                3.11772717               39.62573743                0.00010000                0.69390159                0.02450899               -1.44839782                0.00049232                1.63370026                2.91268168
              13.46169321                2.87542990               39.47495183                1.00000000                0.55206185                0.50807978               -1.64293873               -0.06308093                0.13427325                0.85559062
               3.68713685                6.35844522               40.32291878                1.00000000               -0.11994636               -0.26498666                0.59573056               -0.03654171                0.11838185                1.03786939
               4.68593739                6.11634742               40.16978933                0.00010000               -0.09873201               -0.04671688                0.27949402               -0.04711463                0.39374904               -0.69705154
               5.68516221                5.87312711               40.02216615                0.00010000               -0.09738969                0.15853887               -0.00912904               -0.25387119                2.46128417               -2.30473221
               6.68398959                5.62606166               39.91031630                0.00010000               -0.33964347                0.08683597               -0.08125426               -1.16385761                9.86355600                0.00871774
               7.67836934                5.36904594               39.91052814                0.00010000               -0.43867091                0.19250246               -0.43862620               -1.66077164               14.67041736                0.29701680
               8.67521618                5.11357107               39.89208990                0.00010000               -0.17588488                0.12427461               -0.80714585               -1.66083329               13.53487204                1.07673583
               9.67485164                4.85881411               39.86695230                0.00010000                0.13212486                0.00229064               -1.17037262               -1.70549626               13.08470723                2.08297072
              10.67785867                4.60504963               39.83684543                0.00010000                0.56858243               -0.16447876               -1.60379922               -1.64599823               12.64653837                3.24916768
              11.68622329                4.35285480               39.80015787                0.00010000                0.86880749               -0.48411111               -2.23708208               -0.72483678                8.42645329                4.58659253
              12.69523482                4.11711285               39.68286747                0.00010000                0.72417230               -0.03221943               -1.39031473                0.03803386                2.25180251                3.09204389
              13.70070674                3.88043864               39.52124830                0.00010000                0.54719161                0.49707288               -1.58289841               -0.03493899                0.05469111                1.03611489
               3.92775633                7.35611492               40.26845090                0.00010000               -0.07365084               -0.19716863                0.42259987               -0.03130861                0.04202195                0.84842817
               4.92701982                7.11621832               40.10641022                0.00010000               -0.05284559                0.01036448                0.10799843               -0.03950970                0.30752531               -0.81962663
               5.92669942                6.87521288               39.94964975                0.00010000               -0.23800688                0.23543353               -0.19700582               -0.45183788                5.48816457               -2.64020643
               6.92225969                6.62603964               39.89114540                0.00010000               -0.49053344                0.06003807                0.05526628               -1.35565010               13.32347999                1.53072427
               7.91688875                6.37120169               39.89014261                0.00010000               -0.45642453                0.25086329               -0.52479451               -1.69350751               16.30639288                0.94282247
               8.91313120                6.11532561               39.88825792                0.00010000               -0.25644537                0.22807842               -0.90405186               -1.82108046               16.24936542                1.49381994
               9.91175984                5.85934609               39.88327751                0.00010000                0.03224896                0.09806236               -1.27963212               -1.91680670               16.13029931                2.44163884
              10.91377618                5.60373036               39.87618290                0.00010000                0.47476907               -0.08936744               -1.72877162               -2.02029128               16.03710766                3.74176795
              11.92125523                5.34831583               39.86632673                0.00010000                0.77866252               -0.38060850               -2.40750011               -1.00102036               10.15174234                5.64416542
              12.92934943                5.11708278               39.73731783                0.00010000                0.65438142                0.05081238               -1.32535041                0.04204133                2.16701035                2.66151900
              13.93434285                4.88537136               39.56542605                0.00010000                0.49934288                0.50112910               -1.54519909               -0.02134052                0.04803025                0.60425963
               4.16630387                8.35450185               40.21289618                0.00010000               -0.02546494               -0.12593196                0.25140594               -0.02863666                0.01197612                0.78046149
               5.16604922                8.11655471               40.04256096                0.00010000                0.00001306                0.05313681               -0.06024459               -0.01868538                0.14477876               -0.82691372
               6.16630414                7.87783578               39.87481984                0.00010000               -0.25807190                0.26146071               -0.37859424               -0.58855182                8.18440240               -2.72193415
               7.16088779                7.62726242               39.86517003                0.00010000               -0.55454586                0.25957949               -0.32543022               -1.31549618               17.11319741                0.51910334
               8.15521322                7.37406321               39.87352281                0.00010000               -0.51188104                0.36964580               -0.66310469               -1.58300891               18.42104594                0.98309089
               9.15065017                7.11813263               39.88689378                0.00010000               -0.35512274                0.36465096               -1.01674103               -1.86333483               18.92539615                1.57715385
              10.14811076                6.86077536               39.90196963                0.00010000               -0.10835276                0.21564355               -1.35139371               -2.10765844               19.29851904                2.52124348
              11.14848311                6.60326229               39.91948275                0.00010000                0.23698507               -0.01153401               -1.71011579               -2.36060577               19.83842196                3.88813083
              12.15285046                6.34524263               39.94186409                0.00010000                0.52685021               -0.18036777               -2.19600693               -1.27910863               11.50450853                5.97118585
              13.15902011                6.11812910               39.78719421                0.00010000                0.54261485                0.16182070               -1.30166646                0.04543778                1.39348565                2.16717207
              14.16370276                5.89046122               39.60486822                0.00010000                0.46826466                0.52241357               -1.57291422               -0.00471371                0.04092809                0.07800555
               4.40307788                9.35359628               40.15716075                0.00010000                0.02343115               -0.05625231                0.08107426               -0.02676039               -0.00170407                0.78397551
               5.40331219                9.11728105               39.97883342                0.00010000                0.05713980                0.09134372               -0.22622564               -0.00422299               -0.01844015               -0.78883449
               6.40422068                8.88044210               39.80007708                0.00010000               -0.17949315                0.25060708               -0.54860147               -0.58670021               10.17344737               -2.45825608
               7.39972233                8.63123123               39.82542303                0.00010000               -0.49311593                0.45146720               -0.61174850               -1.18540031               20.70153826               -0.28543227
               8.39435836                8.37859461               39.85374980                0.00010000               -0.52849895                0.51639445               -0.86403933               -1.38255775               21.17571354                0.63325468
               9.38915235                8.12261863               39.88434455                0.00010000               -0.49406666                0.55089694               -1.14684679               -1.71070210               21.73409927                1.30151948
              10.38447702                7.86365896               39.91931528                0.00010000               -0.35277789                0.47560157               -1.42669259               -2.16045247               22.52235053                2.17352885
              11.38209679                7.60349968               39.96120498                0.00010000               -0.18353932                0.16144108               -1.60307476               -2.67939985               23.71550001                3.43873796
              12.38080624                7.34470847               40.01562882                0.00010000                0.14713959                0.06188902               -1.57991220               -1.57523547               12.76140956                5.03239057
              13.38503958                7.12031919               39.83230392                0.00010000                0.43890477                0.27183787               -1.31180331                0.01330906                0.47193282                1.69447107
              14.38958433                6.89581963               39.63935619                0.00010000                0.45447497                0.54177403               -1.64921507                0.00505396                0.02471482               -0.42448318
               4.63839911               10.35337681               40.10172457                0.00010000                0.07198317                0.00949330               -0.08995248               -0.02624854               -0.01441289                0.70286788
               5.63911894               10.11838159               39.91553554                0.00010000                0.11104243                0.12957674               -0.38912043               -0.00334345                0.02492704               -0.64430718
               6.64061996                9.88284792               39.73000505                0.00010000               -0.00458344                0.24436843               -0.70360545               -0.52208456               12.00072227               -1.58111943
               7.63902727                9.63629176               39.78310977                0.00010000               -0.22226496                0.43892619               -0.84117484               -0.79884166               23.87090280               -0.28208218
               8.63617466                9.38439110               39.83015146                0.00010000               -0.38277527                0.58200026               -1.05413033               -0.88845800               23.87133189                0.28101373
               9.63137177                9.12915057               39.87741543                0.00010000               -0.60769967                0.72285945               -1.29626339               -1.09716061               24.46807911                0.73363820
              10.62402067                8.87028739               39.93050773                0.00010000               -0.87630821                0.83415186               -1.53766265               -1.63516504               25.62336007                1.29190069
              11.61384560                8.60649111               39.99469149                0.00010000               -0.97472132                0.84228172               -1.73149197               -2.32823319               27.19356784                2.17401398
              12.60452624                8.34648041               40.07290577                0.00010000               -0.28352344                0.25853203               -1.05915265               -1.84227830               14.17679306                2.65960669
              13.60817514                8.12356586               39.87263366                0.00010000                0.41383596                0.35829353               -1.32871914               -0.03482824                0.12290486                1.10183242
              14.61280296                7.90129670               39.66878129                0.00010000                0.46278241                0.55006276               -1.75130162                0.00564517               -0.01937261               -0.66943461
               4.87254335               11.35378614               40.04435772                0.00010000                0.12308612                0.04093376               -0.25393163                0.02306857                0.38279195                0.60996585
               5.87377421               11.11987259               39.85449061                0.00010000                0.16627290                0.14910041               -0.55331679                0.04269311                0.78108636               -0.52080653
               6.87586881               10.88532947               39.67242044                0.00010000                0.42140519                0.24815503               -0.86118848               -0.46825709               13.85956770               -0.94034239
               7.88220231               10.64000975               39.74385398                0.00010000                0.39307898                0.37179876               -1.03174134               -0.43723871               26.38993847               -0.22952756
               8.88373039               10.39023461               39.80418347                0.00010000               -0.04447343                0.58435125               -1.23313291               -0.39112384               26.15074992                0.08990770
               9.88131285               10.13707582               39.86414104                0.00010000               -0.46485987                0.79252453               -1.46648304               -0.50052282               26.77824740                0.35241634
              10.87443319                9.88034200               39.93052339                0.00010000               -1.09868670                1.00546083               -1.70009507               -0.79527300               28.14980846                0.66844243
              11.85933911                9.62034531               40.01074267                0.00010000               -2.37736342                1.38542041               -1.98316726               -1.97379351               29.60151468                1.24330851
              12.82688592                9.34987911               40.09869788                0.00010000               -1.49061949                0.33987050               -1.13036482               -2.40704426               16.08157329                1.15105101
              13.82952672                9.12748506               39.90538946                0.00010000                0.36748114                0.39192047               -1.37507115               -0.01775249                1.32717146                0.75642362
              14.83423554                8.90682089               39.69785472                0.00010000                0.47088221                0.55241838               -1.83784516                0.07684107                0.65188692               -0.64837120
               2.56809541                1.44103417               41.58262588                1.00000000               -0.36812443               -0.40744681                1.40328057               -0.06998238               -1.09267518                1.06285425
               3.56441417                1.18238729               41.45718025                1.00000000               -0.31330387               -0.29861502                1.06776149               -0.04210945               -1.46056569                0.16964921
               4.56182933                0.92325392               41.32459286                1.00000000               -0.20042013               -0.19312055                0.70428142               -0.04581596               -1.46935425               -0.21015372
               5.56040576                0.66349583               41.19902788                1.00000000               -0.03042568               -0.10135510                0.34778056               -0.23761779               -0.82874013               -0.96849146
               6.56122082                0.39907289               41.07922050                0.00010000                0.24809756               -0.12428208               -0.13309081               -0.05893557               -0.40448391                0.25828674
               7.56536771                0.13142898               40.96271812                0.00010000                0.46481345                0.03314827               -0.46682369               -0.10138082               -0.21520266                0.11261052
               8.57051709               -0.13426927               40.84545743                0.00010000                0.55097325                0.10836823               -0.67501877               -0.05350926               -0.08662900               -0.11237091
               9.57638718               -0.39715870               40.72945820                1.00000000                0.51255490                0.15960899               -0.74706177               -0.08296645               -0.26123262                0.09947502
              10.58076819               -0.65737236               40.60633396                1.00000000                0.39485376                0.24157291               -0.88065849               -0.07163852               -0.76366467                0.66164709
              11.58428425               -0.91636533               40.47913442                1.00000000                0.36846414                0.33071470               -1.10565335               -0.04019818               -0.90214413                0.04619695
              12.58813747               -1.17524634               40.35293123                1.00000000                0.38532145                0.42225295               -1.37455434               -0.02623711               -0.84396086               -0.82207867
               2.82604247                2.43695970               41.52742781                1.00000000               -0.31592724               -0.39676972                1.24076676               -0.01404648               -0.21428126                1.44232436
               3.82288320                2.17940114               41.40193375                1.00000000               -0.26127828               -0.27590904                0.90827195                0.01222223               -0.32220329                0.24361472
               4.82081690                1.92132272               41.27443471                1.00000000               -0.13815469               -0.16442391                0.54769443               -0.01030765               -0.24908369               -0.42296136
               5.82012010                1.66248228               41.15030284                1.00000000                0.29239942               -0.06505306                0.20310879               -0.30392205                1.28960902               -1.29223814
               6.82666489                1.39783007               41.05320739                0.00010000                0.54524418               -0.12306745               -0.23361332               -0.04428025                2.30680628                0.76990990
               7.83102498                1.13176046               40.94661085                0.00010000                0.38054710                0.06774009               -0.54068789               -0.08266107                1.82915617                0.37166305
               8.83427583                0.86681442               40.83815179                1.00000000                0.30420380                0.17759194               -0.72582152               -0.05442770                2.03421759               -0.34162022
               9.83710906                0.60443739               40.73447927                1.00000000                0.26896420                0.22075404               -0.77509501               -0.07332804                2.07807682                0.45634597
              10.83965512                0.34504337               40.62633777                1.00000000                0.28551009                0.25968951               -0.90443757               -0.04746890                1.05113597                0.86437091
              11.84281926                0.08694182               40.50205465                1.00000000                0.35504973                0.33639103               -1.16344672                0.00344287                0.15769116                0.20105618
              12.84675611               -0.17102381               40.37610473                1.00000000                0.39368482                0.43193641               -1.43284218                0.01862181                0.07011819               -0.95579556
               3.08293161                3.43309878               41.48013358                1.00000000               -0.26360118               -0.37957746                1.09293477               -0.00837980                0.02404710                1.81924625
               4.08029560                3.17686911               41.34828819                1.00000000               -0.21947844               -0.23260556                0.76054958                0.00988635                0.19345269                0.25356833
               5.07854204                2.91996545               41.21995435                1.00000000               -0.12378129               -0.09201480                0.41384453               -0.03495885                0.52936324               -1.10884250
               6.07781997                2.66219477               41.09473835                1.00000000                0.62574979               -0.01701211                0.03741858               -0.43396895                4.08260818               -1.83279254
               7.09105703                2.39661154               41.03720162                0.00010000                0.84550890               -0.16044687               -0.45814166               -1.03531397                5.56751545               -0.99127760
               8.09473015                2.13278378               40.93524830                0.00010000                0.28472833               -0.01141650               -0.68207965               -0.97700282                3.08343994               -0.01603439
               9.09675160                1.86928257               40.82585479                0.00010000                0.09807583                0.07353292               -0.85501853               -0.87085578                4.25128928                0.70814930
              10.09669166                1.60725639               40.74647749                0.00010000                0.02813907                0.07268678               -0.85318171               -0.57696640                4.86569079                1.10733744
              11.09731438                1.34782143               40.65033247                1.00000000                0.18643137                0.23178115               -0.94819706               -0.21295498                2.66734384                1.74395082
              12.10042029                1.09036249               40.52803008                1.00000000                0.35633922                0.33463517               -1.21987243               -0.04238848                0.88573692                0.79821798
              13.10444117                0.83339239               40.39660230                1.00000000                0.40208747                0.45114711               -1.47109060                0.01004347                0.41392861               -0.90959274
               3.33833421                4.42936815               41.43276225                1.00000000               -0.21199531               -0.36131427                0.94363032               -0.01697326                0.12669841                1.65904617
               4.33621425                4.17474903               41.29332330                1.00000000               -0.17710717               -0.18382685                0.61227290               -0.00063265                0.22800163                0.04820950
               5.33479206                3.91948242               41.15599069                1.00000000               -0.07098141               -0.01866298                0.30095174               -0.10385958                1.14467399               -1.60558587
               6.33479463                3.66214204               41.03478211                0.00010000                0.02887691                0.05712208               -0.05526896               -0.67452679                5.11134486               -2.47058090
               7.33536960                3.39462113               40.97648798                0.00010000                0.20096367               -0.04386707               -0.43300839               -1.75585715                8.02946079               -2.21606004
               8.33881390                3.13153213               40.91090081                0.00010000                0.35082550               -0.10005167               -0.74063621               -1.73955787                7.47149486               -0.23425054
               9.34238611                2.86828507               40.83861459                0.00010000                0.41084877               -0.12677631               -0.96851510               -1.68223083                7.11191347                1.70756932
              10.34703087                2.60589113               40.76394874                0.00010000                0.49518983               -0.16943674               -1.14061139               -1.10554941                6.97879989                1.87320832
              11.35228991                2.34967899               40.68804036                1.00000000                0.46848307               -0.16904642               -1.01620536               -0.43501475                4.44657145                2.51609773
              12.35640054                2.09363452               40.56305157                1.00000000                0.43036418                0.19046676               -1.32056727               -0.14188850                1.12765255                1.91418221
              13.36089719                1.83799913               40.42095838                1.00000000                0.44966561                0.44550838               -1.53720419               -0.04715792                0.24746989               -0.05938983
               3.59183039                5.42587249               41.38251730                1.00000000               -0.16617183               -0.32789111                0.78151752               -0.03461976                0.22712519                1.33746591
               4.59016867                5.17319257               41.23558583                1.00000000               -0.13792781               -0.11432885                0.45487213               -0.03467655                0.36109714               -0.35390016
               5.58907184                4.91959219               41.09137592                0.00010000               -0.04889759                0.06989323                0.14343075               -0.17872443                1.44833039               -1.86827631
               6.58919072                4.66333721               40.96606907                0.00010000               -0.12610188                0.14752285               -0.17927268               -0.93246725                7.14372223               -2.28276619
               7.58654980                4.39573420               40.93548142                0.00010000               -0.14578367                0.15080995               -0.47535946               -1.60657003               11.45275543               -0.61951101
               8.58627505                4.13078275               40.89385609                0.00010000                0.10990931                0.00914812               -0.81109081               -1.69218506               10.63012430                0.50199044
               9.58874799                3.86674705               40.84440340                0.00010000                0.34558541               -0.09780917               -1.12200041               -1.72099697               10.08291114                1.62068272
              10.59318676                3.60386765               40.78950141                0.00010000                0.60613541               -0.20216532               -1.41084022               -1.50852599                9.57559027                2.56009240
              11.60087069                3.34444050               40.72810209                0.00010000                0.80378124               -0.50473604               -1.84455483               -0.67016745                6.52821193                3.14527545
              12.60926238                3.09417183               40.61168122                0.00010000                0.69490491               -0.04996283               -1.35252982               -0.02112990                1.94420344                2.97912284
              13.61476879                2.84230256               40.45900472                1.00000000                0.55064091                0.39650018               -1.53634640               -0.04357838                0.12931093                0.96645630
               3.84300165                6.42281033               41.32892942                1.00000000               -0.12006217               -0.27324207                0.60882014               -0.03779953                0.11349630                1.02862603
               4.84180103                6.17246245               41.17252665                0.00010000               -0.09643579               -0.03784036                0.26744709               -0.05267794                0.40188657               -0.71459707
               5.84107293                5.92088029               41.02190539                0.00010000               -0.08988816                0.18500189               -0.04551514               -0.28416302                2.60237065               -2.33506345
               6.84000327                5.66509250               40.90941814                0.00010000               -0.26401338                0.06845722               -0.10206879               -1.28096681                9.96721971                0.25279861
               7.83579267                5.39763733               40.90578622                0.00010000               -0.30229562                0.21170742               -0.51574568               -1.84423272               14.62486007                0.39253338
               8.83395735                5.13171509               40.88355068                0.00010000               -0.04556992                0.14532439               -0.90318146               -1.84495456               13.49533469                1.14046014
               9.83488127                4.86632889               40.85470210                0.00010000                0.26047726                0.01482348               -1.27552798               -1.89745394               13.00546449                2.10226600
              10.83916690                4.60184782               40.82018782                0.00010000                0.68505560               -0.16448770               -1.70820925               -1.79329602               12.41203930                3.17783043
              11.84858238                4.33958427               40.77718015                0.00010000                0.94744930               -0.48336454               -2.30263192               -0.83672063                8.80642276                4.37412784
              12.85811588                4.09263527               40.66921784                0.00010000                0.75908952               -0.11233824               -1.32602444               -0.02036647                2.80279420                3.19669766
              13.86376417                3.84592913               40.50574850                0.00010000                0.56482868                0.37474241               -1.50846088               -0.02189499                0.04436904                1.12247874
               4.09177016                7.42040765               41.27270230                0.00010000               -0.07250016               -0.20323552                0.42966566               -0.03208181                0.03922967                0.83581292
               5.09104516                7.17243577               41.10740987                0.00010000               -0.05058152                0.02093552                0.09085183               -0.04188355                0.30913862               -0.82855310
               6.09075853                6.92329222               40.94749802                0.00010000               -0.21154099                0.26778075               -0.23794954               -0.52050688                5.77629978               -2.66119843
               7.08681434                6.66470636               40.89146721                0.00010000               -0.38579925                0.05383643               -0.01381112               -1.45500041               13.50087544                1.55636395
               8.08304255                6.39996835               40.88447891                0.00010000               -0.30649707                0.26601144               -0.60790480               -1.83083236               16.15885120                0.99767882
               9.08068440                6.13368923               40.87868438                0.00010000               -0.11881854                0.25109898               -1.01031128               -1.97840248               16.20052994                1.55341716
              10.08066618                5.86704352               40.86978736                0.00010000                0.16905283                0.12473950               -1.41164497               -2.08204276               16.02956863                2.50045777
              11.08406546                5.60057790               40.85793498                0.00010000                0.63413305               -0.06998913               -1.90059161               -2.15686697               15.74310516                3.81164148
              12.09334884                5.33477321               40.84073940                0.00010000                0.92223666               -0.41850615               -2.64623191               -1.09852467               10.64342035                5.74878527
              13.10251019                5.09192506               40.72402355                0.00010000                0.71971589                0.00413777               -1.32321952               -0.01637053                2.88116375                2.75092026
              14.10774316                4.84979740               40.55000818                0.00010000                0.52329658                0.42222932               -1.53723625               -0.01312742                0.03961318                0.61030827
               4.33830378                8.41874562               41.21540832                0.00010000               -0.02250001               -0.12980466                0.25263949               -0.02913000                0.01056279                0.76854401
               5.33807878                8.17288116               41.04185479                0.00010000                0.00442104                0.06424223               -0.08244070               -0.01784432                0.14009569               -0.83153712
               6.33839221                7.92623590               40.87083512                0.00010000               -0.19258263                0.29108108               -0.42249318               -0.66374915                8.35671186               -2.72950909
               7.33422713                7.66616922               40.86148249                0.00010000               -0.40995315                0.27797951               -0.40840073               -1.42842128               17.28806025                0.35330654
               8.33019314                7.40295756               40.86642298                0.00010000               -0.34564972                0.37671985               -0.76012084               -1.70827642               18.40967725                0.98727313
               9.32731414                7.13673707               40.87610499                0.00010000               -0.19206953                0.38008398               -1.13845830               -1.97275071               18.90627311                1.62616328
              10.32635175                6.86882368               40.88760844                0.00010000                0.04928628                0.25117968               -1.51471818               -2.20495059               19.24967737                2.60892735
              11.32829986                6.60044804               40.90111002                0.00010000                0.44564839                0.03388025               -1.95573833               -2.45595615               19.63649115                4.09412378
              12.33526472                6.33121415               40.91745907                0.00010000                0.72322090               -0.21851661               -2.68062855               -1.33415603               12.01570983                6.54489093
              13.34276428                6.09271802               40.77388090                0.00010000                0.62461119                0.15320189               -1.35831699                0.01038716                2.07774517                2.23348079
              14.34775694                5.85437372               40.58888859                0.00010000                0.49926622                0.49484217               -1.63159813                0.00188260                0.03953090                0.01512593
               4.58291648                9.41781156               41.15793910                0.00010000                0.02815135               -0.05766894                0.07561139               -0.02718104               -0.00149413                0.77150821
               5.58319799                9.17372061               40.97644785                0.00010000                0.06395029                0.10258417               -0.25257086               -0.00246044               -0.02579358               -0.78951911
               6.58419549                8.92911385               40.79437427                0.00010000               -0.08368691                0.27450727               -0.59667556               -0.67485113               10.28627803               -2.44991722
               7.58152426                8.67026595               40.81892334                0.00010000               -0.29431582                0.44764071               -0.69269147               -1.32910030               20.86466387               -0.36578937
               8.57830917                8.40750275               40.84457006                0.00010000               -0.30804950                0.49583906               -0.97062685               -1.48868297               21.23619849                0.61380827
               9.57536327                8.14129091               40.87217009                0.00010000               -0.27264867                0.53944054               -1.28481603               -1.75900257               21.77704385                1.33839157
              10.57285620                7.87206711               40.90412366                0.00010000               -0.14037005                0.48884154               -1.60873293               -2.15319431               22.59081064                2.26035980
              11.57255587                7.60125550               40.94380988                0.00010000                0.07697693                0.20326588               -1.88466617               -2.68294422               23.88039954                3.64174552
              12.57439574                7.33040288               40.99770464                0.00010000                0.35012470                0.06276760               -2.08513376               -1.61207328               13.25628252                5.85796251
              13.57955836                7.09498910               40.81870606                0.00010000                0.50368365                0.29036154               -1.41231850                0.00218773                0.85695841                1.75832162
              14.58446941                6.85969425               40.62238791                0.00010000                0.49110490                0.55404915               -1.75990756                0.01027895                0.03120314               -0.51998373
               4.82594206               10.41759224               41.10076670                0.00010000                0.07852293                0.01119680               -0.10050880               -0.02704034               -0.01260673                0.69262870
               5.82672729               10.17493285               40.91149252                0.00010000                0.12038935                0.14096478               -0.42227439               -0.00255295                0.01973128               -0.64300973
               6.82834985                9.93172605               40.72272841                0.00010000                0.12644686                0.26365386               -0.75665403               -0.63767948               12.07483218               -1.56442454
               7.82925623                9.67512204               40.77428731                0.00010000                0.05223352                0.37730212               -0.92505967               -0.92896516               24.00903859               -0.31787003
               8.82939452                9.41287434               40.81902823                0.00010000               -0.08432508                0.52343084               -1.16865916               -0.95855146               23.96778275                0.27288185
               9.82756972                9.14752588               40.86367352                0.00010000               -0.30356188                0.67509692               -1.44830276               -1.10098498               24.55285337                0.75505170
              10.82332328                8.87860051               40.91418598                0.00010000               -0.56322573                0.79651436               -1.72577288               -1.57245660               25.74359578                1.34846314
              11.81630521                8.60451336               40.97661696                0.00010000               -0.70168126                0.82011109               -1.90397669               -2.27430064               27.75830439                2.24474198
              12.80928965                8.33246950               41.06120553                0.00010000               -0.13942706                0.31317992               -1.34284501               -1.87779750               14.78320855                3.13977691
              13.81351667                8.09852525               40.85877888                0.00010000                0.46312893                0.39146136               -1.45373404               -0.04586440                0.22023529                1.16609929
              14.81855223                7.86545470               40.65064561                0.00010000                0.50355642                0.58600668               -1.89479676                0.00786007               -0.01917927               -0.75542709
               5.06769447               11.41803549               41.04172486                0.00010000                0.13186626                0.04432506               -0.27223466                0.02568222                0.37634940                0.60245442
               6.06901313               11.17653991               40.84877381                0.00010000                0.17791179                0.16070600               -0.59302197                0.04615578                0.77126748               -0.51871154
               7.07125270               10.93438692               40.66353932                0.00010000                0.63917636                0.26608752               -0.92061301               -0.64610994               13.91248216               -0.92200826
               8.08179666               10.67781199               40.73309763                0.00010000                0.77407960                0.26899509               -1.11997438               -0.56673463               26.51319117               -0.25140050
               9.08673430               10.41797136               40.79123226                0.00010000                0.29103699                0.50970208               -1.35448879               -0.41697883               26.25162493                0.08352990
              10.08761740               10.15479285               40.84865102                0.00010000               -0.11573528                0.72669688               -1.62710264               -0.49393087               26.86715140                0.36286899
              11.08441959                9.88799740               40.91254690                0.00010000               -0.72082672                0.93968850               -1.89454346               -0.74712526               28.25823243                0.70349589
              12.07320086                9.61765772               40.99060422                0.00010000               -2.07958498                1.31443647               -2.05938511               -1.87698044               30.24503187                1.23551125
              13.04282789                9.33666648               41.08639832                0.00010000               -1.37724981                0.41969772               -1.37762308               -2.38814590               16.87839997                1.32574109
              14.04565587                9.10281833               40.89108119                0.00010000                0.39699079                0.42930763               -1.50144364               -0.04868484                1.49011963                0.81957764
              15.05076771                8.87141438               40.67879643                0.00010000                0.51118394                0.59596763               -1.99476275                0.08115266                0.68740227               -0.71090817
               2.68412701                1.50776276               42.59692135                1.00000000               -0.38108160               -0.42554284                1.46461486               -0.07571170               -1.12462562                1.08156526
               3.68031619                1.24016748               42.46796148                1.00000000               -0.32227730               -0.30554454                1.09266197               -0.04418681               -1.51227316                0.17733635
               4.67768146                0.97208040               42.33156239                1.00000000               -0.20333708               -0.18978873                0.69051983               -0.04708511               -1.53831965               -0.21187674
               5.67624945                0.70319586               42.20224242                1.00000000               -0.05024967               -0.08104256                0.29275593               -0.30427714               -0.96706706               -0.97596058
               6.67667647                0.42810255               42.07736490                0.00010000                0.25852926               -0.10665895               -0.24190058               -0.07308584               -0.55511988                0.24515152
               7.68142004                0.14890138               41.95735649                0.00010000                0.54904627                0.06028036               -0.61363037               -0.11468376               -0.22785490                0.08680832
               8.68765740               -0.12800075               41.83801632                1.00000000                0.67075962                0.13377677               -0.82689845               -0.05055929                0.05866241               -0.15059802
               9.69483523               -0.40112300               41.72155797                1.00000000                0.61005031                0.17017013               -0.84343212               -0.08705871               -0.04297729                0.07775169
              10.69985840               -0.67057323               41.59732651                1.00000000                0.43482417                0.24482172               -0.92126574               -0.07353476               -0.61645214                0.67637056
              11.70353171               -0.93848030               41.46794532                1.00000000                0.38053020                0.33259676               -1.13255169               -0.03893648               -0.83258581                0.05567461
              12.70746901               -1.20613085               41.33908123                1.00000000                0.39372927                0.42212082               -1.39640825               -0.03151620               -0.79822761               -0.77895755
               2.95096518                2.50350733               42.54006306                1.00000000               -0.32496717               -0.41409246                1.29395051               -0.01417901               -0.23121241                1.46323609
               3.94771550                2.23711203               42.41108141                1.00000000               -0.26343783               -0.28191938                0.92451089                0.01439746               -0.35568132                0.25584637
               4.94569642                1.97018252               42.27982951                1.00000000               -0.12599484               -0.16056644                0.53001950               -0.00905954               -0.28736300               -0.41590899
               5.94519561                1.70238544               42.15213491                1.00000000                0.36982162               -0.04361871                0.15496487               -0.38711122                1.20804853               -1.31341335
               6.95309285                1.42703596               42.05037458                0.00010000                0.65646211               -0.12576198               -0.34401399               -0.07762491                2.22660832                0.70346693
               7.95832485                1.14950419               41.94056255                0.00010000                0.45355707                0.09777979               -0.68606367               -0.11577269                1.88012203                0.31747589
               8.96216399                0.87333702               41.83027960                1.00000000                0.34630172                0.21919421               -0.87035356               -0.06753839                2.23525149               -0.41716977
               9.96525088                0.60057870               41.72643482                1.00000000                0.28188564                0.24497773               -0.84683126               -0.08806239                2.31298179                0.40848597
              10.96780171                0.33187498               41.61731249                1.00000000                0.28351350                0.25811192               -0.89732289               -0.05530155                1.15716656                0.86826323
              11.97092115                0.06484567               41.49047507                1.00000000                0.35013411                0.33271770               -1.14924699                0.00363353                0.17554582                0.21062413
              12.97480439               -0.20190964               41.36185812                1.00000000                0.38832339                0.42495578               -1.41379262                0.01267913                0.07995732               -0.90220736
               3.21663403                3.49948091               42.49125458                1.00000000               -0.27050709               -0.39494819                1.13734140               -0.00912270                0.01692086                1.84195757
               4.21392896                3.23452909               42.35592681                1.00000000               -0.22035817               -0.23572305                0.76862518                0.00952111                0.17603758                0.26952593
               5.21222687                2.96886908               42.22393539                1.00000000               -0.11375877               -0.08411971                0.38168083               -0.03762890                0.49130770               -1.07877927
               6.21165378                2.70232349               42.09479340                1.00000000                0.78891780                0.00712622               -0.02958560               -0.55893940                3.96975635               -1.82699204
               7.22800522                2.42558731               42.03203733                0.00010000                1.05748714               -0.15166315               -0.59147331               -1.26529483                5.50508081               -0.98315320
               8.23280353                2.15085698               41.92770199                0.00010000                0.36134442                0.04840574               -0.85526791               -1.17260905                3.20028183               -0.03874873
               9.23523211                1.87638313               41.81655563                0.00010000                0.08662443                0.16391333               -1.04061812               -1.03688373                4.51419804                0.63499325
              10.23453602                1.60377656               41.73763889                1.00000000               -0.03733517                0.14934557               -0.94142730               -0.67850501                5.16069849                0.94995041
              11.23448541                1.33458900               41.64108291                1.00000000                0.14264945                0.21091187               -0.89384980               -0.25539623                2.76245192                1.72088937
              12.23738900                1.06817405               41.51607175                1.00000000                0.33738939                0.32047564               -1.16543690               -0.04250177                0.87136923                0.78307352
              13.24123320                0.80236827               41.38216843                1.00000000                0.38441914                0.42982336               -1.40972914                0.00468184                0.40685398               -0.86161715
               3.48068637                4.49560837               42.44235216                1.00000000               -0.21686019               -0.37420574                0.97891227               -0.01793148                0.12621184                1.67108166
               4.47851776                4.23239757               42.29944077                1.00000000               -0.17684617               -0.18288955                0.61175949               -0.00149460                0.23611980                0.05857868
               5.47714944                3.96850012               42.15884109                1.00000000               -0.06095897               -0.00536011                0.26391709               -0.10610152                1.14029567               -1.58212814
               6.47729858                3.70252796               42.03389678                0.00010000                0.10520115                0.08440394               -0.13122059               -0.79632925                5.07442347               -2.42703166
               7.47925347                3.42400270               41.97165626                0.00010000                0.33891305                0.00379346               -0.54640570               -2.05895983                8.02005352               -2.07579737
               8.48407685                3.15047230               41.90290451                0.00010000                0.46266379               -0.03134615               -0.87609193               -2.01972043                7.53712676               -0.16677708
               9.48850674                2.87661528               41.82840174                0.00010000                0.46990336               -0.03783570               -1.09235577               -1.93887780                7.24133219                1.69559131
              10.49347491                2.60356562               41.75227462                0.00010000                0.48947721               -0.08969286               -1.20395945               -1.32540691                7.27859086                1.68534438
              11.49829629                2.33609322               41.67827604                1.00000000                0.44084702               -0.14126179               -0.92814270               -0.52981176                4.60242050                2.06071580
              12.50229185                2.07125518               41.55026096                1.00000000                0.41066526                0.14846468               -1.22900643               -0.13206793                1.07843840                1.90323458
              13.50650959                1.80668683               41.40604206                1.00000000                0.42177374                0.38003220               -1.43664295               -0.03687353                0.23731216                0.00191864
               3.74269700                5.49199680               42.39044769                1.00000000               -0.16896817               -0.33878129                0.80798235               -0.03625255                0.23478693                1.33602261
               4.74100731                5.23087130               42.24009726                1.00000000               -0.13612753               -0.10830651                0.44694620               -0.03767741                0.37469650               -0.36168392
               5.73997445                4.96876187               42.09261273                0.00010000               -0.03913452                0.09018058                0.09989274               -0.18455180                1.46583118               -1.87801649
               6.74022462                4.70401157               41.96394506                0.00010000               -0.05463792                0.15957669               -0.25584036               -1.04720570                7.17261571               -2.13163483
               7.73888169                4.42566318               41.93029994                0.00010000               -0.02140461                0.19482099               -0.57103560               -1.81504905               11.48536373               -0.49444419
               8.73979653                4.15023006               41.88523606                0.00010000                0.22397775                0.05398378               -0.92233037               -1.89533113               10.65553080                0.58451860
               9.74336124                3.87562642               41.83271520                0.00010000                0.43767041               -0.05699017               -1.22110841               -1.92151531               10.12915908                1.61889996
              10.74854994                3.60198270               41.77514696                0.00010000                0.64191833               -0.16964723               -1.45468847               -1.68580730                9.53866113                2.39582205
              11.75619961                3.33176377               41.70965512                0.00010000                0.78020483               -0.41965859               -1.81697739               -0.79069545                6.83100234                2.55453452
              12.76415404                3.07114335               41.59868684                0.00010000                0.67164077               -0.12753552               -1.23711739               -0.06821781                2.30162135                3.00989640
              13.76963242                2.80996891               41.44422490                0.00010000                0.54783875                0.25989653               -1.41086248               -0.01628263                0.12371820                1.03891821
               4.00221231                6.48883274               42.33509518                1.00000000               -0.12131704               -0.28222662                0.62704446               -0.03869089                0.10838794                1.01814459
               5.00099914                6.23023144               42.17513827                0.00010000               -0.09470867               -0.02760944                0.25377977               -0.05647273                0.41039233               -0.73017105
               6.00031814                5.97030373               42.02125585                0.00010000               -0.07729883                0.21486585               -0.08950377               -0.31591557                2.76493384               -2.35802490
               6.99945316                5.70571950               41.90827492                0.00010000               -0.17920706                0.05454953               -0.13292497               -1.36664678               10.08128942                0.48974737
               7.99673400                5.42789912               41.90021322                0.00010000               -0.16230906                0.24276642               -0.60709486               -2.01003015               14.57603988                0.50521719
               8.99620698                5.15155198               41.87402627                0.00010000                0.07948977                0.18047929               -1.00486823               -2.01934075               13.47957295                1.22000206
               9.99832379                4.87547548               41.84144174                0.00010000                0.37072175                0.04112467               -1.37331622               -2.08199656               12.96504156                2.12344188
              11.00362142                4.60017267               41.80268125                0.00010000                0.74989691               -0.14708532               -1.77399816               -1.93195676               12.25025412                3.06589301
              12.01332173                4.32770005               41.75410523                0.00010000                0.95504672               -0.43755782               -2.26123420               -0.98163761                9.28800975                4.05731303
              13.02272235                4.06870447               41.65634698                0.00010000                0.76055366               -0.18526096               -1.24169017               -0.11327008                3.39534725                3.23145544
              14.02853280                3.81188476               41.49107908                0.00010000                0.58104511                0.22342587               -1.42420956               -0.00529837                0.03575906                1.12346962
               4.25912578                7.48635227               42.27704421                0.00010000               -0.07189132               -0.20984062                0.44085783               -0.03282148                0.03607615                0.82316400
               5.25840687                7.23031911               42.10822726                0.00010000               -0.04788518                0.03272727                0.07136284               -0.04339365                0.31042439               -0.83580556
               6.25816808                6.97305919               41.94489075                0.00010000               -0.15552821                0.30328055               -0.28768745               -0.58620068                6.05590179               -2.67977528
               7.25529631                6.70510256               41.89086917                0.00010000               -0.26597381                0.05764606               -0.11444412               -1.54663551               13.68262207                1.56740322
               8.25284860                6.43051851               41.87798451                0.00010000               -0.17314758                0.29092065               -0.69454536               -1.96063257               16.03650663                1.05830375
               9.25183335                6.15383964               41.86805170                0.00010000                0.01260075                0.28091081               -1.11563370               -2.13432051               16.17029707                1.62038552
              10.25310062                5.87644891               41.85504461                0.00010000                0.29264413                0.15710627               -1.52878884               -2.25115770               15.95150367                2.54926443
              11.25768624                5.59904099               41.83817107                0.00010000                0.74672202               -0.04514038               -2.02604327               -2.28477062               15.47362805                3.82228425
              12.26803506                5.32301261               41.81340210                0.00010000                1.00088436               -0.42624208               -2.73765372               -1.22654076               11.25518833                5.61612276
              13.27770392                5.06743813               41.71085344                0.00010000                0.75654076               -0.02941316               -1.30750308               -0.10760221                3.69267245                2.76421528
              14.28316587                4.81443743               41.53468132                0.00010000                0.54619501                0.32496238               -1.53598164               -0.00281052                0.03484218                0.52015470
               4.51362219                8.48463593               42.21794897                0.00010000               -0.01978477               -0.13421015                0.25726002               -0.02975895                0.00877080                0.75636517
               5.51342434                8.23088599               42.04091214                0.00010000                0.00942424                0.07669158               -0.10767793               -0.01561552                0.13608761               -0.83400480
               6.51381068                7.97636935               41.86636998                0.00010000               -0.11816036                0.32456390               -0.47581631               -0.73554490                8.52793013               -2.73413653
               7.51106114                7.70687242               41.85700201                0.00010000               -0.25132068                0.30040285               -0.49515825               -1.55641484               17.47812400                0.20090248
               8.50878426                7.43371753               41.85832040                0.00010000               -0.17354842                0.38735029               -0.86055638               -1.83576231               18.41707974                0.99295933
               9.50759017                7.15717019               41.86412462                0.00010000               -0.03424876                0.39891433               -1.25410883               -2.08968253               18.90154523                1.67325805
              10.50809929                6.87861761               41.87167527                0.00010000                0.18860693                0.29198530               -1.66212301               -2.31737509               19.19468540                2.67945590
              11.51136231                6.59926986               41.88036799                0.00010000                0.61472472                0.08933239               -2.17315773               -2.55024152               19.33986814                4.23801478
              12.52039378                6.31917521               41.88825152                0.00010000                0.88915915               -0.24456779               -3.09276534               -1.40765070               12.66731239                6.92618423
              13.52914549                6.06811621               41.76002787                0.00010000                0.70421017                0.15747547               -1.41355680               -0.04998218                2.98383594                2.24053747
              14.53447798                5.81838401               41.57223626                0.00010000                0.53324956                0.46127544               -1.71494585                0.01072183                0.04168099               -0.12601435
               4.76603049                9.48366806               42.15867298                0.00010000                0.03306527               -0.05961586                0.07273919               -0.02785479                0.00045578                0.75979602
               5.76636114                9.23185294               41.97378200                0.00010000                0.07201289                0.11547224               -0.28318953                0.00049637               -0.03193858               -0.78958899
               6.76747075                8.97955047               41.78814357                0.00010000                0.02293392                0.30125166               -0.65443145               -0.76155940               10.39645324               -2.43905831
               7.76681982                8.71111062               41.81156920                0.00010000               -0.08175848                0.44438238               -0.78163972               -1.47189355               21.03107584               -0.43818040
               8.76583558                8.43826551               41.83433726                0.00010000               -0.08400978                0.47344990               -1.07401675               -1.59664219               21.30727246                0.59811729
               9.76513963                8.16181793               41.85864823                0.00010000               -0.05910668                0.53002393               -1.41376052               -1.81479840               21.82203839                1.36649025
              10.76465345                7.88228862               41.88714063                0.00010000                0.04920881                0.51079022               -1.78168101               -2.15702149               22.62531535                2.33109730
              11.76612380                7.60082764               41.92351165                0.00010000                0.31911275                0.26608682               -2.17080367               -2.67687652               23.88606729                3.85741720
              12.77103570                7.31812126               41.97392614                0.00010000                0.56858376                0.07035269               -2.73670662               -1.63026481               13.86683886                6.77382732
              13.77749548                7.07058764               41.80405755                0.00010000                0.59045018                0.31982554               -1.52332968               -0.02320229                1.49502584                1.78530793
              14.78284471                6.82366294               41.60415804                0.00010000                0.53492261                0.56978163               -1.90800078                0.01792708                0.04174746               -0.66733996
               5.01669533               10.48344361               42.09971440                0.00010000                0.08565303                0.01254250               -0.10933508               -0.02772064               -0.01220817                0.68272453
               6.01755186               10.23319543               41.90709005                0.00010000                0.13132395                0.15414226               -0.46097989               -0.00126392                0.01545022               -0.64216533
               7.01932181                9.98239438               41.71487197                0.00010000                0.26781771                0.28585025               -0.81969177               -0.75557451               12.14938480               -1.54596423
               8.02290822                9.71576007               41.76460857                0.00010000                0.34111458                0.31252412               -1.01169903               -1.06272388               24.14901310               -0.34708923
               9.02614410                9.44318653               41.80677827                0.00010000                0.21814376                0.46158172               -1.27733637               -1.03077360               24.06407709                0.26454467
              10.02727109                9.16777067               41.84844937                0.00010000               -0.00974803                0.62801390               -1.58915017               -1.10757536               24.62865563                0.76738966
              11.02594914                8.88883341               41.89599228                0.00010000               -0.26394781                0.77007246               -1.91089483               -1.50939420               25.85999688                1.39299527
              12.02199214                8.60459160               41.95661195                0.00010000               -0.39603275                0.81266865               -2.14381885               -2.19933115               28.25378964                2.41392154
              13.01802849                8.32058226               42.04604887                0.00010000                0.05738107                0.39435487               -1.78410169               -1.85688152               15.43134354                3.78867541
              14.02313976                8.07451272               41.84355897                0.00010000                0.53287147                0.43421833               -1.60132292               -0.06835477                0.43908121                1.21845252
              15.02868592                7.82977964               41.63088535                0.00010000                0.55461596                0.63190732               -2.08239910                0.01211261               -0.01301089               -0.86796083
               5.26597244               11.48391891               42.03891303                0.00010000                0.14126578                0.04752982               -0.28932352                0.02939854                0.36982993                0.59334299
               6.26738510               11.23493579               41.84263017                0.00010000                0.19110910                0.17403560               -0.63829084                0.05075179                0.76255724               -0.51613128
               7.26979463               10.98526747               41.65400818                0.00010000                0.86940469                0.28730945               -0.99129696               -0.83145315               13.96700125               -0.90266255
               8.28477320               10.71736110               41.72145450                0.00010000                1.17074375                0.16010334               -1.20872753               -0.70201853               26.63876105               -0.27031183
               9.29320950               10.44749715               41.77709370                0.00010000                0.62840215                0.43106199               -1.46866621               -0.44260494               26.34904305                0.07608100
              10.29734124               10.17437821               41.83159898                0.00010000                0.22175673                0.66075346               -1.77513028               -0.48333950               26.94118217                0.36786096
              11.29764464                9.89769007               41.89263253                0.00010000               -0.34764545                0.88566583               -2.08588362               -0.69531048               28.39782941                0.73505750
              12.29038833                9.61708101               41.96955497                0.00010000               -1.68338408                1.24894148               -2.22494196               -1.74446651               30.82715294                1.35278106
              13.26397695                9.32600835               42.07114542                0.00010000               -1.17286627                0.54260927               -1.74508174               -2.29560406               17.68610691                1.58967646
              14.26693100                9.07927200               41.87536059                0.00010000                0.42880775                0.47592867               -1.65704077               -0.10623885                1.74692812                0.88412261
              15.27255311                8.83630109               41.65795946                0.00010000                0.56221048                0.65214459               -2.19830895                0.08962738                0.72357216               -0.78641842
               2.80352265                1.57638207               43.61191818                1.00000000               -0.39949830               -0.44908765                1.54469660               -0.08290619               -1.15706366                1.09959256
               3.79952767                1.29969415               43.47903349                1.00000000               -0.33703290               -0.31414155                1.12638111               -0.04745171               -1.56561953                0.18386155
               4.79678200                1.02248215               43.33840325                1.00000000               -0.21328821               -0.18506090                0.67881459               -0.05171229               -1.61179927               -0.21208978
               5.79526191                0.74419163               43.20488300                1.00000000               -0.08888223               -0.05286002                0.23249727               -0.37887080               -1.11907303               -0.97707155
               6.79500435                0.45795656               43.07438248                0.00010000                0.24486422               -0.07295770               -0.35263532               -0.09542264               -0.72915214                0.22948577
               7.80015919                0.16675303               42.95044551                1.00000000                0.62422491                0.10114451               -0.77075376               -0.13189428               -0.25889088                0.05615881
               8.80748885               -0.12180777               42.82891946                1.00000000                0.80291302                0.17394838               -1.00515390               -0.04354453                0.22065482               -0.20530135
               9.81621745               -0.40535735               42.71258956                1.00000000                0.72814746                0.18835452               -0.96290124               -0.08862238                0.22794581                0.03923881
              10.82205180               -0.68381692               42.58790865                1.00000000                0.48301806                0.24691506               -0.95954023               -0.07705995               -0.43260049                0.69831882
              11.82587781               -0.96031134               42.45648339                1.00000000                0.39246456                0.33392056               -1.15964339               -0.03744425               -0.75778774                0.06590072
              12.82990109               -1.23637927               42.32500306                1.00000000                0.40232775                0.42241207               -1.42192998               -0.03798792               -0.75150490               -0.73406557
               3.07938151                2.57189120               43.55330682                1.00000000               -0.33783961               -0.43666230                1.36351398               -0.01369996               -0.24900269                1.48239564
               4.07600312                2.29655274               43.42042397                1.00000000               -0.26826893               -0.28969418                0.94754319                0.01741060               -0.38925466                0.26670154
               5.07401614                2.02063154               43.28503510                1.00000000               -0.11335614               -0.15519336                0.50876416               -0.00850556               -0.32443743               -0.41017631
               6.07373600                1.74366303               43.15340214                1.00000000                0.43766450               -0.01492830                0.08894544               -0.47766578                1.11354194               -1.33210763
               7.08276943                1.45722698               43.04632711                0.00010000                0.74932085               -0.11448776               -0.47506657               -0.13264221                2.11958443                0.62733172
               8.08872241                1.16776447               42.93288958                1.00000000                0.51695834                0.14569039               -0.86595504               -0.16184872                1.92628290                0.24558335
               9.09310859                0.87993171               42.82074472                1.00000000                0.38066949                0.28340348               -1.06478653               -0.08142292                2.48825296               -0.53064261
              10.09633580                0.59652620               42.71754264                1.00000000                0.28248015                0.28864660               -0.95165825               -0.10592876                2.64196714                0.32205725
              11.09875820                0.31865223               42.60839131                1.00000000                0.27243731                0.25462945               -0.88019572               -0.07097859                1.31108947                0.87763191
              12.10178455                0.04302787               42.47906971                1.00000000                0.34154773                0.32747046               -1.12793821                0.00384802                0.19382325                0.22003734
              13.10558915               -0.23215515               42.34782888                1.00000000                0.38046015                0.41776930               -1.39088689                0.00588790                0.08883543               -0.84506435
               3.35392558                3.56764883               43.50288041                1.00000000               -0.27900331               -0.41472593                1.19452307               -0.00987058                0.00893846                1.86173646
               4.35113554                3.29390027               43.36366069                1.00000000               -0.22119911               -0.24012954                0.77997210                0.00870263                0.15664665                0.28424802
               5.34950159                3.01937828               43.22758796                1.00000000               -0.10111958               -0.07345113                0.34657173               -0.04406899                0.45282903               -1.05067458
               6.34911315                2.74389306               43.09414663                1.00000000                0.93742341                0.03933629               -0.10542290               -0.69897773                3.83819136               -1.82438226
               7.36825006                2.45566680               43.02537216                0.00010000                1.25521657               -0.11922002               -0.75622353               -1.51163558                5.40761304               -0.96365715
               8.37421748                2.16966684               42.91814294                0.00010000                0.44243020                0.14490252               -1.08630358               -1.38589768                3.30754524               -0.04810813
               9.37709867                1.88386030               42.80504243                0.00010000                0.05804374                0.30528107               -1.30842818               -1.22585978                4.84725318                0.57195222
              10.37537836                1.60041559               42.72764895                1.00000000               -0.14840543                0.27818705               -1.10605470               -0.80960216                5.61683926                0.78105179
              11.37413056                1.32127567               42.63245547                1.00000000                0.06919004                0.18344305               -0.82052459               -0.32918634                2.93825716                1.69287981
              12.37676216                1.04623807               42.50472134                1.00000000                0.31271685                0.30281305               -1.09767019               -0.04404092                0.85091892                0.76499012
              13.38038489                0.77197611               42.36840772                1.00000000                0.36227363                0.40680907               -1.33773164               -0.00159148                0.39760244               -0.80956439
               3.62668122                4.56359668               43.45234049                1.00000000               -0.22335019               -0.38994532                1.02365428               -0.01958267                0.12492584                1.67993079
               4.62444772                4.29175015               43.30555848                1.00000000               -0.17696294               -0.18194405                0.61228885               -0.00360708                0.24224070                0.06853598
               5.62314196                4.01916252               43.16126903                1.00000000               -0.04898993                0.01194063                0.21694471               -0.11306599                1.13266700               -1.55629157
               6.62346792                3.74444975               43.03215770                0.00010000                0.18104888                0.12166569               -0.22546687               -0.92386308                5.03743189               -2.38384015
               7.62676294                3.45484258               42.96555986                0.00010000                0.46715200                0.08107783               -0.68610583               -2.35356100                8.01382756               -1.89825781
               8.63281096                3.17066252               42.89337897                0.00010000                0.55398537                0.08422616               -1.04818987               -2.30261605                7.62421728               -0.04466581
               9.63784265                2.88603733               42.81676748                0.00010000                0.49587135                0.11123734               -1.25864559               -2.21254953                7.43044846                1.75297918
              10.64272839                2.60208994               42.73986955                0.00010000                0.42546673                0.04809406               -1.29453876               -1.60372724                7.70843494                1.53753350
              11.64635198                2.32232109               42.66947750                1.00000000                0.37374502               -0.07868351               -0.82426710               -0.65927492                4.83349336                1.55378514
              12.65020329                2.04908413               42.53847144                1.00000000                0.38646306                0.10228307               -1.11997343               -0.11885958                1.02250587                1.87995582
              13.65408124                1.77598103               42.39222553                1.00000000                0.38779552                0.30338906               -1.31792255               -0.02120395                0.22346102                0.05769948
               3.89722699                5.55984992               43.39867694                1.00000000               -0.17294230               -0.35099893                0.84141798               -0.03875348                0.24149900                1.33202411
               4.89549757                5.29026139               43.24452475                1.00000000               -0.13431609               -0.10105565                0.43793485               -0.04161726                0.38703068               -0.36841128
               5.89454067                5.01961709               43.09337378                0.00010000               -0.02708688                0.11396247                0.04789403               -0.19210053                1.48186772               -1.88201938
               6.89495583                4.74632638               42.96095227                0.00010000                0.02127028                0.17567857               -0.35464668               -1.15624870                7.21373423               -1.95041414
               7.89496607                4.45728836               42.92406071                0.00010000                0.10072891                0.26072642               -0.68741596               -2.00879214               11.53986112               -0.33835705
               8.89697041                4.17135136               42.87540948                0.00010000                0.32270938                0.13184848               -1.05382976               -2.08469867               10.71351088                0.71290219
               9.90142026                3.88608504               42.81998124                0.00010000                0.50248242                0.02154905               -1.33419336               -2.11447066               10.24228500                1.66054762
              10.90702005                3.60137747               42.76040764                0.00010000                0.62653050               -0.09741794               -1.49249872               -1.88014747                9.60336738                2.24947923
              11.91395087                3.31970200               42.69176255                0.00010000                0.68524885               -0.26687652               -1.73534590               -0.93844373                7.23269906                1.93451626
              12.92072503                3.04828373               42.58693887                0.00010000                0.61080757               -0.19931791               -1.10476009               -0.14062074                2.68653602                2.99802190
              13.92616702                2.77804389               42.43078747                0.00010000                0.54419896                0.09805388               -1.27135511                0.02271127                0.11677174                1.05617776
               4.16508322                6.55657670               43.34147030                1.00000000               -0.12350158               -0.29163932                0.65072794               -0.03983641                0.10275397                1.00645311
               5.16384820                6.28972903               43.17760224                0.00010000               -0.09241280               -0.01578018                0.23755929               -0.06126961                0.41910748               -0.74333507
               6.16323496                6.02144176               43.02011532                0.00010000               -0.05882604                0.24827485               -0.14461558               -0.35358600                2.95230281               -2.37506768
               7.16267168                5.74796333               42.90675964                0.00010000               -0.08364249                0.05004768               -0.18923289               -1.44837297               10.22796140                0.71977144
               8.16156211                5.46005711               42.89364432                0.00010000               -0.01756918                0.28694463               -0.71058081               -2.15198744               14.53389956                0.64939384
               9.16232030                5.17329949               42.86345332                0.00010000                0.19825066                0.23236212               -1.11516224               -2.17644792               13.50456712                1.33362317
              10.16552713                4.88646831               42.82723578                0.00010000                0.45940923                0.08551129               -1.46644565               -2.25006452               12.99058299                2.16780239
              11.17150848                4.60014158               42.78470786                0.00010000                0.75748569               -0.10203131               -1.80534124               -2.06621364               12.21188388                2.93673387
              12.18067684                4.31698356               42.73195546                0.00010000                0.87702481               -0.33763082               -2.13490776               -1.16122236                9.86413767                3.68775958
              13.18904898                4.04509777               42.64438404                0.00010000                0.71691556               -0.23776247               -1.14924543               -0.23410394                3.99068789                3.19270860
              14.19501515                3.77794211               42.47726431                0.00010000                0.59661719                0.04997134               -1.34600087                0.01529364                0.02813472                1.01303044
               4.43012559                7.55401714               43.28151945                0.00010000               -0.07184855               -0.21662709                0.45641538               -0.03365297                0.03265415                0.81069689
               5.42940711                7.28994578               43.10883713                0.00010000               -0.04454701                0.04586471                0.04913320               -0.04516090                0.31186672               -0.84045220
               6.42923465                7.02458259               42.94174428                0.00010000               -0.10170407                0.34292980               -0.34730423               -0.64962398                6.32540936               -2.69311321
               7.42737303                6.74732733               42.88917832                0.00010000               -0.13222495                0.07619615               -0.22226256               -1.61939143               13.86688190                1.56377686
               8.42659016                6.46302725               42.87058801                0.00010000               -0.01713943                0.32034462               -0.79400016               -2.07393530               15.95575911                1.14158953
               9.42703024                6.17599860               42.85637171                0.00010000                0.14933632                0.31531066               -1.22088607               -2.27810535               16.17975684                1.71066981
              10.42957688                5.88779527               42.83921158                0.00010000                0.40751479                0.19242353               -1.63043992               -2.40933993               15.93078217                2.60550260
              11.43518053                5.59933684               42.81741411                0.00010000                0.80966752               -0.01369160               -2.09761702               -2.39166963               15.30861292                3.78297680
              12.44577023                5.31294938               42.78598632                0.00010000                0.99519372               -0.38848869               -2.67520390               -1.37670549               11.97610564                5.25649904
              13.45508441                5.04352848               42.69787349                0.00010000                0.75069977               -0.03865578               -1.29282629               -0.22493934                4.53380648                2.69838365
              14.46078423                4.77904332               42.51928854                0.00010000                0.56998186                0.22173081               -1.56223625                0.00941471                0.03510655                0.31100361
               4.69255286                8.55224416               43.22055352                0.00010000               -0.01733305               -0.13875403                0.26545899               -0.03068477                0.00694392                0.74466245
               5.69237953                8.29064633               43.03970124                0.00010000                0.01540382                0.09025699               -0.13614076               -0.01311340                0.13274455               -0.83424985
               6.69286094                8.02830036               42.86131879                0.00010000               -0.02701685                0.36240508               -0.53974277               -0.80281910                8.69892793               -2.73425463
               7.69183919                7.74948725               42.85157933                0.00010000               -0.07244015                0.32842247               -0.60028339               -1.66286555               17.68891005                0.07277018
               8.69141214                7.46646400               42.84921185                0.00010000                0.00754882                0.39899842               -0.96268873               -1.95480515               18.46378049                1.01241798
               9.69199017                7.17960571               42.85102282                0.00010000                0.12949771                0.41486792               -1.36375439               -2.20883918               18.93773579                1.73456895
              10.69400209                6.89031679               42.85436598                0.00010000                0.32654040                0.32883886               -1.78920365               -2.44078816               19.17108240                2.74561092
              11.69852098                6.59986775               42.85764686                0.00010000                0.74744990                0.14115194               -2.34311585               -2.63959177               19.03352221                4.31461854
              12.70895109                6.30921379               42.85560376                0.00010000                0.99676387               -0.24336564               -3.31543630               -1.50633566               13.47572226                6.95973022
              13.71845626                6.04432466               42.74560976                0.00010000                0.76113446                0.18178338               -1.47679784               -0.13472481                4.05905419                2.18273137
              14.72417378                5.78237672               42.55458968                0.00010000                0.57175202                0.43275175               -1.83960028                0.02116470                0.04948948               -0.35979986
               4.95270756                9.55124205               43.15939388                0.00010000                0.03810778               -0.06187379                0.07327042               -0.02942659                0.00303845                0.74864546
               5.95308864                9.29175092               42.97078406                0.00010000                0.08148951                0.12975202               -0.31850649                0.00439136               -0.03642774               -0.78873221
               6.95433735                9.03183069               42.78128564                0.00010000                0.14317201                0.33208959               -0.72258384               -0.84485326               10.50956200               -2.42463279
               7.95595208                8.75389578               42.80329054                0.00010000                0.15191213                0.44038546               -0.87767100               -1.61662425               21.21820695               -0.49254513
               8.95737559                8.47100722               42.82308972                0.00010000                0.15242945                0.44723990               -1.17485862               -1.70883482               21.41465305                0.59670673
               9.95900067                8.18429596               42.84389488                0.00010000                0.15617410                0.51586052               -1.53133459               -1.88482544               21.89979030                1.39997055
              10.96049908                7.89437205               42.86849004                0.00010000                0.22455142                0.53258659               -1.93923895               -2.18887656               22.66290442                2.39270877
              11.96349170                7.60215988               42.90039380                0.00010000                0.53437682                0.34403629               -2.43619094               -2.67432751               23.71680254                4.03334295
              12.97118661                7.30808207               42.94297050                0.00010000                0.78676411                0.09049695               -3.43901362               -1.64886570               14.64096890                7.60895685
              13.97922698                7.04716415               42.78823947                0.00010000                0.69583895                0.36333045               -1.64864861               -0.06890806                2.46363431                1.76782883
              14.98510339                6.78769835               42.58422789                0.00010000                0.58764123                0.59586710               -2.10592675                0.02669424                0.05721843               -0.87232389
               5.21094659               10.55100668               43.09858000                0.00010000                0.09321312                0.01315154               -0.11659004               -0.02907001               -0.01287628                0.67301687
               6.21187872               10.29324137               42.90227293                0.00010000                0.14362135                0.16930579               -0.50447191                0.00079815                0.01322932               -0.64058046
               7.21381902               10.03494215               42.70633457                0.00010000                0.42257305                0.31152829               -0.89415083               -0.87576790               12.23286224               -1.52589100
               8.22033018                9.75829496               42.75405333                0.00010000                0.65081198                0.24090649               -1.10059826               -1.19995398               24.31172165               -0.36407130
               9.22683526                9.47540880               42.79348151                0.00010000                0.52993245                0.39274562               -1.37879161               -1.10884831               24.19030227                0.26315553
              10.23092883                9.18992292               42.83189052                0.00010000                0.27626907                0.57774450               -1.71484221               -1.12693661               24.73042923                0.77963763
              11.23236064                8.90096852               42.87596808                0.00010000                0.01977873                0.75230007               -2.08953527               -1.46266608               25.97745491                1.42941593
              12.23132441                8.60674848               42.93374059                0.00010000               -0.06955689                0.83337165               -2.46096877               -2.11027303               28.64875107                2.60602368
              13.23096950                8.31102373               43.02552350                0.00010000                0.30687019                0.50924185               -2.44809099               -1.77997087               16.18773654                4.58980095
              14.23746181                8.05159127               42.82675243                0.00010000                0.63348778                0.48666974               -1.77000341               -0.10881263                0.88012570                1.25102381
              15.24363926                7.79429406               42.60899763                0.00010000                0.61774465                0.69197205               -2.32525894                0.01718077                0.00012814               -1.00629563
               5.46765679               11.55150509               43.03593839                0.00010000                0.15123419                0.04984027               -0.30489706                0.03421541                0.36330996                0.58368158
               6.46916913               11.29513704               42.83600799                0.00010000                0.20558066                0.18956719               -0.68943970                0.05684961                0.75540608               -0.51194068
               7.47176840               11.03806126               42.64371338                0.00010000                1.11586118                0.31191045               -1.07404557               -1.02621797               14.03276869               -0.88291958
               8.49148636               10.75871391               42.70892308                0.00010000                1.59011324                0.04189511               -1.29904702               -0.84433904               26.78982929               -0.28425025
               9.50357067               10.47886213               42.76185894                0.00010000                0.97079296                0.34533338               -1.57500614               -0.46961182               26.47531345                0.06993676
              10.51090222               10.19585085               42.81314841                0.00010000                0.54247642                0.59279332               -1.90668259               -0.47486571               27.04127069                0.36931258
              11.51442020                9.90941805               42.87082923                0.00010000                0.01644055                0.84495321               -2.27163307               -0.64522110               28.55846871                0.75777069
              12.51123103                9.61882731               42.94610538                0.00010000               -1.18378959                1.20788378               -2.53040322               -1.56689513               31.35626928                1.52510487
              13.49074441                9.31826691               43.05149668                0.00010000               -0.87253181                0.72431800               -2.28914122               -2.11899792               18.57934713                1.97613693
              14.49378039                9.05689755               42.85794037                0.00010000                0.46485029                0.53062817               -1.83949302               -0.20459759                2.16826502                0.94225130
              15.50004141                8.80153780               42.63483025                0.00010000                0.62610207                0.72437323               -2.45806280                0.10424024                0.76162955               -0.87214549
               2.92675511                1.64697734               44.62781529                1.00000000               -0.42363862               -0.47843225                1.64488072               -0.09178796               -1.18633004                1.11422859
               3.92251873                1.36106376               44.49048910                1.00000000               -0.35795702               -0.32448937                1.16925945               -0.05178183               -1.61436479                0.18936714
               4.91959597                1.07457491               44.34513868                1.00000000               -0.23149831               -0.17806289                0.66874093               -0.05902866               -1.68107320               -0.21126530
               5.91788876                0.78661614               44.20689236                1.00000000               -0.15325311               -0.01364919                0.16608877               -0.46002750               -1.26611526               -0.97247047
               6.91653091                0.48880301               44.07031219                0.00010000                0.19082419               -0.02100878               -0.45262301               -0.12736649               -0.90563186                0.21282289
               7.92170525                0.18513642               43.94194141                1.00000000                0.66977647                0.15820016               -0.92298641               -0.15524988               -0.30768897                0.02358948
               8.92992644               -0.11575730               43.81791325                1.00000000                0.93498562                0.23584911               -1.20534099               -0.03408581                0.39195483               -0.27902328
               9.94040496               -0.41024439               43.70229995                1.00000000                0.86930618                0.22048501               -1.11587537               -0.08687627                0.56047679               -0.02532049
              10.94731256               -0.69757218               43.57813570                1.00000000                0.54382923                0.24529788               -0.98815707               -0.08614150               -0.19734105                0.72999433
              11.95128154               -0.98233494               43.44475245                1.00000000                0.40434988                0.33433976               -1.18566551               -0.03672904               -0.68063648                0.07627633
              12.95539956               -1.26646378               43.31064263                1.00000000                0.41180198                0.42482024               -1.45583786               -0.04656340               -0.70637287               -0.68880484
               3.21175082                2.64219302               44.56733334                1.00000000               -0.35486951               -0.46476870                1.45091671               -0.01255976               -0.26620186                1.49672383
               4.20820212                2.35781886               44.43003227                1.00000000               -0.27606616               -0.29921111                0.97747508                0.02184375               -0.42157866                0.27576086
               5.20622950                2.07279428               44.29000479                1.00000000               -0.10138433               -0.14766262                0.48358737               -0.00688420               -0.36062308               -0.40342046
               6.20617444                1.78647965               44.15391382                1.00000000                0.48838040                0.02320749                0.00619255               -0.57283527                1.01064574               -1.34090566
               7.21599710                1.48859292               44.04087325                0.00010000                0.81292318               -0.08607968               -0.62083775               -0.20654770                1.98912067                0.54813790
               8.22243290                1.18671843               43.92324345                1.00000000                0.56394418                0.21344993               -1.07682795               -0.22064088                1.96165194                0.16049368
               9.22727599                0.88660119               43.80898387                1.00000000                0.40053680                0.37783591               -1.32180530               -0.10066165                2.80363567               -0.68532979
              10.23044364                0.59196046               43.70740165                1.00000000                0.26102188                0.36575335               -1.11400419               -0.13327968                3.11249693                0.17222664
              11.23249643                0.30488080               43.59970858                1.00000000                0.24582078                0.24662944               -0.84472952               -0.10432062                1.54112230                0.89389858
              12.23536005                0.02100846               43.46791630                1.00000000                0.32831749                0.32035345               -1.09799485                0.00386076                0.21058750                0.22792541
              13.23906278               -0.26221558               43.33404038                1.00000000                0.37027221                0.41220573               -1.36847675               -0.00175775                0.09526890               -0.78535492
               3.49525223                3.63768197               44.51514504                1.00000000               -0.28978925               -0.43912842                1.26555902               -0.01033950                0.00003152                1.87544262
               4.49235434                3.35507953               44.37152625                1.00000000               -0.22273626               -0.24573167                0.79507301                0.00858055                0.13594768                0.29707149
               5.49079751                3.07162166               44.23086682                1.00000000               -0.08604606               -0.06029036                0.30633030               -0.05125862                0.41597798               -1.02217117
               6.49063342                2.78708029               44.09268495                1.00000000                1.06818366                0.07829405               -0.19421517               -0.84791466                3.68532563               -1.81698261
               7.51216118                2.48708142               44.01691286                0.00010000                1.43253705               -0.06219668               -0.94537931               -1.76816138                5.26710189               -0.91484491
               8.51928416                2.18940542               43.90597592                0.00010000                0.52549950                0.27970094               -1.37033975               -1.61806604                3.39077057               -0.01913823
               9.52267117                1.89179942               43.79038707                1.00000000                0.00878012                0.50674341               -1.67383409               -1.44927999                5.24950345                0.54946808
              10.51945976                1.59707068               43.71551779                1.00000000               -0.32465065                0.47985644               -1.41822348               -0.99745322                6.32097281                0.63030835
              11.51617816                1.30736041               43.62467242                1.00000000               -0.05023125                0.14905253               -0.72008262               -0.45653518                3.25418199                1.65181924
              12.51845514                1.02407213               43.49411835                1.00000000                0.28171676                0.28141535               -1.01518197               -0.04730902                0.82080660                0.74051022
              13.52181249                0.74178033               43.35541379                1.00000000                0.33573556                0.38383240               -1.25914054               -0.00878714                0.38469457               -0.75300270
               3.77674890                4.63341045               44.46282524                1.00000000               -0.23148530               -0.40872501                1.07851528               -0.02166595                0.12245766                1.68359422
               4.77443404                4.35290423               44.31168654                1.00000000               -0.17726631               -0.18101094                0.61378030               -0.00626089                0.24503566                0.07795605
               5.77320357                4.07158848               44.16317998                1.00000000               -0.03388275                0.03267672                0.16047873               -0.12359591                1.12068947               -1.52638054
               6.77375639                3.78804553               44.02938745                0.00010000                0.25525866                0.16605301               -0.33749878               -1.05302631                4.99860242               -2.33844290
               7.77830874                3.48734899               43.95793414                0.00010000                0.57985950                0.18650817               -0.85140874               -2.63362835                8.00993619               -1.66654674
               8.78535358                3.19231244               43.88194072                0.00010000                0.61581933                0.25041669               -1.25736838               -2.58754319                7.73282494                0.16617089
               9.79062513                2.89673606               43.80322882                0.00010000                0.47900043                0.32848243               -1.47649053               -2.51086168                7.69187074                1.93356138
              10.79493359                2.60155759               43.72638385                0.00010000                0.28695710                0.25316485               -1.42638772               -1.97489980                8.30924782                1.50230425
              11.79636427                2.30786185               43.66179070                0.96024911                0.25301808                0.03078642               -0.70535186               -0.83883112                5.17221750                1.00621882
              12.79999395                2.02663677               43.52786149                1.00000000                0.35531815                0.05595254               -0.99231270               -0.09980412                0.96086441                1.83570629
              13.80347063                1.74546107               43.37968360                1.00000000                0.34766862                0.21366772               -1.18362284                0.00533818                0.20554832                0.10273430
               4.05583135                5.62950747               44.40727605                1.00000000               -0.17802593               -0.36455772                0.88209285               -0.04208432                0.24673520                1.32470028
               5.05405109                5.35145931               44.24885596                1.00000000               -0.13235325               -0.09259300                0.42763206               -0.04650190                0.39782417               -0.37378158
               6.05318429                5.07227519               44.09357061                0.00010000               -0.01193583                0.14217033               -0.01302904               -0.20273666                1.49282985               -1.87763039
               7.05381238                4.79040135               43.95685212                0.00010000                0.10187032                0.19216701               -0.47667768               -1.23683055                7.26935206               -1.74367411
               8.05522169                4.49081158               43.91655162                0.00010000                0.21669221                0.35053529               -0.82521470               -2.17890139               11.61987229               -0.12938419
               9.05814622                4.19441376               43.86415946                0.00010000                0.39935455                0.24748862               -1.20877985               -2.25446114               10.81307586                0.91028563
              10.06320879                3.89836907               43.80603133                0.00010000                0.53448780                0.14325620               -1.46603408               -2.30119992               10.44175011                1.78160818
              11.06883598                3.60213398               43.74529699                0.00010000                0.55567864                0.01716393               -1.53227184               -2.10935526                9.81318539                2.16311422
              12.07432236                3.30797614               43.67494821                0.00010000                0.50119277               -0.03151923               -1.60938727               -1.11893801                7.74817090                1.31289247
              13.07885983                3.02519118               43.57659163                0.00010000                0.49741487               -0.25063751               -0.95932703               -0.23445671                3.08246920                2.93479603
              14.08427066                2.74605369               43.41879780                0.00010000                0.54108229               -0.09083853               -1.12882366                0.07946645                0.10791565                0.99366883
               4.33200351                6.62611930               44.34810974                1.00000000               -0.12672350               -0.30122418                0.68002757               -0.04108422                0.09584513                0.99363551
               5.33073628                6.35105237               44.17988946                0.00010000               -0.08983547               -0.00241199                0.21829499               -0.06595623                0.42678510               -0.75297333
               6.33020680                6.07443188               44.01836354                0.00010000               -0.01264434                0.28591281               -0.21251921               -0.40063605                3.15306679               -2.38196719
               7.33048339                5.79188887               43.90449026                0.00010000                0.02557522                0.05785286               -0.26850551               -1.50471769               10.37435066                0.98101200
               8.33071831                5.49435969               43.88600161                0.00010000                0.11117381                0.34855951               -0.82819698               -2.25389711               14.51069600                0.82943140
               9.33270687                5.19726222               43.85172303                0.00010000                0.30813009                0.30348917               -1.23837719               -2.30499060               13.58221040                1.50002225
              10.33688091                4.89960119               43.81211282                0.00010000                0.52162741                0.15298496               -1.55974490               -2.39481382               13.10919716                2.25841418
              11.34313941                4.60190087               43.76657442                0.00010000                0.70236990               -0.01862253               -1.81275056               -2.20609748               12.33721212                2.82074938
              12.35092831                4.30723146               43.71140708                0.00010000                0.70439242               -0.17409194               -1.96374954               -1.37507101               10.53282819                3.31627758
              13.35722726                4.02162402               43.63336207                0.00010000                0.62033253               -0.25055528               -1.05944876               -0.36845825                4.56820374                3.07697704
              14.36333496                3.74364430               43.46415906                0.00010000                0.61076942               -0.13607757               -1.29629588                0.04039022                0.02309584                0.75987063
               4.60514352                7.62348298               44.28617252                0.00010000               -0.07241394               -0.22322714                0.47686453               -0.03408394                0.02903905                0.79884409
               5.60441938                7.35141107               44.10920992                0.00010000               -0.04042266                0.06008434                0.02355027               -0.04559220                0.31305190               -0.84123959
               6.60433507                7.07799345               43.93794467                0.00010000               -0.03145855                0.38555006               -0.41921756               -0.70741641                6.59539039               -2.69714069
               7.60379021                6.79155841               43.88642392                0.00010000                0.02176677                0.11633670               -0.34445234               -1.68738935               14.09621616                1.56426449
               8.60477040                6.49778277               43.86210451                0.00010000                0.15073540                0.35522405               -0.90786535               -2.15883950               15.92922552                1.25581695
               9.60680492                6.20048354               43.84363398                0.00010000                0.29517250                0.35380935               -1.33059736               -2.39350569               16.25261631                1.84106099
              10.61067385                5.90142877               43.82243581                0.00010000                0.51394155                0.23250909               -1.71980713               -2.53530156               16.00134602                2.68775881
              11.61708375                5.60176153               43.79621873                0.00010000                0.82119695                0.03408361               -2.11952326               -2.46394583               15.31232644                3.71166491
              12.62709779                5.30449430               43.75989802                0.00010000                0.89970421               -0.29229153               -2.50652180               -1.52822147               12.78457680                4.75969206
              13.63507783                5.02018008               43.68499691                0.00010000                0.69700550               -0.01095814               -1.29317339               -0.35243854                5.34823007                2.55537125
              14.64103790                4.74333214               43.50343660                0.00010000                0.59600683                0.13021817               -1.64066368                0.02385496                0.04249950               -0.03412703
               4.87546565                8.62165475               44.22325815                0.00010000               -0.01516827               -0.14342441                0.27675567               -0.03170054                0.00560239                0.73379863
               5.87531396                8.35225406               44.03818933                0.00010000                0.02227477                0.10477660               -0.16723839               -0.00952118                0.13036236               -0.83121903
               6.87591114                8.08214288               43.85557512                0.00010000                0.08161587                0.40242922               -0.61496080               -0.86090079                8.86798363               -2.72765625
               7.87694628                7.79421560               43.84499635                0.00010000                0.13526195                0.36136504               -0.72363495               -1.75445169               17.92691703               -0.02816270
               8.87861638                7.50146418               43.83906662                0.00010000                0.21222362                0.40736099               -1.07154636               -2.05616457               18.57371819                1.06602801
               9.88119075                7.20433840               43.83684953                0.00010000                0.31402531                0.42330477               -1.47094837               -2.31413042               19.03996421                1.82728626
              10.88489689                6.90425137               43.83589120                0.00010000                0.48021071                0.35559622               -1.89699605               -2.55085527               19.21783518                2.82452186
              11.89079497                6.60258254               43.83350567                0.00010000                0.85242194                0.18196245               -2.45128753               -2.69850484               18.83345784                4.33057478
              12.90194533                6.30138563               43.82194279                0.00010000                1.02728422               -0.20568204               -3.29760443               -1.61330345               14.42066891                6.58848061
              13.91134065                6.02140486               43.73049191                0.00010000                0.77813069                0.23107355               -1.55795910               -0.23520157                5.19585997                2.06311994
              14.91750794                5.74624866               43.53544425                0.00010000                0.61672880                0.42381877               -2.02196342                0.03309668                0.06418736               -0.68995679
               5.14331090                9.62061449               44.16013839                0.00010000                0.04299231               -0.06476559                0.07776311               -0.03147313                0.00558750                0.73743111
               6.14374083                9.35350661               43.96741187                0.00010000                0.09223012                0.14529168               -0.35806259                0.00877284               -0.03911449               -0.78521606
               7.14515551                9.08604203               43.77369189                0.00010000                0.28195289                0.36529684               -0.80228639               -0.92166961               10.63188398               -2.40671036
               8.14937989                8.79878571               43.79401578                0.00010000                0.41844018                0.43152486               -0.98133713               -1.75313046               21.44203747               -0.51556770
               9.15352431                8.50592999               43.81084009                0.00010000                0.41776171                0.41081225               -1.27721507               -1.81697452               21.58177931                0.62227244
              10.15773512                8.20894964               43.82802153                0.00010000                0.39441486                0.48857411               -1.64049222               -1.95934732               22.04119182                1.45635177
              11.16141261                7.90854069               43.84835585                0.00010000                0.41221342                0.54155853               -2.07626958               -2.23987841               22.74583091                2.45558042
              12.16597939                7.60540078               43.87478783                0.00010000                0.72984027                0.42089738               -2.65971251               -2.67716316               23.42965700                4.13346495
              13.17600941                7.30038066               43.90514587                0.00010000                0.97656937                0.12332331               -3.97886173               -1.68865880               15.61714507                8.10869461
              14.18551078                7.02480155               43.77108458                0.00010000                0.80014067                0.42137165               -1.79189671               -0.13223295                3.75966003                1.70592495
              15.19201223                6.75180851               43.56203950                0.00010000                0.65014510                0.64013551               -2.36002810                0.03520280                0.07689729               -1.13529474
               5.40905196               10.62035944               44.09738260                0.00010000                0.10099220                0.01306340               -0.12148066               -0.03052820               -0.01347594                0.66327441
               6.41006188               10.35515989               43.89700061                0.00010000                0.15733458                0.18601169               -0.55234724                0.00333933                0.01297419               -0.63791849
               7.41219865               10.08944882               43.69698895                0.00010000                0.59669178                0.34047123               -0.98090623               -0.99671940               12.33364519               -1.50437850
               8.42199572                9.80284610               43.74259661                0.00010000                0.99571560                0.15754429               -1.19422046               -1.33620303               24.51863492               -0.36354059
               9.43211296                9.50968042               43.77920244                0.00010000                0.86986946                0.31055129               -1.47743927               -1.18850416               24.37609519                0.27774386
              10.43939311                9.21410989               43.81415253                0.00010000                0.57676075                0.51495184               -1.82749060               -1.15683187               24.89372292                0.80429971
              11.44364818                8.91508254               43.85420157                0.00010000                0.30093180                0.72912465               -2.25350568               -1.43324803               26.10986983                1.46106471
              12.44541174                8.61100049               43.90739258                0.00010000                0.25616008                0.87263687               -2.79388205               -2.01817843               28.87643373                2.73656615
              13.44877138                8.30385210               43.99708705                0.00010000                0.59281987                0.66020295               -3.34600577               -1.67243552               17.13468193                5.41381157
              14.45726814                8.02983229               43.80815891                0.00010000                0.77133471                0.54697916               -1.95647940               -0.16743827                1.67990928                1.26065842
              15.46419807                7.75905137               43.58438017                0.00010000                0.69299344                0.76922116               -2.62542000                0.02159423                0.01674255               -1.17058509
               5.67309944               11.62087576               44.03281509                0.00010000                0.16187914                0.05163219               -0.31881308                0.03985616                0.35604605                0.57410653
               6.67471823               11.35722684               43.82884138                0.00010000                0.22177333                0.20669516               -0.74669289                0.06442009                0.75000437               -0.50739943
               7.67753491               11.09285146               43.63252726                0.00010000                1.38529951                0.34026388               -1.16960856               -1.23088663               14.11924593               -0.86221468
               8.70242422               10.80193659               43.69547356                0.00010000                2.04777656               -0.09095064               -1.39566819               -0.99267143               26.98830335               -0.29200712
               9.71849044               10.51214102               43.74559358                0.00010000                1.33860705                0.24605954               -1.67919211               -0.49664831               26.66296057                0.06883476
              10.72919637               10.21924867               43.79346533                0.00010000                0.86833002                0.51387862               -2.02508450               -0.47056562               27.20936294                0.37205604
              11.73585704                9.92312319               43.84719986                0.00010000                0.38249463                0.80406479               -2.44411779               -0.59887162               28.73442699                0.76660610
              12.73684626                9.62285351               43.91894690                0.00010000               -0.60640671                1.18530226               -2.91124812               -1.33347196               31.78350311                1.65524350
              13.72372891                9.31358472               44.02536260                0.00010000               -0.49417598                0.97326160               -3.05971493               -1.85986647               19.63612046                2.49335262
              14.72696274                9.03574113               43.83857073                0.00010000                0.51385201                0.59088438               -2.04315302               -0.35012918                2.86696631                0.98920010
              15.73400595                8.76719293               43.60879821                0.00010000                0.70432081                0.81415631               -2.77501280                0.12596742                0.80160086               -0.97017609
               3.05444843                1.71963055               45.64481579                1.00000000               -0.45314452               -0.51346312                1.76466700               -0.10242278               -1.20861017                1.12297622
               4.04991699                1.42439515               45.50241868                1.00000000               -0.38455820               -0.33643431                1.22048021               -0.05698605               -1.65249544                0.19329859
               5.04675727                1.12852462               45.35177807                1.00000000               -0.25754497               -0.16896307                0.65906399               -0.06830671               -1.73704125               -0.20976622
               6.04476609                0.83069930               45.20820477                1.00000000               -0.24573002                0.03530322                0.09375600               -0.54024978               -1.38038678               -0.96153888
               7.04184267                0.52109090               45.06533002                0.00010000                0.08191368                0.04981730               -0.53066305               -0.16597219               -1.04341243                0.19583445
               8.04640436                0.20462075               44.93198578                1.00000000                0.65633722                0.23190851               -1.05091028               -0.18697090               -0.35845105               -0.00444271
               9.05496941               -0.10952948               44.80481264                1.00000000                1.04000868                0.32807706               -1.41511744               -0.02902672                0.56640307               -0.36797251
              10.06720453               -0.41606716               44.69027205                1.00000000                1.03415337                0.28200463               -1.32439241               -0.07601569                0.96713186               -0.13067259
              11.07565248               -0.71236278               44.56814550                1.00000000                0.62768105                0.23562713               -0.99693011               -0.11096696                0.12083640                0.77397704
              12.07975815               -1.00511352               44.43277008                1.00000000                0.41703967                0.33339984               -1.20913393               -0.03877104               -0.60318679                0.08525456
              13.08399327               -1.29695088               44.29588631                1.00000000                0.42351172                0.43174633               -1.50469301               -0.05842643               -0.66481496               -0.64461388
               3.34865960                2.71449592               45.58232515                1.00000000               -0.37595127               -0.49823871                1.55619456               -0.01074292               -0.28137186                1.50328700
               4.34490009                2.42103080               45.43997347                1.00000000               -0.28687404               -0.31038605                1.01380222                0.02774016               -0.45010652                0.28244237
               5.34292212                2.12683499               45.29470685                1.00000000               -0.09098215               -0.13824757                0.45524648               -0.00366413               -0.39324877               -0.39536514
               6.34308045                1.83105233               45.15352599                1.00000000                0.51500473                0.06902441               -0.09028437               -0.66191887                0.90932255               -1.33767096
               7.35322222                1.52158907               45.03391036                1.00000000                0.83821945               -0.03909438               -0.77074105               -0.28270171                1.84499100                0.47368191
               8.35984484                1.20693984               44.91135302                1.00000000                0.59004413                0.29830228               -1.30498889               -0.28417241                1.97938255                0.07640185
               9.36502310                0.89375129               44.79430861                1.00000000                0.40080966                0.50670892               -1.64722657               -0.13047500                3.18452136               -0.87064699
              10.36786103                0.58675289               44.69526256                1.00000000                0.20214440                0.50533577               -1.38343983               -0.17249371                3.80403257               -0.08878930
              11.36906599                0.28999349               44.59149672                1.00000000                0.19017304                0.22963588               -0.77943011               -0.17856201                1.90158607                0.91769369
              12.37166449               -0.00177952               44.45710982                1.00000000                0.30901896                0.31083043               -1.05778440                0.00259287                0.22372248                0.23189261
              13.37524637               -0.29263342               44.32045934                1.00000000                0.35818764                0.41118580               -1.35308217               -0.01065845                0.09759380               -0.72439566
               3.64116380                3.70966577               45.52819159                1.00000000               -0.30310777               -0.46791800                1.35094390               -0.01042650               -0.00936681                1.87966842
               4.63813272                3.41818743               45.37956215                1.00000000               -0.22506712               -0.25256239                0.81391939                0.00937466                0.11504735                0.30726401
               5.63666246                3.12575966               45.23371457                1.00000000               -0.06795478               -0.04519354                0.26039314               -0.05874545                0.38284422               -0.99282310
               6.63677362                2.83207979               45.09026233                1.00000000                1.18193350                0.12306937               -0.29726014               -0.99226493                3.51547632               -1.80132982
               7.66030113                2.52030901               45.00646457                0.00010000                1.58925309                0.01419069               -1.14952231               -2.01534075                5.08259471               -0.82052746
               8.66855869                2.21058680               44.89073614                0.00010000                0.61228685                0.44312808               -1.68505192               -1.86881814                3.43293158                0.07852732
               9.67254686                1.90060470               44.77156575                1.00000000               -0.05231102                0.76565020               -2.12374052               -1.71667059                5.67878400                0.61034619
              10.66751247                1.59403956               44.69928448                1.00000000               -0.59666089                0.78019708               -2.00281544               -1.29421643                7.41255870                0.55832149
              11.66061364                1.29222993               44.61805382                1.00000000               -0.25377761                0.10880957               -0.58247181               -0.68418827                3.82573050                1.58426048
              12.66243691                1.00110309               44.48441770                1.00000000                0.24371242                0.25522445               -0.91620363               -0.05469588                0.77663794                0.70552941
              13.66548789                0.71127284               44.34322491                1.00000000                0.30509793                0.36425609               -1.18102493               -0.01794453                0.36591605               -0.69162666
               3.93140777                4.70513756               45.47391080                1.00000000               -0.24140757               -0.43031711                1.14395066               -0.02389624                0.11861604                1.67954406
               4.92899369                4.41597956               45.31783409                1.00000000               -0.17764588               -0.18022924                0.61626010               -0.00898372                0.24362091                0.08632933
               5.92785485                4.12593111               45.16447860                1.00000000               -0.01539439                0.05606309                0.09423954               -0.13635956                1.10373828               -1.49073196
               6.92868581                3.83351372               45.02540772                0.00010000                0.32767700                0.21351430               -0.46678587               -1.17349981                4.95641598               -2.28693306
               7.93440839                3.52187288               44.94853169                0.00010000                0.67434877                0.31621014               -1.04057655               -2.89781334                8.00670595               -1.36642278
               8.94217278                3.21580240               44.86823161                0.00010000                0.64142701                0.45939807               -1.49922099               -2.88075298                7.86316223                0.49348301
               9.94723693                2.90906430               44.78723767                0.00010000                0.40893446                0.61142536               -1.74863739               -2.84373501                8.04090825                2.29103239
              10.95035147                2.60235683               44.71134180                0.00010000                0.05408785                0.52048105               -1.59958092               -2.50200992                9.13247808                1.70225342
              11.94831869                2.29216968               44.65537047                0.61623319                0.05880997                0.20567676               -0.56832729               -1.10129301                5.66615083                0.41798771
              12.95152767                2.00332497               44.51862518                0.00010000                0.31146469                0.01879909               -0.84209157               -0.07150321                0.89617652                1.75677730
              13.95454798                1.71465171               44.36855307                1.00000000                0.30203131                0.10844857               -1.04234553                0.05392911                0.18279137                0.12689817
               4.21900187                5.70105943               45.41631880                1.00000000               -0.18423860               -0.37923089                0.93002294               -0.04601360                0.24994426                1.31319206
               5.21715949                5.41458284               45.25307740                1.00000000               -0.13003871               -0.08319770                0.41588060               -0.05210474                0.40717598               -0.37793098
               6.21640110                5.12688093               45.09311320                0.00010000                0.01011857                0.17486238               -0.08361749               -0.21960619                1.49689918               -1.86439900
               7.21736186                4.83635007               44.95141871                0.00010000                0.18275388                0.22490228               -0.61815047               -1.32064459                7.33753010               -1.49538877
               8.22005618                4.52663321               44.90755641                0.00010000                0.31951760                0.46099823               -0.98509717               -2.32202177               11.73137425                0.14407590
               9.22375221                4.21977476               44.85123388                0.00010000                0.45307781                0.40115118               -1.39154383               -2.40597463               10.96619071                1.19712939
              10.22911773                3.91283321               44.79066055                0.00010000                0.53073376                0.30839090               -1.61995669               -2.48514195               10.75180256                2.01757711
              11.23436689                3.60444918               44.72976220                0.00010000                0.42509551                0.16390021               -1.57917465               -2.39413697               10.21521520                2.17833885
              12.23761964                3.29634347               44.65957480                0.00010000                0.20789673                0.30948122               -1.46130956               -1.33715206                8.40441443                0.69883647
              13.23852482                3.00147907               44.56775233                0.00010000                0.31466780               -0.25464679               -0.80496746               -0.33841309                3.48847546                2.81185438
              14.24391300                2.71344181               44.40821100                0.00010000                0.53881789               -0.30754939               -1.00405506                0.16302883                0.09858516                0.81481988
               4.50344068                6.69755294               45.35507086                1.00000000               -0.13105740               -0.31069155                0.71539524               -0.04224883                0.08699561                0.98026710
               5.50213010                6.41431560               45.18196814                0.00010000               -0.08725918                0.01191411                0.19579984               -0.06940333                0.43212101               -0.75875921
               6.50169549                6.12942836               45.01586493                0.00010000                0.01952625                0.32736320               -0.29499635               -0.43882369                3.37428949               -2.38054994
               7.50252063                5.83801177               44.90138953                0.00010000                0.14238876                0.08782318               -0.34683974               -1.52799301               10.52887394                1.26789739
               8.50454327                5.53109285               44.87708038                0.00010000                0.26663308                0.42226801               -0.97132753               -2.31389542               14.51119215                1.06044627
               9.50785329                5.22382542               44.83868577                0.00010000                0.41582035                0.39592807               -1.37984380               -2.39308427               13.72992603                1.73498732
              10.51285968                4.91523212               44.79604088                0.00010000                0.55525903                0.24694321               -1.66161230               -2.51446365               13.34956440                2.41672661
              11.51895847                4.60563483               44.74845285                0.00010000                0.58430381                0.10948572               -1.81381866               -2.36374201               12.65996931                2.74839521
              12.52454575                4.29835930               44.69268047                0.00010000                0.43512981                0.06320213               -1.79152446               -1.61694314               11.31001483                2.97657397
              13.52766107                3.99823203               44.62319506                0.00010000                0.46686665               -0.19864995               -0.98533611               -0.49364892                5.13620438                2.88642840
              14.53388309                3.70850072               44.45133839                0.00010000                0.62220184               -0.31831098               -1.30849903                0.06896073                0.02576823                0.33514407
               4.78463157                7.69484560               45.29105674                0.00010000               -0.07355724               -0.22993377                0.50263117               -0.03435361                0.02437091                0.78732818
               5.78389600                7.41482112               45.10930813                0.00010000               -0.03515542                0.07521997               -0.00547938               -0.04388531                0.31305405               -0.83651108
               6.78392846                7.13342819               44.93335992                0.00010000                0.06207575                0.42858277               -0.50486913               -0.74982430                6.86093256               -2.69201590
               7.78513751                6.83810654               44.88228928                0.00010000                0.20180739                0.16601861               -0.49888459               -1.69921058               14.35857907                1.57071740
               8.78796461                6.53507857               44.85243070                0.00010000                0.33068718                0.39780653               -1.03559749               -2.19615842               15.97290766                1.41181900
               9.79175126                6.22769332               44.82975976                0.00010000                0.45272208                0.39692257               -1.45161114               -2.45974535               16.40594609                2.02554484
              10.79701905                5.91777207               44.80481544                0.00010000                0.61068011                0.28275369               -1.80457893               -2.61057280               16.19568921                2.81152851
              11.80396486                5.60663889               44.77502365                0.00010000                0.78322644                0.11376520               -2.11018510               -2.49922460               15.52744797                3.63503119
              12.81268358                5.29760751               44.73585589                0.00010000                0.72727837               -0.13118768               -2.30225116               -1.66501732               13.67240860                4.24472816
              13.81851043                4.99750607               44.67201002                0.00010000                0.60356315                0.06336766               -1.31891621               -0.46604990                6.11543800                2.34247589
              14.82475484                4.70707559               44.48647527                0.00010000                0.62444168                0.07369822               -1.79451415                0.04043903                0.05958554               -0.51354510
               5.06280256                8.69295426               45.22608864                0.00010000               -0.01327523               -0.14896834                0.29269323               -0.03138722                0.00791747                0.72519119
               6.06266981                8.41582000               45.03635647                0.00010000                0.03055167                0.12070983               -0.20221794               -0.00486979                0.12954652               -0.82532405
               7.06341359                8.13800002               44.84901958                0.00010000                0.21081143                0.44272332               -0.70179734               -0.90226033                9.03741742               -2.71405374
               8.06688604                7.84133214               44.83710663                0.00010000                0.38098615                0.39388122               -0.86065627               -1.82219617               18.20214903               -0.08726593
               9.07103332                7.53904898               44.82778092                0.00010000                0.45394227                0.41191390               -1.19403288               -2.12637237               18.76048727                1.16142113
              10.07596488                7.23176388               44.82160385                0.00010000                0.53346673                0.42133358               -1.58225312               -2.38021505               19.22825018                1.96557249
              11.08170265                6.92088719               44.81642606                0.00010000                0.65868298                0.37006039               -1.99062874               -2.61116992               19.37193055                2.93140567
              12.08913854                6.60791014               44.80862111                0.00010000                0.93377868                0.21516903               -2.49222024               -2.69108427               18.84183541                4.29614819
              13.10037823                6.29573555               44.78965167                0.00010000                0.98667250               -0.12479054               -3.10001258               -1.69307829               15.46006291                5.92423033
              14.10887199                5.99949939               44.71445058                0.00010000                0.75873047                0.30547907               -1.66091798               -0.33723746                6.28676774                1.89033188
              15.11555283                5.70997468               44.51415041                0.00010000                0.66808430                0.44904753               -2.26752533                0.04636224                0.08418453               -1.09908502
               5.33827235                9.69186623               45.16094914                0.00010000                0.04804985               -0.06793969                0.08663170               -0.03116727                0.00789050                0.72841096
               6.33875285                9.41723532               44.96362281                0.00010000                0.10493845                0.16167449               -0.40339611                0.01392331               -0.03978616               -0.78058068
               7.34037112                9.14228266               44.76523992                0.00010000                0.44458901                0.40095948               -0.89422151               -0.98844132               10.76950560               -2.38434125
               8.34764463                8.84598416               44.78366380                0.00010000                0.73171528                0.41171160               -1.09435984               -1.86812258               21.71432846               -0.50009684
               9.35500543                8.54331685               44.79754542                0.00010000                0.73320574                0.35806031               -1.38812920               -1.90481227               21.82487419                0.68560571
              10.36230875                8.23611999               44.81108503                0.00010000                0.68219835                0.44006182               -1.74825267               -2.01521454               22.27025843                1.55004865
              11.36864939                7.92517328               44.82696464                0.00010000                0.64930351                0.52293020               -2.19058653               -2.27811922               22.90855630                2.53379207
              12.37529482                7.61094227               44.84719955                0.00010000                0.92916867                0.47052966               -2.82245261               -2.66162610               23.16882871                4.15975441
              13.38723277                7.29511170               44.86339327                0.00010000                1.11158648                0.16738397               -4.14888037               -1.74040167               16.77855487                8.04641899
              14.39752654                7.00361565               44.75240154                0.00010000                0.87493648                0.49094490               -1.95172599               -0.20801395                5.24592997                1.60590245
              15.40473150                6.71605654               44.53702733                0.00010000                0.72049513                0.70744877               -2.66176774                0.04302538                0.09787148               -1.44266890
               5.61144104               10.69159547               45.09615039                0.00010000                0.10908085                0.01279977               -0.12352331               -0.03155842               -0.01335934                0.65369636
               6.61253185               10.41905349               44.89122598                0.00010000                0.17274410                0.20361013               -0.60500742                0.00639664                0.01560965               -0.63378070
               7.61489592               10.14601921               44.68671645                0.00010000                0.79787707                0.37288408               -1.07981666               -1.11685497               12.45844754               -1.48073156
               8.62848939                9.84956637               44.73016892                0.00010000                1.39526575                0.05678551               -1.29803566               -1.46337710               24.78441366               -0.34265644
               9.64280124                9.54621018               44.76393272                0.00010000                1.26573833                0.20698520               -1.58230364               -1.25842910               24.64249320                0.31562538
              10.65380416                9.24056511               44.79534071                0.00010000                0.92583748                0.42731854               -1.93428286               -1.18449747               25.14770375                0.85292492
              11.66131799                8.93134579               44.83089797                0.00010000                0.60817204                0.67901524               -2.39161481               -1.41333042               26.29461269                1.49814193
              12.66596760                8.61732073               44.87786294                0.00010000                0.57894100                0.89406289               -3.06137464               -1.94095128               28.87855538                2.77350247
              13.67289681                8.29908323               44.95860338                0.00010000                0.88996365                0.82355842               -4.29524148               -1.56961135               18.33206353                5.98670196
              14.68376687                8.00931828               44.78762284                0.00010000                0.93173813                0.61211225               -2.15531747               -0.24010037                2.95368066                1.24904812
              15.69153157                7.72412366               44.55648923                0.00010000                0.77646986                0.86208360               -2.96633440                0.02488656                0.02975953               -1.35655317
               5.88272514               11.69212223               45.02956213                0.00010000                0.17319060                0.05267592               -0.33081480                0.04693910                0.34850194                0.56491616
               6.88445705               11.42130752               44.82107414                0.00010000                0.23980012                0.22540312               -0.80995023                0.07342497                0.74682873               -0.50206458
               7.88752114               11.14974034               44.62032121                0.00010000                1.68645324                0.37211316               -1.27869225               -1.44686071               14.23222620               -0.84052052
               8.91818611               10.84711987               44.68100972                0.00010000                2.56584797               -0.24464973               -1.50572025               -1.14451742               27.24791734               -0.29285578
               9.93883810               10.54745655               44.72827510                0.00010000                1.76485376                0.12463692               -1.79160950               -0.51898915               26.93466779                0.07669014
              10.95348319               10.24466637               44.77264672                0.00010000                1.23945324                0.41012530               -2.13934429               -0.46724568               27.48003899                0.38220388
              11.96362717                9.93875359               44.82194687                0.00010000                0.76275843                0.74077922               -2.58962426               -0.56122399               28.95387418                0.76486855
              12.96873835                9.62882353               44.88788042                0.00010000                0.01079093                1.15027999               -3.25466514               -1.08146039               32.03962970                1.67544476
              13.96384299                9.31158287               44.99030239                0.00010000               -0.05271235                1.24996401               -3.99420850               -1.55366391               20.89623736                3.04167798
              14.96768411                9.01585790               44.81707731                0.00010000                0.58877469                0.65396153               -2.26087754               -0.52250940                3.97631383                1.02415640
              15.97561848                8.73329821               44.57933000                0.00010000                0.79343715                0.91745533               -3.13076270                0.15272195                0.84101178               -1.08286809
               3.18737714                1.79441815               46.66310863                1.00000000               -0.48705992               -0.55351888                1.90183660               -0.11483983               -1.22055837                1.12373304
               4.18250654                1.48982015               46.51489870                1.00000000               -0.41540406               -0.34959125                1.27825201               -0.06363064               -1.67449968                0.19488102
               5.17906906                1.18452203               46.35831996                1.00000000               -0.28887324               -0.15715481                0.64873061               -0.07956788               -1.77002997               -0.20863057
               6.17672908                0.87674292               46.20876748                1.00000000               -0.35937036                0.09257517                0.01663386               -0.60531931               -1.42946595               -0.94565786
               7.17188165                0.55555903               46.05969893                0.00010000               -0.08377325                0.13729809               -0.58501578               -0.20266634               -1.08854447                0.17665708
               8.17505361                0.22631310               45.92092321                1.00000000                0.55432900                0.31830050               -1.14058718               -0.22651792               -0.37444033               -0.02028031
               9.18296823               -0.10210870               45.78961090                1.00000000                1.06805593                0.45438396               -1.60828548               -0.04873282                0.74642386               -0.45358919
              10.19641473               -0.42283885               45.67581210                1.00000000                1.21315186                0.40111052               -1.61011851               -0.04217311                1.46585212               -0.29135202
              11.20723127               -0.72879507               45.55819710                1.00000000                0.75311389                0.21214245               -0.97009973               -0.17856151                0.58121888                0.82319687
              12.21147701               -1.02930932               45.42056977                1.00000000                0.43197717                0.33080118               -1.22805393               -0.04586584               -0.52511965                0.09051601
              13.21587081               -1.32850213               45.28054877                1.00000000                0.43938047                0.44600344               -1.57357425               -0.07480160               -0.62871566               -0.60293964
               3.49082674                2.78888296               46.59845723                1.00000000               -0.40084507               -0.53642322                1.67780919               -0.00854136               -0.29295230                1.49969724
               4.48681829                2.48632424               46.45030832                1.00000000               -0.30073740               -0.32279788                1.05548001                0.03466431               -0.47198633                0.28594058
               5.48481200                2.18295049               46.29910972                1.00000000               -0.08304557               -0.12642935                0.42301124                0.00147917               -0.41891726               -0.38661536
               6.48515738                1.87766867               46.15210814                1.00000000                0.51289506                0.12145234               -0.20001727               -0.72773023                0.82479011               -1.32185727
               7.49506990                1.55693201               46.02545843                1.00000000                0.82324571                0.02452516               -0.91343627               -0.33574792                1.70608457                0.40622155
               8.50162230                1.22949610               45.89714367                1.00000000                0.59934885                0.38921438               -1.52722098               -0.33544355                1.96802367                0.01465034
               9.50705687                0.90243514               45.77603933                1.00000000                0.38569434                0.65929936               -2.01916328               -0.17967786                3.59830965               -1.04350629
              10.50933618                0.58117226               45.67973285                1.00000000                0.08120075                0.74983596               -1.83560183               -0.21503251                4.83063749               -0.53816175
              11.50868089                0.27332636               45.58411997                1.00000000                0.07678485                0.19834682               -0.67796331               -0.34226473                2.48922384                0.94277882
              12.51087188               -0.02600131               45.44676062                1.00000000                0.28173578                0.29883382               -1.00499644               -0.00143278                0.23091250                0.23179605
              13.51431561               -0.32404210               45.30697874                1.00000000                0.34437248                0.41781004               -1.35374626               -0.02179923                0.09246275               -0.66477420
               3.79232377                3.78368969               46.54216392                1.00000000               -0.31914608               -0.50044227                1.45009969               -0.01015550               -0.01827687                1.87158105
               4.78913231                3.48336419               46.38780464                1.00000000               -0.22847773               -0.26043327                0.83626980                0.01120598                0.09553250                0.31407091
               5.78775421                3.18199345               46.23607468                1.00000000               -0.04696819               -0.02876386                0.20871761               -0.06497617                0.35518411               -0.96177545
               6.78819294                2.87917196               46.08673974                1.00000000                1.27925239                0.17409086               -0.41560285               -1.11348353                3.33637316               -1.77370388
               7.81333926                2.55604954               45.99392241                0.00010000                1.73243349                0.09983371               -1.35744711               -2.22627492                4.84758643               -0.67488965
               8.82284161                2.23409738               45.87227488                1.00000000                0.71796290                0.60941322               -1.99822525               -2.13418496                3.40703897                0.27228767
               9.82769852                1.91107729               45.74791226                1.00000000               -0.08093733                1.05133798               -2.58890701               -2.03316439                5.98583859                0.81093626
              10.82122286                1.59215787               45.67546149                1.00000000               -1.00694886                1.19763403               -2.98178686               -1.78956284                9.06990733                0.63873395
              11.80755954                1.27517187               45.61302298                1.00000000               -0.62030298                0.06871309               -0.40328017               -1.08837503                4.86129235                1.47512034
              12.80881681                0.97666736               45.47579427                1.00000000                0.19784304                0.22194987               -0.79117559               -0.07274026                0.71462051                0.65973407
              13.81151640                0.67985407               45.33179329                1.00000000                0.26995958                0.35275189               -1.11620128               -0.03357431                0.33543623               -0.62893667
               4.09127463                4.77887412               46.48570426                1.00000000               -0.25359721               -0.45392202                1.21965117               -0.02639061                0.11335729                1.66519502
               5.08873866                4.48111557               46.32401175                1.00000000               -0.17849625               -0.17987748                0.61979912               -0.01154990                0.23826834                0.09299724
               6.08770470                4.18237521               46.16506477                1.00000000                0.00464828                0.08037175                0.02066188               -0.14691717                1.08202173               -1.44703409
               7.08883162                3.88115048               46.02005173                0.00010000                0.39571379                0.26699041               -0.61209314               -1.27598493                4.90786493               -2.21926395
               8.09561898                3.55892869               45.93712261                0.00010000                0.75396114                0.45474339               -1.25459877               -3.13856850                8.00423784               -0.98837528
               9.10391084                3.24168437               45.85195630                0.00010000                0.63570603                0.69023967               -1.76687588               -3.19712509                8.01063377                0.95432504
              10.10833310                2.92346190               45.76825608                0.00010000                0.27697522                0.94200521               -2.07362291               -3.22707120                8.50308413                2.85479035
              11.10945035                2.60512494               45.69439223                0.00010000               -0.29645969                0.82159178               -1.78471761               -3.28790564               10.23082551                2.30091648
              12.10240390                2.27470062               45.65042415                0.26742999               -0.23577368                0.47354952               -0.41056619               -1.49131350                6.37461356               -0.22867491
              13.10473487                1.97843769               45.51101966                0.00010000                0.24333922                0.00955179               -0.66051554               -0.02556682                0.84088532                1.62955649
              14.10727069                1.68301294               45.35883669                1.00000000                0.25358149               -0.01446542               -0.91744455                0.14795637                0.15650516                0.10920570
               4.38731305                5.77461125               46.42587651                1.00000000               -0.19128300               -0.39437127                0.98536625               -0.05074952                0.25002107                1.29655727
               5.38540022                5.47976664               46.25717357                1.00000000               -0.12660461               -0.07345612                0.40070619               -0.05822017                0.41469413               -0.38064386
               6.38478096                5.18360088               46.09189826                0.00010000                0.03597721                0.20994738               -0.16555397               -0.23441820                1.49736059               -1.84397298
               7.38611976                4.88451177               45.94448911                0.00010000                0.26265267                0.26128834               -0.76824869               -1.37213378                7.40960026               -1.17293311
               8.39003401                4.56514440               45.89684968                0.00010000                0.41230670                0.58828224               -1.17027077               -2.42913354               11.87910211                0.48332881
               9.39436590                4.24790218               45.83632859                0.00010000                0.48412560                0.58758619               -1.60630818               -2.53964839               11.18655791                1.59134179
              10.39971652                3.92991740               45.77363220                0.00010000                0.49300699                0.51594664               -1.80350849               -2.67702243               11.20176648                2.39987163
              11.40422604                3.60858971               45.71371350                0.00010000                0.23519995                0.32411958               -1.64814654               -2.75128359               10.85617194                2.31922725
              12.40442052                3.28464286               45.64572202                0.00010000               -0.21164446                0.78906183               -1.33213001               -1.58744157                9.25102906                0.09075871
              13.39999315                2.97685839               45.56049228                0.00010000                0.04522509               -0.16713988               -0.64661710               -0.42597715                3.93986262                2.62217798
              14.40532502                2.67956476               45.39871670                0.00010000                0.53318753               -0.54650175               -0.92870057                0.28528586                0.09936466                0.47069879
               4.67994885                6.77098669               46.36241764                1.00000000               -0.13642295               -0.31997421                0.75751237               -0.04326845                0.07564221                0.96690257
               5.67858462                6.47964645               46.18380546                0.00010000               -0.08388190                0.02629436                0.17052524               -0.07177356                0.43337002               -0.75995613
               6.67827121                6.18657416               46.01246361                0.00010000                0.06304015                0.36988034               -0.39434182               -0.47392896                3.63282160               -2.37272448
               7.67984542                5.88637625               45.89755347                0.00010000                0.26873456                0.13719405               -0.42653703               -1.50542837               10.73901213                1.56702423
               8.68364590                5.57069433               45.86657506                0.00010000                0.42497320                0.50871027               -1.13997058               -2.31080475               14.53845302                1.35225221
               9.68834489                5.25343609               45.82412615                0.00010000                0.52296093                0.50870925               -1.54676009               -2.43701443               13.96645497                2.05375137
              10.69410512                4.93378084               45.77888058                0.00010000                0.56771629                0.36783846               -1.78599612               -2.61107659               13.73862820                2.66276447
              11.69969921                4.61160733               45.73029805                0.00010000                0.41406347                0.28520916               -1.83540876               -2.54663786               13.21024425                2.74678083
              12.70238639                4.29048186               45.67557659                0.00010000                0.07971089                0.38874007               -1.65829244               -1.86866848               12.23693416                2.68855886
              13.70129343                3.97509489               45.61365535                0.00010000                0.25886378               -0.05421558               -0.94167237               -0.58124412                5.73525364                2.62866874
              14.70756366                3.67208291               45.43798908                0.00010000                0.62702356               -0.46577733               -1.42249848                0.09750666                0.04418366               -0.26975074
               4.96912817                7.76821176               46.29622515                0.00010000               -0.07508827               -0.23602581                0.53407299               -0.03494891                0.01971125                0.77733822
               5.96837728                7.48029253               46.10910034                0.00010000               -0.02777961                0.08932244               -0.03767102               -0.04119692                0.31167292               -0.82631456
               6.96857257                7.19099849               45.92784729                0.00010000                0.17568663                0.47038303               -0.60305376               -0.76993781                7.11661888               -2.67599730
               7.97189102                6.88725565               45.87644623                0.00010000                0.40927511                0.23597541               -0.68219540               -1.66486900               14.65264483                1.57183620
               8.97675808                6.57531861               45.84139256                0.00010000                0.53240445                0.44417725               -1.18340059               -2.17481425               16.09909990                1.62156158
               9.98253911                6.25807636               45.81460175                0.00010000                0.62828362                0.44442463               -1.59131674               -2.46393540               16.65395381                2.27353810
              10.98932375                5.93727416               45.78634424                0.00010000                0.70265765                0.34747184               -1.89767155               -2.62846774               16.54042212                2.99061594
              11.99659226                5.61429389               45.75401502                0.00010000                0.71179202                0.23611373               -2.09876535               -2.50748255               15.97940260                3.59068956
              13.00355959                5.29241766               45.71385299                0.00010000                0.50874775                0.09255014               -2.12446160               -1.77945411               14.65846478                3.80146473
              14.00676721                4.97577408               45.65861859                0.00010000                0.48697671                0.18625454               -1.37405391               -0.54423035                6.85302660                2.07542158
              15.01329912                4.67024922               45.46754632                0.00010000                0.65319097                0.08159956               -2.03352595                0.05892891                0.08603389               -1.08745214
               5.25508834                8.76626618               46.22911202                0.00010000               -0.01143826               -0.15454004                0.31438651               -0.03366694                0.01081434                0.71902691
               6.25497396                8.48143290               46.03414497                0.00010000                0.04104967                0.13664749               -0.24239975               -0.00036562                0.13067275               -0.81677842
               7.25590933                8.19598182               45.84153918                0.00010000                0.36269819                0.48299262               -0.80061694               -0.92025430                9.21199113               -2.69044933
               8.26222792                7.89109576               45.82778322                0.00010000                0.67097874                0.42329107               -1.01002528               -1.84670015               18.51736938               -0.09510189
               9.26932891                7.57957788               45.81518597                0.00010000                0.74413521                0.40858474               -1.33620569               -2.14643447               19.02810151                1.30150420
              10.27711062                7.26232458               45.80520447                0.00010000                0.79946650                0.40686932               -1.70607790               -2.38328238               19.51562393                2.15599678
              11.28531824                6.94073027               45.79607862                0.00010000                0.86477200                0.37352301               -2.07780912               -2.59247573               19.66622138                3.07609134
              12.29440606                6.61632960               45.78366126                0.00010000                0.99994407                0.25300715               -2.47991238               -2.60311671               19.11130566                4.22986764
              13.30531712                6.29233286               45.75994254                0.00010000                0.90856023               -0.00301683               -2.83840874               -1.73453419               16.56722266                5.19348767
              14.31257727                5.97881998               45.69727355                0.00010000                0.72374269                0.39866299               -1.77862772               -0.42949309                7.28113844                1.67891810
              15.31979197                5.67371490               45.49009375                0.00010000                0.72147034                0.51835484               -2.55989635                0.06043871                0.10451972               -1.53947476
               5.53812139                9.76512096               46.16187102                0.00010000                0.05329460               -0.07228982                0.09895348               -0.03228594                0.00727515                0.72087631
               6.53865433                9.48302548               45.95934395                0.00010000                0.11916204                0.18000252               -0.45358880                0.01857192               -0.03803642               -0.77326038
               7.54050463                9.20065834               45.75580746                0.00010000                0.63533096                0.43855391               -0.99692636               -1.03943393               10.92872825               -2.35473296
               8.55136095                8.89572147               45.77212858                0.00010000                1.10479691                0.37756456               -1.22106986               -1.94641194               22.04063767               -0.44533203
               9.56260056                8.58349031               45.78307750                0.00010000                1.11800567                0.28426862               -1.51602572               -1.95227945               22.14913466                0.79081872
              10.57372106                8.26621375               45.79305648                0.00010000                1.04343234                0.36410545               -1.86362658               -2.02371839               22.60053197                1.68792593
              11.58346921                7.94474462               45.80454412                0.00010000                0.96031369                0.46664384               -2.28501679               -2.25798773               23.17609255                2.64036193
              12.59292734                7.61935403               45.81833878                0.00010000                1.14546579                0.47300346               -2.89996026               -2.57579644               23.10829649                4.13333426
              13.60637853                7.29235732               45.82216826                0.00010000                1.19339871                0.21720811               -3.94054373               -1.76355275               18.05233300                7.41855381
              14.61679531                6.98374734               45.73205006                0.00010000                0.91697685                0.56587455               -2.11602715               -0.29311888                6.70452826                1.47730552
              15.62471806                6.68061631               45.50880415                0.00010000                0.79227520                0.79513729               -2.98062949                0.05032271                0.11418801               -1.76118702
               5.81863359               10.76482038               46.09491213                0.00010000                0.11744296                0.01148190               -0.12255169               -0.03253886               -0.01194704                0.64389089
               6.81980802               10.48503295               45.88490046                0.00010000                0.18955363                0.22318814               -0.66263797                0.00869555                0.02168301               -0.62674258
               7.82242466               10.20475289               45.67539262                0.00010000                1.03298499                0.40865896               -1.18944500               -1.23233378               12.61084688               -1.45308380
               8.84046772                9.89864705               45.71663590                0.00010000                1.86831916               -0.06617940               -1.41898559               -1.57109546               25.11419724               -0.30181164
               9.85979104                9.58526325               45.74755637                0.00010000                1.74571102                0.07498801               -1.70397047               -1.30470663               24.99684291                0.37980233
              10.87538194                9.26960669               45.77546687                0.00010000                1.36135771                0.30334855               -2.04559665               -1.18978974               25.50926587                0.93156026
              11.88701820                8.95006315               45.80636928                0.00010000                0.99477490                0.57890600               -2.49861004               -1.37927009               26.57520754                1.55635363
              12.89527743                8.62578967               45.84616508                0.00010000                0.93172800                0.84867113               -3.21356868               -1.85150647               28.70501021                2.74210876
              13.90565276                8.29667702               45.91118222                0.00010000                1.15892344                0.93314693               -4.89294003               -1.47869835               19.75657895                6.03730533
              14.91845590                7.99013747               45.76505256                0.00010000                1.07038618                0.67839841               -2.35554116               -0.31966417                4.64705248                1.21967980
              15.92706048                7.68961764               45.52505349                0.00010000                0.86045770                0.96188644               -3.30932238                0.02815489                0.03090496               -1.54871029
               6.09704547               11.76535060               46.02619879                0.00010000                0.18502556                0.05302206               -0.34064075                0.05505269                0.34014079                0.55591806
               7.09889573               11.48748924               45.81264237                0.00010000                0.25991878                0.24562938               -0.87840373                0.08281712                0.74554401               -0.49637876
               8.10224385               11.20883152               45.60695342                0.00010000                2.02664783                0.40786252               -1.40090176               -1.67264898               14.37359482               -0.81757585
               9.13942868               10.89439788               45.66535915                0.00010000                3.16514719               -0.42491656               -1.63615243               -1.29597586               27.57183797               -0.28614522
              10.16554679               10.58499007               45.70976139                0.00010000                2.28483433               -0.02731859               -1.92339713               -0.53028336               27.29719974                0.09621365
              11.18512537               10.27228072               45.75067845                0.00010000                1.70770175                0.26740284               -2.26052400               -0.45902259               27.87205116                0.40465528
              12.19970083                9.95632274               45.79540738                0.00010000                1.20789829                0.62595951               -2.70422224               -0.52940013               29.26631714                0.76544969
              13.20928334                9.63632746               45.85385360                0.00010000                0.63779668                1.05377828               -3.46553488               -0.86453381               32.11585325                1.58660051
              14.21245676                9.31102026               45.94547843                0.00010000                0.40890344                1.43432425               -4.78990878               -1.27020702               22.35159723                3.37104676
              15.21746141                8.99731531               45.79335318                0.00010000                0.69320294                0.71778351               -2.48458300               -0.65776087                5.53840651                1.04616619
              16.22632082                8.69985404               45.54618295                1.00000000                0.88594136                1.02363972               -3.48640163                0.17990724                0.87339230               -1.20627410
               3.32645711                1.87140801               47.68285253                1.00000000               -0.52414501               -0.59734420                2.05257812               -0.12932033               -1.21923308                1.11460086
               4.32121566                1.55747354               47.52798372                1.00000000               -0.44846130               -0.36298570                1.34029146               -0.07255535               -1.67513810                0.19348116
               5.31748789                1.24277248               47.36475269                1.00000000               -0.32089350               -0.14245286                0.63661421               -0.09282771               -1.77038591               -0.20966275
               6.31479779                0.92510484               47.20853745                1.00000000               -0.47859158                0.15380884               -0.06511667               -0.64039721               -1.38540348               -0.92929092
               7.30791605                0.59310504               47.05362971                1.00000000               -0.28971016                0.23849772               -0.62663542               -0.22729816               -0.99335947                0.14988933
               8.30900359                0.25177423               46.90917404                1.00000000                0.35464702                0.41069426               -1.19838999               -0.26607693               -0.30555216               -0.02209078
               9.31500899               -0.09145813               46.77264693                1.00000000                0.94658930                0.60379419               -1.75812828               -0.13638548                0.94386357               -0.50019990
              10.32793537               -0.42973571               46.65806968                1.00000000                1.37550956                0.60759737               -1.96160572                0.03145337                2.11228263               -0.49832990
              11.34251919               -0.74774460               46.54874351                1.00000000                0.94843577                0.17677800               -0.87477438               -0.36710733                1.28053594                0.86071853
              12.34690409               -1.05568489               46.40820900                1.00000000                0.44708870                0.33167854               -1.22468382               -0.05426223               -0.44816974                0.10238751
              13.35146096               -1.36186961               46.26441482                1.00000000                0.45568699                0.46961885               -1.67404283               -0.09863121               -0.60070796               -0.56752157
               3.63909838                2.86543457               47.61588133                1.00000000               -0.42905057               -0.57788211                1.81265153               -0.00610243               -0.29949115                1.48414449
               4.63480787                2.55384368               47.46108307                1.00000000               -0.31772098               -0.33540622                1.10047577                0.04151662               -0.48502654                0.28554889
               5.63274396                2.24134795               47.30316708                1.00000000               -0.07901667               -0.11016887                0.38625042                0.00711951               -0.43472964               -0.37870708
               6.63322754                1.92664293               47.14952565                1.00000000                0.47822098                0.17786403               -0.32115812               -0.75011837                0.77746196               -1.29716201
               7.64230838                1.59549002               47.01564163                1.00000000                0.76984341                0.10209955               -1.04148081               -0.34800478                1.60089583                0.34146013
               8.64862441                1.25588117               46.88080860                1.00000000                0.60458642                0.47228475               -1.72257466               -0.36020886                1.91410740               -0.00931490
               9.65440011                0.91457981               46.75392535                1.00000000                0.38843665                0.80324101               -2.37891401               -0.27364322                3.92841293               -1.11903806
              10.65639314                0.57634027               46.65855052                1.00000000               -0.12887015                1.09452830               -2.51076580               -0.23460547                6.28724713               -1.21981604
              11.65182270                0.25402318               46.57793745                1.00000000               -0.14845827                0.15863806               -0.56887767               -0.68604265                3.44861540                0.94097513
              12.65342397               -0.05236810               46.43700989                1.00000000                0.24183345                0.28618078               -0.92751472               -0.00708429                0.23707014                0.23215559
              13.65665937               -0.35717342               46.29338442                1.00000000                0.32353977                0.43528817               -1.39324011               -0.04365131                0.08083737               -0.60052609
               3.94951683                3.85985037               47.55719358                1.00000000               -0.33842234               -0.53528481                1.56052545               -0.01041748               -0.02517266                1.84872168
               4.94613261                3.55076541               47.39628755                1.00000000               -0.23429010               -0.26865580                0.86187955                0.01547039                0.07973661                0.31722451
               5.94483103                3.24056910               47.23788892                1.00000000               -0.02396259               -0.00905483                0.14880669               -0.06959738                0.33437223               -0.92921908
               6.94565336                2.92866212               47.08195027                1.00000000                1.34433426                0.23680720               -0.55614728               -1.19321735                3.16301747               -1.73830154
               7.97171772                2.59514703               46.97931563                1.00000000                1.85281325                0.18440482               -1.55255093               -2.35809981                4.55695532               -0.48743317
               8.98270962                2.26121992               46.85077164                1.00000000                0.86796585                0.74770140               -2.28413937               -2.39563794                3.27808204                0.57793597
               9.98907703                1.92460669               46.71978761                1.00000000                0.05451342                1.29301790               -2.98361737               -2.43012430                5.87971050                1.22347314
              10.98379989                1.59215486               46.63964874                1.00000000               -1.57851648                1.68914391               -4.15088688               -2.63858792               11.27586804                0.98220530
              11.95750670                1.25542816               46.60998822                1.00000000               -1.29204405                0.04369817               -0.20533994               -1.73776528                6.57338821                1.26597562
              12.95795901                0.95003873               46.46859419                1.00000000                0.13459370                0.17930954               -0.61385125               -0.10415762                0.63007836                0.61283772
              13.96019858                0.64683615               46.32090088                1.00000000                0.22395672                0.35429198               -1.09827710               -0.05102545                0.28873753               -0.57171045
               4.25705993                4.85472887               47.49830382                1.00000000               -0.26613885               -0.47865881                1.30622740               -0.03126347                0.11021936                1.63773738
               5.25439854                4.54847057               47.33023007                1.00000000               -0.18023134               -0.17945800                0.62142883               -0.01315024                0.23296542                0.09662814
               6.25345531                4.24116686               47.16489184                1.00000000                0.01933593                0.10167620               -0.04875624               -0.14448770                1.05937665               -1.39241505
               7.25478526                3.93137907               47.01316586                0.00010000                0.45666366                0.33637754               -0.78621917               -1.35198237                4.87425774               -2.15221726
               8.26258858                3.59917812               46.92343971                0.00010000                0.82333662                0.58501568               -1.48516186               -3.32314204                8.00487259               -0.53083028
               9.27125199                3.27083520               46.83289409                0.00010000                0.61370521                0.91059095               -2.05223120               -3.53733614                8.15245646                1.56231149
              10.27486268                2.94044017               46.74576521                0.00010000                0.07739549                1.27997274               -2.44343077               -3.70104659                9.09870375                3.63793971
              11.27279990                2.61012315               46.67564745                0.00010000               -0.78395765                1.13865213               -1.98564919               -4.49712012               11.65700626                3.47928285
              12.25918353                2.25489715               46.64715914                0.00010000               -0.64335352                0.87890214               -0.29677644               -2.02751608                7.39918307               -0.93375786
              13.25993283                1.95121809               46.50541487                0.00010000                0.14302437                0.06241058               -0.45093580                0.06918256                0.85258687                1.45789785
              14.26204402                1.64991242               46.35020418                0.00010000                0.21111832               -0.15663786               -0.83207827                0.33207709                0.13024361                0.01229332
               4.56140817                5.85027719               47.43602613                1.00000000               -0.19765522               -0.40932579                1.05186134               -0.05419546                0.24637662                1.27339355
               5.55943162                5.54717625               47.26109152                1.00000000               -0.11877006               -0.06404254                0.37717785               -0.06607862                0.41753185               -0.38104632
               6.55903277                5.24260263               47.08980212                0.00010000                0.05854151                0.24289955               -0.25995367               -0.23189880                1.49142137               -1.80036923
               7.56060245                4.93538967               46.93605374                0.00010000                0.33829886                0.30080306               -0.93044509               -1.36755573                7.49795526               -0.80245353
               8.56579875                4.60684735               46.88415100                0.00010000                0.50491997                0.72084484               -1.37984999               -2.49034301               12.05269069                0.90731490
               9.57070085                4.27943174               46.81910772                0.00010000                0.49847024                0.78960426               -1.85256410               -2.65081656               11.47683626                2.11146917
              10.57576815                3.95020614               46.75459039                0.00010000                0.43498296                0.76676013               -2.03248135               -2.89530887               11.80731574                2.96773488
              11.57940051                3.61492790               46.69679927                0.00010000                0.00466430                0.50728882               -1.78195557               -3.17662472               11.76708532                2.59615178
              12.57586144                3.27300621               46.63293220                0.00010000               -0.75365591                1.45511782               -1.28603238               -1.84486797               10.36705766               -0.50233992
              13.56432739                2.95128694               46.55481999                0.00010000               -0.32049872                0.07305074               -0.49571986               -0.46410006                4.52994015                2.36591858
              14.56945146                2.64370339               46.38963699                0.00010000                0.51240739               -0.78181648               -0.94718006                0.44440921                0.13930952               -0.07877443
               4.86217789                6.84654235               47.37022110                1.00000000               -0.14263595               -0.32896005                0.80638840               -0.04190177                0.06273526                0.95322142
               5.86075153                6.54718972               47.18537865                0.00010000               -0.07869904                0.03895322                0.14434394               -0.07209062                0.42889842               -0.75457376
               6.86060391                6.24602485               47.00797810                0.00010000                0.12189469                0.41150263               -0.50272207               -0.49562032                3.93515644               -2.35037672
               7.86318943                5.93739513               46.89285878                0.00010000                0.40678669                0.19619204               -0.52305791               -1.41935710               10.98311036                1.88023947
               8.86873965                5.61359501               46.85428097                0.00010000                0.58437201                0.60257737               -1.32975002               -2.23877556               14.58560250                1.70850383
               9.87487687                5.28662728               46.80775057                0.00010000                0.63603487                0.63270148               -1.74429569               -2.43209185               14.29490962                2.46995359
              10.88146034                4.95577537               46.76032096                0.00010000                0.57952379                0.50901034               -1.94935183               -2.68561442               14.28911949                3.02068854
              11.88646734                4.62026892               46.71174467                0.00010000                0.22333945                0.50807820               -1.91117439               -2.75661105               14.00740173                2.85309724
              12.88592713                4.28399950               46.65951462                0.00010000               -0.32568500                0.81323248               -1.60438837               -2.11009724               13.37389115                2.48600338
              13.87995364                3.95267910               46.60436162                0.00010000                0.00860798                0.20546828               -0.94176630               -0.60865845                6.42836745                2.31472583
              14.88609929                3.63427609               46.42288842                0.00010000                0.61456485               -0.52407558               -1.65825678                0.11812842                0.08038317               -1.01417674
               5.15927541                7.84369799               47.30173820                0.00010000               -0.07680994               -0.24267151                0.57147137               -0.03551451                0.01579992                0.76801242
               6.15850732                7.54795532               47.10855471                0.00010000               -0.01802343                0.10255538               -0.07321708               -0.03803704                0.31031826               -0.81034768
               7.15891495                7.25083268               46.92129885                0.00010000                0.30689131                0.51030070               -0.71047129               -0.76152776                7.35887064               -2.64019243
               8.16464514                6.93931351               46.86864537                0.00010000                0.64380697                0.31763079               -0.88391588               -1.57682891               14.97960172                1.56690177
               9.17179109                6.61889889               46.82876269                0.00010000                0.76167569                0.48995521               -1.35524326               -2.08966427               16.31201731                1.88084355
              10.17987866                6.29208577               46.79793342                0.00010000                0.83115697                0.49009012               -1.75645247               -2.40023550               17.00235193                2.58861809
              11.18841423                5.96038635               46.76686201                0.00010000                0.80827490                0.42168840               -2.01453837               -2.59431846               17.04883563                3.24074084
              12.19604415                5.62508947               46.73304834                0.00010000                0.64175437                0.39574048               -2.11681235               -2.50410496               16.67636968                3.62262093
              13.20124931                5.28927086               46.69336666                0.00010000                0.29167415                0.36452672               -2.01361008               -1.87549511               15.77831493                3.48294726
              14.20187764                4.95539631               46.64452895                0.00010000                0.36853772                0.34835859               -1.45009873               -0.58295333                7.59965755                1.77940497
              15.20862007                4.63322188               46.44580475                0.00010000                0.67424304                0.18256352               -2.33214603                0.07773473                0.11517847               -1.66464969
               5.45295294                8.84168892               47.23237637                0.00010000               -0.00968407               -0.16071705                0.34044776               -0.03498052                0.01401555                0.71320188
               6.45285610                8.54924082               47.03150847                0.00010000                0.05311106                0.15296502               -0.28663449                0.00451536                0.13408939               -0.80265320
               7.45401517                8.25623086               46.83300724                0.00010000                0.53652663                0.52509390               -0.91084394               -0.91234853                9.39654021               -2.65270781
               8.46358664                7.94374775               46.81690612                0.00010000                1.00794680                0.44556679               -1.17226805               -1.81472734               18.87256330               -0.04980021
               9.47417410                7.62339412               46.80105681                0.00010000                1.08990341                0.39319644               -1.50252218               -2.10247635               19.37323301                1.48217071
              10.48538470                7.29642909               46.78748229                0.00010000                1.11980891                0.37651672               -1.85026478               -2.31054319               19.90783203                2.39590588
              11.49657028                6.96420914               46.77486987                0.00010000                1.10580164                0.36517594               -2.16869359               -2.48853186               20.12085039                3.26286968
              12.50750074                6.62818373               46.75902286                0.00010000                1.07700563                0.30078360               -2.44755165               -2.45633266               19.65024026                4.17306850
              13.51811039                6.29129004               46.73288349                0.00010000                0.84214068                0.14861186               -2.60023441               -1.76093113               17.74000287                4.58313544
              14.52434355                5.95964628               46.67887802                0.00010000                0.69462206                0.49932263               -1.89159995               -0.51295466                8.18098291                1.45292236
              15.53200283                5.63792736               46.46295248                0.00010000                0.76592827                0.63255890               -2.85392045                0.07245906                0.11718991               -1.93299321
               5.74347201                9.84048365               47.16292821                0.00010000                0.05836794               -0.07717036                0.11420566               -0.03327829                0.00641802                0.71362306
               6.74405569                9.55101462               46.95455103                0.00010000                0.13445212                0.19896964               -0.50635882                0.02399145               -0.03217312               -0.76094345
               7.74616105                9.26133456               46.74530139                0.00010000                0.85658262                0.47903552               -1.11008854               -1.07137539               11.11054971               -2.31528350
               8.76118734                8.94822485               46.75924240                0.00010000                1.54495859                0.32759103               -1.36663881               -1.97743915               22.41749027               -0.35641829
               9.77706022                8.62676282               46.76722491                0.00010000                1.58327162                0.18641159               -1.66808543               -1.94378613               22.55030564                0.93400896
              10.79285277                8.29961611               46.77381250                0.00010000                1.49143601                0.25726322               -1.99522558               -1.96405458               23.03373794                1.86593051
              11.80688894                7.96768987               46.78126431                0.00010000                1.34919144                0.37002338               -2.36627118               -2.14786589               23.57289234                2.77802243
              12.81983660                7.63110514               46.78920035                0.00010000                1.38396024                0.42321779               -2.87917390               -2.38463270               23.34762383                4.07679033
              13.83456815                7.29224309               46.78458239                0.00010000                1.25723111                0.26145661               -3.53120753               -1.73459293               19.36204212                6.51054602
              14.84498122                6.96538276               46.71008099                0.00010000                0.94694693                0.63812433               -2.25942490               -0.39384623                7.98077438                1.33409070
              15.85350709                6.64587306               46.47741474                0.00010000                0.85258626                0.89216459               -3.26394490                0.05627918                0.11919870               -2.03796547
               6.03122544               10.84014552               47.09369936                0.00010000                0.12595870                0.00918075               -0.11839823               -0.03409040               -0.01018936                0.63444590
               7.03248502               10.55322022               46.87797322                0.00010000                0.20759967                0.24407562               -0.72450069                0.01118343                0.03234443               -0.61637975
               8.03537743               10.26581157               46.66292755                0.00010000                1.30622824                0.44663317               -1.30942989               -1.34027182               12.79046768               -1.42144793
               9.05860959                9.95029957               46.70178921                0.00010000                2.42648451               -0.21371944               -1.56253423               -1.65308293               25.50118870               -0.24340111
              10.08390712                9.62712235               46.72985331                0.00010000                2.32834901               -0.08960164               -1.85120826               -1.31613204               25.43291688                0.46752335
              11.10517657                9.30157435               46.75442878                0.00010000                1.91084045                0.13601080               -2.17155960               -1.15436494               25.97830486                1.03758603
              12.12212393                8.97160960               46.78092576                0.00010000                1.50391440                0.41482533               -2.57816540               -1.30184237               26.97532455                1.64024838
              13.13525486                8.63664809               46.81359157                0.00010000                1.35084926                0.70366843               -3.23078093               -1.69713325               28.55391755                2.68551766
              14.14914091                8.29651917               46.86074458                0.00010000                1.37909009                0.90841508               -4.82383049               -1.37160617               21.26568013                5.57818690
              15.16283666                7.97240876               46.74051201                0.00010000                1.15034489                0.73986093               -2.53165235               -0.39910143                6.45744867                1.17419436
              16.17214781                7.65577065               46.49030278                0.00010000                0.93111538                1.05203696               -3.59415730                0.03217358                0.01426521               -1.71728906
               6.31664080               11.84066726               47.02274932                0.00010000                0.19724998                0.05217463               -0.34806059                0.06442339                0.33177775                0.54715509
               7.31861330               11.55589613               46.80350606                0.00010000                0.28177287                0.26759160               -0.95159537                0.09282571                0.74616181               -0.48844965
               8.32227626               11.27026722               46.59230318                0.00010000                2.41008006                0.44556504               -1.53373263               -1.90740070               14.54041212               -0.79475924
               9.36681490               10.94395046               46.64828667                0.00010000                3.85932701               -0.63491110               -1.79144970               -1.44429010               27.95248098               -0.27078601
              10.39946280               10.62497079               46.68980716                0.00010000                2.92316568               -0.21515585               -2.08214268               -0.52513886               27.74225335                0.12792984
              11.42527822               10.30233632               46.72743624                0.00010000                2.31577785                0.07619715               -2.39729103               -0.43905601               28.37940076                0.44133751
              12.44577836                9.97598637               46.76786243                0.00010000                1.78530770                0.43767692               -2.79365890               -0.49244796               29.70653681                0.77815470
              13.46098437                9.64517851               46.81856972                0.00010000                1.27984962                0.85304196               -3.50177200               -0.70579751               32.11929836                1.45989989
              14.47137535                9.31041139               46.89450421                0.00010000                0.83816713                1.38922261               -5.01761116               -1.02648306               23.90447240                3.28771460
              15.47774771                8.98017998               46.76738565                0.00010000                0.80257169                0.77712148               -2.69306584               -0.68377425                7.35272034                1.04776639
              16.48742678                8.66691380               46.50960196                1.00000000                0.96790697                1.11431509               -3.78233054                0.20127937                0.88758814               -1.32394003
               3.47273009                1.95065255               48.70416019                1.00000000               -0.56264709               -0.64277564                2.21160647               -0.14581188               -1.20144221                1.09419213
               4.46710362                1.62749107               48.54170453                1.00000000               -0.48112388               -0.37596882                1.40361756               -0.08478750               -1.64929434                0.18842213
               5.46310761                1.30350000               48.37105224                1.00000000               -0.34798181               -0.12598903                0.62097567               -0.10879764               -1.72990166               -0.21245658
               6.46014398                0.97618070               48.20746515                1.00000000               -0.58648710                0.21319040               -0.15409668               -0.63954298               -1.23246897               -0.91472928
               7.45137787                0.63453297               48.04716622                1.00000000               -0.51093178                0.35423234               -0.67650930               -0.23622779               -0.73125951                0.10989757
               8.44992535                0.28260216               47.89695541                1.00000000                0.07859935                0.51100443               -1.25343101               -0.29058710               -0.09989865               -0.02084178
               9.45294986               -0.07466953               47.75444833                1.00000000                0.63192266                0.75832333               -1.87500744               -0.32512883                1.17985086               -0.48086108
              10.46256380               -0.43376712               47.63657999                1.00000000                1.48764068                0.89640060               -2.32190231                0.08556964                3.01610246               -0.67644947
              11.48270267               -0.76996858               47.54070161                1.00000000                1.21392510                0.08697349               -0.70046388               -0.90569493                2.19393910                0.83544674
              12.48684230               -1.08486335               47.39607609                1.00000000                0.43711714                0.31199596               -1.16052630               -0.05875688               -0.40099273                0.14341042
              13.49144501               -1.39779175               47.24706791                1.00000000                0.46027111                0.52530721               -1.86922928               -0.11901194               -0.56959328               -0.52937516
               3.79443345                2.94422480               48.63471026                1.00000000               -0.46014291               -0.62054591                1.95575460               -0.00422663               -0.30046909                1.45455339
               4.78983202                2.62373139               48.47231783                1.00000000               -0.33793130               -0.34646983                1.14657700                0.04716954               -0.48642245                0.28119118
               5.78767482                2.30224011               48.30683473                1.00000000               -0.07999783               -0.09078492                0.34516186                0.01262664               -0.43436816               -0.37354077
               6.78823207                1.97831260               48.14568497                1.00000000                0.40650186                0.22925113               -0.45065281               -0.71411051                0.79136501               -1.27069348
               7.79580486                1.63807530               48.00462881                1.00000000                0.66943319                0.19849092               -1.15664295               -0.31606346                1.56846322                0.27283815
               8.80162073                1.28771220               47.86269217                1.00000000                0.60391741                0.54842285               -1.88557329               -0.35778355                1.83318570                0.00001972
               9.80788321                0.93291370               47.72846105                1.00000000                0.47241462                0.91882119               -2.68198746               -0.45247749                4.00658550               -1.02223640
              10.81106902                0.57519688               47.62951754                1.00000000               -0.43446887                1.42360884               -3.28185599               -0.40183645                8.03529312               -1.84293857
              11.79919383                0.23090116               47.57274242                1.00000000               -0.54513506                0.06191358               -0.57130290               -1.47805432                4.95590088                1.00592838
              12.80016632               -0.08174339               47.42821032                1.00000000                0.19947335                0.26912364               -0.83616825                0.01117838                0.27715610                0.29118897
              13.80318330               -0.39253868               47.27911394                1.00000000                0.30169796                0.46959252               -1.50103568               -0.01789158                0.05763756               -0.54200955
               4.11363238                3.93824164               48.57337443                1.00000000               -0.36006810               -0.57142377                1.67897300               -0.00834295               -0.02800845                1.81119362
               5.11003170                3.62056168               48.40504223                1.00000000               -0.24267247               -0.27436117                0.88818529                0.02102938                0.06579371                0.31148694
               6.10877893                3.30168430               48.23905082                1.00000000               -0.00025579                0.01868008                0.08117336               -0.07571671                0.31498696               -0.88926736
               7.11002658                2.98076572               48.07561680                1.00000000                1.34390348                0.28450366               -0.72023407               -1.18223349                3.01840137               -1.70210987
               8.13565700                2.63850279               47.96287140                1.00000000                1.89523443                0.27007071               -1.71875382               -2.35058822                4.23438821               -0.27870246
               9.14793127                2.29357061               47.82659210                1.00000000                1.03793140                0.84411559               -2.52126077               -2.58910758                3.03133380                0.98690285
              10.15641563                1.94370689               47.68823991                1.00000000                0.43041735                1.42521089               -3.29973315               -2.95974794                5.23659262                1.90967877
              11.15653962                1.59470505               47.59244375                1.00000000               -2.31668874                2.11815910               -4.85028594               -4.11548416               13.43314142                2.00117166
              12.11008185                1.23126969               47.60891618                1.00000000               -2.30169567                0.10901604               -0.11552067               -2.63798082                9.07826707                1.09046187
              13.11050571                0.92051913               47.46351725                1.00000000                0.12979573                0.15566181               -0.42912728               -0.05471691                0.60320863                0.59336712
              14.11267777                0.61160010               47.30982775                1.00000000                0.21720624                0.35306921               -1.13030073               -0.03622026                0.18868385               -0.51437161
               4.42962651                4.93279632               48.51182880                1.00000000               -0.28165634               -0.50399002                1.39934629               -0.03134538                0.10326225                1.60165131
               5.42680994                4.61824416               48.33644032                1.00000000               -0.18350296               -0.17822686                0.62756738               -0.01197242                0.23942594                0.08566727
               6.42595645                4.30261371               48.16408965                1.00000000                0.04794791                0.14114689               -0.11332738               -0.16866280                1.03293895               -1.34881384
               7.42776890                3.98400267               48.00432734                0.00010000                0.50158767                0.40020278               -0.98113773               -1.37167981                4.85077638               -2.06895203
               8.43598820                3.64347671               47.90741938                0.00010000                0.84327873                0.69733263               -1.71104463               -3.35156596                8.01617866               -0.01314584
               9.44463448                3.30459451               47.81091167                0.00010000                0.57828058                1.08522307               -2.34066780               -3.82634144                8.24831352                2.31264167
              10.44755381                2.96141792               47.71938746                0.00010000               -0.17189691                1.55047240               -2.82174932               -4.26393963                9.75875229                4.69991500
              11.44119654                2.61756006               47.65467925                0.00010000               -1.34668355                1.48552319               -2.30097074               -6.18250685               13.44064488                5.30516909
              12.42062014                2.23308148               47.64448862                0.00010000               -1.12274819                1.54854446               -0.38733379               -2.62655556                8.87149892               -1.60148757
              13.41874158                1.92136985               47.50200094                0.00010000               -0.01615964                0.23554465               -0.22104326                0.24113436                1.06275920                1.21945867
              14.42029695                1.61452270               47.34219513                0.00010000                0.15553745               -0.31475344               -0.77632874                0.60525778                0.14083578               -0.18477073
               4.74210979                5.92816184               48.44691374                1.00000000               -0.21349284               -0.42286400                1.12609832               -0.05337172                0.22891381                1.24149264
               5.73997486                5.61699714               48.26471713                1.00000000               -0.12313139               -0.05761902                0.35550160               -0.05294744                0.42467022               -0.38147384
               6.73964716                5.30450724               48.08669919                0.93074684                0.08775611                0.27280895               -0.37022460               -0.23448059                1.50654501               -1.77680079
               7.74172998                4.98876978               47.92588021                0.00010000                0.41933389                0.36933680               -1.11287082               -1.33109691                7.61827185               -0.37207757
               8.74803384                4.65244945               47.86925268                0.00010000                0.58666250                0.83880040               -1.60197155               -2.45083681               12.25157829                1.41058082
               9.75346323                4.31527508               47.79927730                0.00010000                0.50687224                0.97074718               -2.11826473               -2.70822470               11.81379924                2.76923886
              10.75817129                3.97471634               47.73298257                0.00010000                0.38813455                1.02525329               -2.31363793               -3.12599834               12.54615377                3.76434505
              11.76122593                3.62441552               47.67807439                0.00010000               -0.22151645                0.74300697               -2.02576558               -3.65093575               12.93345422                3.07952479
              12.75374096                3.26224058               47.62000137                0.00010000               -1.36693807                2.33429961               -1.41905777               -2.12791843               11.85703544               -0.95429222
              13.73388716                2.92523002               47.55057789                0.00010000               -0.76318719                0.51552994               -0.38891357               -0.45950742                5.38250947                2.05424875
              14.73847721                2.60530503               47.37977310                0.00010000                0.45900484               -0.94455484               -1.08441042                0.59853939                0.21540094               -0.84283077
               5.05088846                6.92433904               48.37854541                1.00000000               -0.14828703               -0.33725443                0.86132358               -0.03965796                0.05394213                0.93290782
               6.04940559                6.61709178               48.18669234                0.00010000               -0.06971303                0.04793055                0.11642263               -0.06105061                0.42595852               -0.73948694
               7.04949420                6.30806989               48.00240917                0.00010000                0.18995822                0.43291299               -0.61005173               -0.48451036                4.27204230               -2.31232982
               8.05320476                5.99138941               47.88709231                0.00010000                0.54859810                0.28882874               -0.64119781               -1.27639716               11.24763968                2.20948615
               9.06046616                5.66025272               47.83998006                0.00010000                0.74991655                0.68550988               -1.53986235               -2.08517128               14.64770208                2.12465249
              10.06820309                5.32400946               47.78924024                0.00010000                0.77136212                0.74209640               -1.97012497               -2.36530708               14.70629787                2.98440713
              11.07589341                4.98192299               47.73989354                0.00010000                0.62252479                0.64118629               -2.15901254               -2.72874984               14.98526004                3.51545117
              12.08065358                4.63242020               47.69207456                0.00010000                0.06769321                0.75263015               -2.06671789               -2.98832212               15.03949359                3.12869289
              13.07724727                4.27976747               47.64348882                0.00010000               -0.70833027                1.32335761               -1.66224854               -2.34177147               14.77016765                2.43932399
              14.06648698                3.93168045               47.59482003                0.00010000               -0.25647773                0.58078753               -0.99203001               -0.58503778                7.27663982                1.96121253
              15.07211772                3.59563161               47.40482395                0.00010000                0.56307381               -0.42064344               -1.97552152                0.12380946                0.13063030               -1.78077696
               5.35581115                7.92141675               48.30765457                0.00010000               -0.07881476               -0.24994185                0.61321997               -0.03530061                0.01182643                0.75767109
               6.35502300                7.61795575               48.10763599                0.00010000               -0.00759115                0.11458649               -0.11145017               -0.03159844                0.31090809               -0.78953901
               7.35565933                7.31316550               47.91363786                0.00010000                0.44981034                0.54276155               -0.82476619               -0.72305589                7.59165916               -2.58387930
               8.36401921                6.99454635               47.85876791                0.00010000                0.90255198                0.40566554               -1.09479800               -1.42904973               15.33567930                1.55365513
               9.37371037                6.66615964               47.81428769                0.00010000                1.02338085                0.52531779               -1.55190496               -1.93390560               16.60535498                2.17864623
              10.38448683                6.33011700               47.77947271                0.00010000                1.07375878                0.51770831               -1.94986589               -2.26842331               17.44735819                2.96416518
              11.39518554                5.98754007               47.74605347                0.00010000                0.95640869                0.48311883               -2.16628390               -2.51738107               17.71411298                3.57357171
              12.40361500                5.63946812               47.71167878                0.00010000                0.62298695                0.56093821               -2.18694142               -2.50443350               17.60149422                3.77077646
              13.40764528                5.28870773               47.67358079                0.00010000                0.13536343                0.65061804               -1.98844231               -1.98038031               17.06423042                3.32576075
              14.40632227                4.93684577               47.62961661                0.00010000                0.27029002                0.53229668               -1.52994270               -0.60873061                8.39530163                1.49603016
              15.41305108                4.59689216               47.42090340                0.00010000                0.67288131                0.39067173               -2.62739293                0.09809602                0.14077405               -2.11740159
               5.65710444                8.91934021               48.23592097                0.00010000               -0.00795682               -0.16731547                0.37006133               -0.03602145                0.01741122                0.70763734
               6.65702487                8.61938351               48.02841228                0.00010000                0.06690228                0.16930544               -0.33404620                0.00998020                0.14008306               -0.78281586
               7.65844249                8.31892512               47.82332230                0.00010000                0.73023722                0.56334323               -1.02772099               -0.87579353                9.59315914               -2.59714637
               8.67162962                7.99950272               47.80433786                0.00010000                1.38874557                0.45818334               -1.34976279               -1.71990075               19.26380823                0.03946173
               9.68621740                7.67075908               47.78513552                0.00010000                1.49122904                0.36071684               -1.69475467               -1.99064416               19.78765022                1.69130027
              10.70145420                7.33436362               47.76819917                0.00010000                1.49886363                0.32344341               -2.02013349               -2.16520605               20.40320102                2.67294892
              11.71619467                6.99158536               47.75270475                0.00010000                1.39715247                0.33545575               -2.27534302               -2.31854951               20.73712546                3.49205768
              12.72939725                6.64363897               47.73471023                0.00010000                1.20336719                0.34265070               -2.42973511               -2.29294028               20.43559613                4.17826285
              13.74026201                6.29277983               47.70793785                0.00010000                0.83653457                0.29997131               -2.42635496               -1.81095719               18.98498924                4.18316106
              14.74612794                5.94232638               47.65944155                0.00010000                0.68624202                0.59746969               -1.97495612               -0.60393025                9.01191071                1.24617763
              15.75398685                5.60344504               47.43301534                0.00010000                0.78589159                0.78072709               -3.08706046                0.08103887                0.11949705               -2.19412749
               5.95500411                9.91807044               48.16415514                0.00010000                0.06335850               -0.08260047                0.13294683               -0.03397653                0.00582241                0.70718093
               6.95563769                9.62134186               47.94921677                0.00010000                0.15100706                0.21834062               -0.56214307                0.02818827               -0.02283938               -0.74351171
               7.95802425                9.32443236               47.73360569                0.00010000                1.10747731                0.51985146               -1.23186592               -1.08281537               11.31336965               -2.26337466
               8.97778724                9.00371002               47.74479581                0.00010000                2.05061663                0.26160197               -1.53434485               -1.95611372               22.83659401               -0.24301454
               9.99903658                8.67337398               47.74971579                0.00010000                2.12845903                0.06361966               -1.84850825               -1.87658627               23.01776046                1.10316558
              11.02035642                8.33658587               47.75315197                0.00010000                2.02513139                0.11855211               -2.14951725               -1.83517078               23.56435249                2.06949036
              12.03953921                7.99424918               47.75721869                0.00010000                1.81026546                0.23423182               -2.44343579               -1.95487585               24.12090498                2.93970350
              13.05656173                7.64632113               47.76075530                0.00010000                1.65997574                0.32458412               -2.78370969               -2.12011498               23.89452037                4.02663958
              14.07273872                7.29470716               47.75154411                0.00010000                1.35083615                0.27695566               -3.08798131               -1.68710345               20.66037333                5.70312414
              15.08357845                6.94879516               47.68686156                0.00010000                0.98479076                0.69951581               -2.35075027               -0.51408607                9.02846317                1.19772012
              16.09243454                6.61250670               47.44352525                0.00010000                0.88560876                0.98197998               -3.45168913                0.06002366                0.11088736               -2.21390534
               6.24988206               10.91768820               48.09254417                0.00010000                0.13446483                0.00616716               -0.11077082               -0.03561561               -0.00780150                0.62544634
               7.25122671               10.62375032               47.87041045                0.00010000                0.22679791                0.26563561               -0.78974676                0.01306823                0.04701738               -0.60324380
               8.25441802               10.32932215               47.64920402                0.00010000                1.61695063                0.48763570               -1.43824182               -1.43841671               12.99375449               -1.38406799
               9.28356573               10.00473476               47.68538521                0.00010000                3.06958969               -0.38613851               -1.73118863               -1.70517969               25.93367120               -0.17214074
              10.31580982                9.67203147               47.71053220                0.00010000                3.01549276               -0.28665024               -2.02863722               -1.28971949               25.93562617                0.57078315
              11.34387558                9.33673467               47.73203568                0.00010000                2.57760382               -0.07466701               -2.31873054               -1.07298878               26.54343942                1.15999260
              12.36736189                8.99627000               47.75480597                0.00010000                2.13306947                0.18816662               -2.63870973               -1.17225711               27.50863143                1.74060495
              13.38653697                8.65013065               47.78154946                0.00010000                1.83420111                0.46240068               -3.11226788               -1.47426327               28.67021570                2.63504596
              14.40404592                8.29831894               47.81470561                0.00010000                1.57548522                0.72740671               -4.16280218               -1.24111990               22.69526957                4.94489675
              15.41804667                7.95631670               47.71441951                0.00010000                1.18591671                0.78640963               -2.64676641               -0.46973463                8.01016228                1.11814419
              16.42776425                7.62308464               47.45317034                1.00000000                0.97175750                1.11350880               -3.75758717                0.03706563               -0.01720318               -1.82225396
               6.54216754               11.91819378               48.01923758                0.00010000                0.20975663                0.05055849               -0.35243956                0.07462651                0.32273567                0.53852209
               7.54426510               11.62665457               47.79361046                0.00010000                0.30519708                0.29042478               -1.02870138                0.10340393                0.74976859               -0.47977330
               8.54827148               11.33418508               47.57627877                0.00010000                2.83546105                0.48629275               -1.67566359               -2.14802065               14.72911797               -0.76893331
               9.60097433               10.99598725               47.62953016                0.00010000                4.64854034               -0.87475139               -1.97214242               -1.58634511               28.37665524               -0.24693804
              10.64124229               10.66764098               47.66811853                0.00010000                3.68418947               -0.43904942               -2.26976717               -0.50148872               28.25387554                0.17036058
              11.67465811               10.33509253               47.70273263                0.00010000                3.07278986               -0.16421334               -2.55257522               -0.40316965               28.98256648                0.49016284
              12.70269808                9.99801251               47.73953420                0.00010000                2.51847028                0.17425151               -2.86093337               -0.44255022               30.28518877                0.80594897
              13.72502752                9.65556915               47.78381816                0.00010000                1.95160973                0.54384971               -3.37151039               -0.58880600               32.27867604                1.36012058
              14.74173028                9.30925529               47.84512620                0.00010000                1.21952701                1.09363513               -4.51293143               -0.78385324               25.38874836                2.94047725
              15.74941806                8.96452336               47.73949186                0.00010000                0.89548433                0.82066582               -2.84830789               -0.58678216                9.00881327                1.02382035
              16.75963996                8.63477688               47.47053634                1.00000000                1.02219044                1.16922372               -3.95637933                0.21292380                0.87707555               -1.40579583
               3.62733958                2.03219171               49.72708466                1.00000000               -0.60018599               -0.68803221                2.37181101               -0.16420701               -1.16570203                1.06205813
               4.62133772                1.70001538               49.55605607                1.00000000               -0.51051747               -0.38855705                1.46425185               -0.09994391               -1.59406154                0.18080059
               5.61712923                1.36695838               49.37717220                1.00000000               -0.36516468               -0.10798157                0.59853463               -0.12621660               -1.64498158               -0.21509351
               6.61403443                1.03037061               49.20545551                1.00000000               -0.66643131                0.27068030               -0.25630045               -0.60639590               -0.97104751               -0.90059450
               7.60380061                0.68037781               49.04009952                1.00000000               -0.71554606                0.48637982               -0.76330491               -0.23735393               -0.28854073                0.05951868
               8.59972351                0.31988386               48.88410542                1.00000000               -0.24095872                0.63610181               -1.35630363               -0.30069329                0.30542214               -0.03119733
               9.59898143               -0.04910080               48.73514678                1.00000000                0.11403181                0.94443016               -2.02208203               -0.57868089                1.57621709               -0.41559071
              10.60200414               -0.42913980               48.61163164                1.00000000                1.39602135                1.27575340               -2.66728478               -0.21947495                4.34838129               -0.65210670
              11.62690186               -0.79511728               48.53473423                1.00000000                1.52568944                0.10444623               -0.96364679               -1.86265890                2.88710467                0.95301934
              12.63251793               -1.11708513               48.38499847                1.00000000                0.55917983                0.30996552               -1.28766692               -0.06382950               -0.38729300                0.13290280
              13.63808546               -1.43654917               48.22703023                1.00000000                0.55675234                0.57757115               -2.11714699               -0.15446002               -0.67015807               -0.43358145
               3.95787385                3.02531139               49.65499643                1.00000000               -0.49188935               -0.66180109                2.10059282               -0.00408383               -0.29387238                1.41128178
               4.95295495                2.69612981               49.48401461                1.00000000               -0.35921965               -0.35713592                1.19096364                0.05007709               -0.47294750                0.27269006
               5.95068945                2.36587856               49.31007031                1.00000000               -0.08471005               -0.07147700                0.29923439                0.01872830               -0.41187614               -0.36928951
               6.95126075                2.03307741               49.14051259                1.00000000                0.29904942                0.28034721               -0.58850779               -0.62352864                0.88599458               -1.24565037
               7.95667044                1.68524161               48.99250877                1.00000000                0.50975647                0.32023046               -1.27464612               -0.26014790                1.66503051                0.19767598
               8.96145588                1.32624488               48.84309713                1.00000000                0.55180051                0.64273108               -2.04127991               -0.33269172                1.80722635                0.02333998
               9.96770645                0.96034350               48.70028560                1.00000000                0.56808771                1.04873282               -2.95607326               -0.68256707                3.87029777               -0.77860336
              10.97281764                0.58361774               48.59291340                1.00000000               -0.77292574                1.80781924               -3.99470439               -1.23170086                9.74040293               -1.72623567
              11.95224794                0.20592718               48.56651139                1.00000000               -1.01110282                0.03042408               -1.19321919               -2.82532649                7.23401498                1.57165056
              12.95259558               -0.11398548               48.42028652                1.00000000                0.18784757                0.26002904               -0.80190393               -0.00534776                0.52315948                0.34743573
              13.95600489               -0.43077345               48.26336370                1.00000000                0.34093099                0.50083475               -1.64745884               -0.01550816                0.02980387               -0.45274791
               4.28562107                4.01895569               49.59077304                1.00000000               -0.38489741               -0.60444004                1.80060089               -0.00688857               -0.02868232                1.75613065
               5.28177210                3.69287266               49.41405125                1.00000000               -0.25324363               -0.28103999                0.91344249                0.02722041                0.05576222                0.30294681
               6.28055620                3.36552884               49.23951239                1.00000000                0.02143546                0.03318240                0.01230943               -0.06787500                0.29619599               -0.83789668
               7.28220081                3.03597755               49.06754559                1.00000000                1.24369920                0.33296034               -0.89376525               -1.07680530                2.92730195               -1.65194393
               8.30543018                2.68678242               48.94494055                1.00000000                1.78834884                0.36461534               -1.85042545               -2.17908454                3.96177954               -0.07893770
               9.31796778                2.33273848               48.80034642                1.00000000                1.12635250                0.90789730               -2.71191382               -2.60571328                2.73442756                1.44655964
              10.32795723                1.97187386               48.65379295                1.00000000                0.69093326                1.46761524               -3.58689596               -3.35790946                4.50171448                2.84265213
              11.33178645                1.60701659               48.54264302                1.00000000               -2.99793451                2.34890770               -5.02956413               -6.13443264               15.25115707                3.95151071
              12.26799854                1.20549120               48.60767780                1.00000000               -3.13374187                0.29275142               -0.13445597               -4.09286327               12.06183997                1.33765358
              13.26911161                0.88811545               48.46001164                1.00000000                0.16763520                0.12660507               -0.30515329               -0.05688676                0.81550072                0.59398924
              14.27135125                0.57346753               48.29829487                1.00000000                0.22396355                0.35225550               -1.15667852               -0.04141818                0.10700189               -0.42918254
               4.60990214                5.01322259               49.52629075                1.00000000               -0.29759186               -0.52826285                1.49522967               -0.03342856                0.10748397                1.55329446
               5.60692622                4.69050901               49.34278142                1.00000000               -0.18375366               -0.17889480                0.63617025               -0.01564542                0.25858213                0.06839581
               6.60622706                4.36654221               49.16262529                1.00000000                0.07724212                0.16091258               -0.19127878               -0.16640018                0.99617031               -1.31085228
               7.60847106                4.03973662               48.99354311                0.00010000                0.50503795                0.46028000               -1.16613795               -1.28973499                4.82903058               -1.94214226
               8.61632782                3.69253392               48.88921882                0.00010000                0.78895604                0.78579314               -1.91644840               -3.16653779                8.04937293                0.51936186
               9.62425018                3.34440282               48.78608073                0.00010000                0.49711672                1.18747367               -2.60738979               -3.87794773                8.31502062                3.14220126
              10.62627016                2.98969581               48.68933022                0.00010000               -0.38692711                1.65565532               -3.16615953               -4.69350099               10.37772109                6.03938351
              11.61651164                2.63059589               48.62962803                0.00010000               -1.84891735                1.60532484               -2.72612968               -7.93246250               15.49403672                7.54249944
              12.58929181                2.21178221               48.63941247                0.00010000               -1.65150633                2.47144823               -1.02071972               -3.47745809               11.03628092               -1.76409031
              13.58348151                1.88854662               48.50099401                0.00010000               -0.24097234                0.57186924               -0.00323767                0.37918435                1.60717414                0.86374731
              14.58447236                1.57627166               48.33467760                0.00010000                0.09908504               -0.46247857               -0.69662895                0.97339395                0.16276163               -0.52712744
               4.93037966                6.00839044               49.45854809                1.00000000               -0.22400908               -0.43814587                1.20095887               -0.05652948                0.21344803                1.20379411
               5.92813957                5.68929477               49.26820155                1.00000000               -0.11895378               -0.05139499                0.34128452               -0.05813110                0.42985216               -0.38964788
               6.92800059                5.36874709               49.08239763                0.84647451                0.11374126                0.31486839               -0.48146087               -0.23469471                1.53581373               -1.76877811
               7.93041440                5.04518315               48.91379632                0.00010000                0.47163169                0.44802683               -1.30250583               -1.20742632                7.77536062                0.13144379
               8.93743322                4.70249828               48.85211157                0.00010000                0.64162713                0.92595651               -1.82101534               -2.27386297               12.48595973                1.95254063
               9.94324694                4.35648795               48.77674243                0.00010000                0.52304625                1.08586010               -2.38145504               -2.63360813               12.17824476                3.52836774
              10.94789415                4.00498696               48.70831763                0.00010000                0.39019279                1.16588446               -2.61811329               -3.26519022               13.35925792                4.76395909
              11.95105080                3.63912308               48.65628396                0.00010000               -0.36977500                0.93212496               -2.37831780               -4.14582512               14.24640536                3.89936600
              12.94049865                3.25492016               48.60455105                0.00010000               -1.94224732                3.37121747               -1.75982773               -2.51385188               13.75705528               -0.98289429
              13.91220585                2.89955283               48.54704172                0.00010000               -1.25647924                1.21590015               -0.41175170               -0.50162020                6.60614446                1.68346472
              14.91536906                2.56421796               48.36794878                0.00010000                0.31632120               -0.93707036               -1.30489545                0.67809696                0.30291698               -1.77803350
               5.24696289                7.00445967               49.38744757                1.00000000               -0.15559424               -0.34572939                0.92033969               -0.03938456                0.04524766                0.90812199
               6.24540694                6.68948111               49.18770710                0.00010000               -0.06590519                0.05749142                0.08642022               -0.05087412                0.42870911               -0.72228202
               7.24564478                6.37283958               48.99577706                0.00010000                0.25821966                0.47474390               -0.72598523               -0.45841663                4.64576139               -2.26139967
               8.25057134                6.04869715               48.88003483                0.00010000                0.69504890                0.39789569               -0.78214017               -1.07460140               11.54129423                2.56025933
               9.25954576                5.71105305               48.82348372                0.00010000                0.92590016                0.74090337               -1.76465401               -1.84084783               14.73423839                2.57235586
              10.26908934                5.36612003               48.76834807                0.00010000                0.93927310                0.79610951               -2.21228095               -2.21132247               15.18910800                3.56422887
              11.27833122                5.01301349               48.71714071                0.00010000                0.72862972                0.70298053               -2.40399865               -2.71426850               15.78880556                4.13837748
              12.28366194                4.64923839               48.67041032                0.00010000                0.01268994                0.93731209               -2.29346396               -3.21555098               16.25320945                3.61699149
              13.27858502                4.27920656               48.62626965                0.00010000               -0.97553109                1.82084389               -1.82937453               -2.61381619               16.43061170                2.64636785
              14.26415131                3.91286463               48.58452102                0.00010000               -0.49404849                1.05712746               -1.10581827               -0.57105462                8.31032589                1.62632112
              15.26870405                3.55753025               48.38337799                0.00010000                0.45527386               -0.07677490               -2.30744512                0.14120834                0.21643327               -2.41038722
               5.55954910                8.00147585               49.31400260                0.00010000               -0.08069113               -0.25592835                0.65567203               -0.03534192                0.00906022                0.74514894
               6.55874219                7.69044459               49.10632571                0.00010000                0.00335555                0.12613098               -0.15048221               -0.01921937                0.31483406               -0.76305837
               7.55961621                7.37824197               48.90480353                0.00010000                0.59833547                0.57402657               -0.94500850               -0.64977712                7.81962768               -2.51503353
               8.57070890                7.05314107               48.84674941                0.00010000                1.17885915                0.49059680               -1.31277035               -1.22236869               15.71955954                1.52724358
               9.58319339                6.71731635               48.79772459                0.00010000                1.31755726                0.53694858               -1.77058435               -1.71054440               16.97262880                2.49408653
              10.59706004                6.37241014               48.75893611                0.00010000                1.36485094                0.50443879               -2.16918790               -2.07398116               17.97960747                3.37412243
              11.61049041                6.01904657               48.72353633                0.00010000                1.17433352                0.49357854               -2.35388022               -2.40351574               18.51162117                3.97662317
              12.62054671                5.65786932               48.68930951                0.00010000                0.70528358                0.67170365               -2.31482139               -2.51959539               18.71153446                4.04720506
              13.62459608                5.29133704               48.65359781                0.00010000                0.09571758                0.88916913               -2.04990196               -2.13400535               18.51711276                3.34704560
              14.62246107                4.92069538               48.61393009                0.00010000                0.21329501                0.72301256               -1.60494066               -0.66508088                9.26121018                1.28138973
              15.62886198                4.56268246               48.39325689                0.00010000                0.64009192                0.69463523               -2.85598883                0.12576515                0.17089226               -2.33851930
               5.86831856                8.99934111               49.23977760                0.00010000               -0.00621164               -0.17358866                0.40223537               -0.03793333                0.02072136                0.70178761
               6.86825644                8.69200373               49.02482755                0.00010000                0.08171065                0.18508109               -0.38363663                0.01925799                0.15115196               -0.75700138
               7.86995277                8.38432011               48.81245282                0.00010000                0.93965691                0.59716886               -1.15175267               -0.81307219                9.80172470               -2.52758389
               8.88704958                8.05850909               48.78991087                0.00010000                1.80565131                0.45880696               -1.54332827               -1.57139368               19.68170857                0.15554599
               9.90606580                7.72179202               48.76716171                0.00010000                1.94149595                0.30565512               -1.91251595               -1.82172071               20.26196897                1.90858731
              10.92587950                7.37620880               48.74707962                0.00010000                1.93679660                0.23796293               -2.21843772               -1.96650364               20.99336692                2.96350030
              11.94480173                7.02288507               48.72936301                0.00010000                1.75500309                0.26680734               -2.40938347               -2.11615230               21.49900776                3.75362789
              12.96097956                6.66267246               48.71042816                0.00010000                1.41385651                0.34646861               -2.45036122               -2.15201246               21.42046318                4.27787849
              13.97307886                6.29698994               48.68435640                0.00010000                0.92623589                0.41003862               -2.32689430               -1.91371570               20.29989176                4.01821402
              14.97950428                5.92732488               48.63937890                0.00010000                0.70831710                0.68319096               -2.01337318               -0.72293525                9.80034700                1.09561231
              15.98724520                5.57142295               48.40121127                0.00010000                0.77409230                0.93787459               -3.20997993                0.08658139                0.11820217               -2.26443559
               6.17346519                9.99800408               49.16558715                0.00010000                0.06831605               -0.08845548                0.15535650               -0.03487171                0.00525600                0.70198176
               7.17414835                9.69414622               48.94330817                0.00010000                0.16921094                0.23789581               -0.62105755                0.03451724               -0.00811359               -0.72137910
               8.17684941                9.39018534               48.72066407                0.00010000                1.38303821                0.55685125               -1.36027055               -1.07520107               11.53345103               -2.20109515
               9.20180911                9.06231721               48.72855551                0.00010000                2.61049310                0.18066571               -1.72471436               -1.89253178               23.28433359               -0.11828655
              10.22905927                8.72342945               48.73025474                0.00010000                2.74139054               -0.08283730               -2.05867245               -1.76222122               23.53927500                1.27941078
              11.25663692                8.37716940               48.73082215                0.00010000                2.63222184               -0.05076284               -2.33141781               -1.65773199               24.18453567                2.27676865
              12.28170371                8.02438272               48.73239559                0.00010000                2.33823333                0.06105645               -2.53057954               -1.71948294               24.82954394                3.11445852
              13.30340159                7.66479870               48.73352615                0.00010000                1.99828241                0.18068449               -2.66547796               -1.85324697               24.71400306                4.03511276
              14.32166935                7.29953781               48.72282277                0.00010000                1.50838780                0.24225346               -2.68367867               -1.66710463               21.92181857                5.24540468
              15.33356935                6.93435920               48.66306599                0.00010000                1.03640539                0.74082339               -2.36907415               -0.65134810                9.85977781                1.09130442
              16.34239746                6.58143995               48.40838096                0.00010000                0.88281153                1.04457624               -3.50312430                0.06091944                0.09511677               -2.25024013
               6.47533684               10.99757200               49.09148394                0.00010000                0.14286770                0.00233987               -0.09945300               -0.03680691               -0.00506160                0.61717642
               7.47676552               10.69676165               48.86217829                0.00010000                0.24704594                0.28772105               -0.85796629                0.01521380                0.06772004               -0.58714764
               8.48027776               10.39545713               48.63416271                0.00010000                1.95946572                0.52768606               -1.57423445               -1.52748611               13.21631889               -1.34172411
               9.51595483               10.06212240               48.66716544                0.00010000                3.78457075               -0.57976995               -1.92451423               -1.73113651               26.39603383               -0.09461106
              10.55596917                9.72013527               48.68928057                0.00010000                3.79083804               -0.51120567               -2.23712207               -1.23251443               26.48927432                0.67780332
              11.59177159                9.37519354               48.70805417                0.00010000                3.34068001               -0.32118578               -2.49100571               -0.95760617               27.19342046                1.28340856
              12.62278277                9.02410619               48.72815157                0.00010000                2.84939665               -0.08669167               -2.69333409               -1.01072495               28.19847783                1.84500443
              13.64875953                8.66628615               48.75134621                0.00010000                2.36967434                0.15224159               -2.89559057               -1.23534438               29.20562196                2.62152498
              14.67017626                8.30183501               48.77748854                0.00010000                1.79078256                0.44209716               -3.23310356               -1.11687733               23.96644286                4.50460032
              15.68457518                7.94214135               48.68757669                0.00010000                1.20629137                0.80762375               -2.67200302               -0.52880174                9.09070152                1.06022606
              16.69430209                7.59231448               48.41515104                1.00000000                0.97269117                1.13129652               -3.76343899                0.04140715               -0.05298428               -1.83678981
               6.77434975               11.99805087               49.01570052                0.00010000                0.22177373                0.04788744               -0.35267692                0.08626779                0.31356252                0.52983488
               7.77656749               11.69990064               48.78293203                1.00000000                0.32945867                0.31389907               -1.10777985                0.11460693                0.75677272               -0.46915089
               8.78093893               11.40073906               48.55878990                0.00010000                3.29703758                0.52819318               -1.82681429               -2.39282477               14.93591814               -0.74316154
               9.84250824               11.05072181               48.60884382                0.00010000                5.51994570               -1.14005984               -2.17517671               -1.72134510               28.83242221               -0.21468196
              10.89133784               10.71320534               48.64441181                0.00010000                4.55028183               -0.69299323               -2.48400313               -0.46193929               28.81790497                0.21994082
              11.93351388               10.37074569               48.67638474                0.00010000                3.95293793               -0.44478573               -2.72552934               -0.35359410               29.66769501                0.54629605
              12.97039660               10.02264889               48.71064376                0.00010000                3.37260048               -0.14573089               -2.91037398               -0.38372537               31.01834010                0.84766381
              14.00096589                9.66784353               48.75113952                0.00010000                2.65400068                0.15573775               -3.11661608               -0.49282014               32.81519018                1.31382559
              15.02347661                9.30837976               48.80424558                0.00010000                1.57739770                0.65447478               -3.52234286               -0.53655742               26.67924803                2.65700572
              16.03251384                8.95051168               48.71041950                0.00010000                0.97013636                0.83703307               -2.91160625               -0.42182714               10.15629287                0.97683464
              17.04287934                8.60406588               48.43047438                1.00000000                1.03654979                1.17514042               -3.97005924                0.21314577                0.84274940               -1.42850020
               3.79147322                2.11607018               50.75159641                1.00000000               -0.63383727               -0.73081290                2.52443031               -0.18337465               -1.11332223                1.02035909
               4.78513484                1.77519001               50.57098957                1.00000000               -0.53323401               -0.40000060                1.51742054               -0.11697971               -1.51172119                0.17140478
               5.78080854                1.43340190               50.38302293                1.00000000               -0.36695682               -0.08877718                0.56474747               -0.14368974               -1.52091048               -0.21627008
               6.77779571                1.08805465               50.20233914                1.00000000               -0.69256932                0.32548633               -0.37883119               -0.55307385               -0.62246794               -0.88463932
               7.76695715                0.73090485               50.03190013                1.00000000               -0.84045880                0.62829401               -0.92556886               -0.24661575                0.31660314                0.01334546
               8.76098653                0.36399478               49.86982933                1.00000000               -0.50045855                0.79432160               -1.58395818               -0.30800166                0.95661436               -0.05601348
               9.75694798               -0.01325898               49.71400669                1.00000000               -0.55212796                1.19544507               -2.34184421               -0.81588688                2.35701214               -0.35284582
              10.74994397               -0.40937279               49.58323429                1.00000000                0.50649738                1.90335756               -3.18809847               -1.08944567                6.38997419               -0.28535008
              11.76707793               -0.81446251               49.52142868                1.00000000                1.84282337                0.38531124               -2.23452774               -2.22812150                2.96045391                2.05277764
              12.78680044               -1.15278139               49.37032276                1.00000000                1.34502022                0.29735460               -1.54789816               -0.53571389                0.24767405                0.26134137
              13.79397833               -1.47913032               49.20472497                1.00000000                0.71778915                0.62720439               -2.31883601               -0.27022376               -0.43102251               -0.34314961
               4.13051964                3.10876205               50.67672211                1.00000000               -0.52204515               -0.70001236                2.23935864               -0.00574968               -0.27893847                1.35683737
               5.12529918                2.77119000               50.49613710                1.00000000               -0.37901586               -0.36681042                1.22984463                0.05124176               -0.44361492                0.26227351
               6.12293932                2.43251413               50.31281942                1.00000000               -0.08928443               -0.05152569                0.24733013                0.02597427               -0.36670913               -0.36274706
               7.12351350                2.09130952               50.13391482                1.00000000                0.17908050                0.33208375               -0.73607143               -0.49887959                1.06401222               -1.22109612
               8.12652093                1.73718779               49.97913589                1.00000000                0.32374670                0.46545717               -1.43026804               -0.21184554                1.93593250                0.12472203
               9.12998843                1.37193800               49.82186658                1.00000000                0.44759834                0.77617148               -2.25746062               -0.28557109                1.94886360                0.03074175
              10.13547290                0.99869547               49.66933959                1.00000000                0.48314267                1.23871464               -3.29618551               -0.75359344                3.78119107               -0.51473360
              11.13965128                0.60966079               49.54962345                1.00000000               -0.94859419                2.31967131               -4.74935890               -2.57854711               11.34913100               -0.92076053
              12.11650101                0.18939060               49.54887804                1.00000000               -1.29370409               -0.02078968               -4.05003773               -4.62982643               11.05839097                4.77674822
              13.11377720               -0.14980784               49.41217224                1.00000000                0.05620043                0.22364082               -0.84379826               -0.64253277                1.46689864                0.44240881
              14.11762502               -0.47285827               49.24616476                1.00000000                0.38478192                0.54164305               -1.76119968               -0.09139145                0.03449475               -0.34643849
               4.46650231                4.10206993               50.60938645                1.00000000               -0.40947113               -0.63374428                1.91907484               -0.00785264               -0.02294772                1.68657963
               5.46240760                3.76785380               50.42331108                1.00000000               -0.26468984               -0.28641116                0.93553958                0.03246576                0.05651552                0.29098367
               6.46120851                3.43237139               50.23929701                1.00000000                0.03684302                0.04986487               -0.05671014               -0.04893119                0.28440965               -0.78271332
               7.46314446                3.09469633               50.05774149                1.00000000                1.04416236                0.37997917               -1.06124794               -0.89574530                2.91674644               -1.58789600
               8.48209176                2.74021399               49.92586289                1.00000000                1.53114857                0.47525721               -1.97037245               -1.86305061                3.86155799                0.08516344
               9.49376743                2.37951821               49.77235382                1.00000000                1.10307812                0.95522705               -2.91160810               -2.39318111                2.55580789                1.87914125
              10.50415332                2.01151531               49.61650199                1.00000000                0.69552373                1.44927196               -3.93004440               -3.32047678                4.04703125                3.83780438
              11.50767790                1.63702064               49.49185246                1.00000000               -3.51016467                2.25541639               -5.36913009               -8.25249376               17.79601970                6.33986279
              12.43395003                1.18512169               49.60622706                1.00000000               -3.57396249                0.57679141               -0.59025617               -6.59252170               15.37955165                3.51408147
              13.43619865                0.85169143               49.45741418                1.00000000                0.21506659                0.07112838               -0.27149402               -0.57882134                1.13584061                0.53880759
              14.43825136                0.53170255               49.28669418                1.00000000                0.20527061                0.35922582               -1.12744656               -0.07088973                0.03699075               -0.31507325
               4.79879484                5.09608716               50.54173340                1.00000000               -0.31477957               -0.54945202                1.59229255               -0.03406187                0.11212278                1.49078364
               5.79564704                4.76546178               50.34916373                1.00000000               -0.18383334               -0.17876497                0.63824381               -0.01304797                0.27840538                0.04911374
               6.79511817                4.43351143               50.16026407                1.00000000                0.10544725                0.18042584               -0.28379449               -0.14962637                0.96009627               -1.25315854
               7.79775599                4.09890910               49.98100459                0.00010000                0.46599319                0.51053002               -1.33667298               -1.12198489                4.84600858               -1.79365068
               8.80443803                3.74669293               49.86909041                0.00010000                0.65337509                0.85106817               -2.10083553               -2.75756941                8.14995664                1.00393311
               9.81082349                3.39104254               49.75876388                0.00010000                0.35614500                1.20284403               -2.84195879               -3.59786905                8.44274401                3.95136643
              10.81156093                3.02768091               49.65606427                0.00010000               -0.49142295                1.53348617               -3.46097340               -4.73059166               11.04198980                7.42712951
              11.80099503                2.65476911               49.60015665                0.00010000               -2.07905732                1.22999581               -3.15119148               -9.22558868               17.28590927                9.96683690
              12.76997979                2.20092643               49.62407423                0.00010000               -2.26875541                3.53019095               -2.20070674               -4.94900559               13.99037450               -0.75998440
              13.75561992                1.85161472               49.50193619                0.00010000               -0.68973989                1.18404387                0.15009674               -0.00932562                2.78698850                0.26869643
              14.75618499                1.53432625               49.32826255                0.00010000                0.05650691               -0.53292871               -0.56408524                1.49465544                0.17245116               -1.08358128
               5.12707183                6.09108089               50.47093291                1.00000000               -0.23494590               -0.45200957                1.27683339               -0.05626222                0.19652210                1.15893354
               6.12472237                5.76427850               50.27154282                1.00000000               -0.11515822               -0.04698975                0.32594330               -0.05488693                0.43107532               -0.39704703
               7.12476867                5.43597990               50.07706997                0.81543724                0.14004408                0.34622841               -0.58488668               -0.22040215                1.55782374               -1.73670535
               8.12752325                5.10490693               49.89983009                0.00010000                0.50191326                0.53662057               -1.48564238               -1.00882765                7.96414099                0.67527538
               9.13480693                4.75723536               49.83283237                0.00010000                0.66494088                0.96969415               -2.02990464               -1.94660911               12.77887520                2.47203530
              10.14082207                4.40357509               49.75164820                0.00010000                0.55039898                1.10289088               -2.62480212               -2.37727731               12.59699046                4.28451805
              11.14581491                4.04218504               49.68062031                0.00010000                0.45492710                1.08954626               -2.90408996               -3.19540990               14.19681023                5.83274636
              12.14992061                3.66162055               49.63050803                0.00010000               -0.38453030                0.84826822               -2.76301048               -4.54328617               15.60170393                4.97978184
              13.13812431                3.25572551               49.58480481                0.00010000               -2.36541458                4.13608178               -2.12486041               -3.22396147               15.96823746               -0.28778193
              14.10261232                2.87537230               49.54234285                0.00010000               -1.77014390                2.28518843               -0.71016725               -0.73581519                8.24124018                1.33300303
              15.10272143                2.52104397               49.35367519                0.00010000                0.01091057               -0.61052483               -1.64549543                0.69453870                0.51790651               -2.80663172
               5.45127436                7.08704697               50.39695220                1.00000000               -0.16240772               -0.35455914                0.98093295               -0.03878254                0.03444134                0.88044818
               6.44965029                6.76452199               50.18842074                0.00010000               -0.05963307                0.06478170                0.05627362               -0.04072921                0.42821051               -0.70223196
               7.45008170                6.44043600               49.98788947                0.00010000                0.33368478                0.51045833               -0.85129853               -0.40104815                5.05463968               -2.20541306
               8.45632398                6.10964151               49.87144951                0.00010000                0.83779931                0.51541282               -0.96136144               -0.81915483               11.88447133                2.91780038
               9.46683769                5.76608682               49.80468698                0.00010000                1.10021398                0.75640135               -1.99537177               -1.51859198               14.86545665                2.99995396
              10.47832826                5.41310036               49.74499462                0.00010000                1.13847925                0.76464070               -2.45827854               -1.95849070               15.74194496                4.13486109
              11.48960727                5.04947183               49.69181357                0.00010000                0.91302844                0.63325951               -2.66155010               -2.60681141               16.67436385                4.80258775
              12.49658883                4.67173448               49.64620528                0.00010000                0.10707663                0.93869112               -2.54951779               -3.39800893               17.58914051                4.25658325
              13.49174881                4.28364806               49.60690133                0.00010000               -1.05018373                2.09181951               -2.08153143               -2.95866662               18.28698917                3.09052245
              14.47558516                3.89731849               49.57270366                0.00010000               -0.65081879                1.61216862               -1.31893988               -0.61286216                9.49946521                1.41738736
              15.47873243                3.52211575               49.35867505                0.00010000                0.31472748                0.56222606               -2.64185603                0.23442056                0.39566391               -2.77759849
               5.77134615                8.08398971               50.32076801                0.00010000               -0.08273848               -0.26277795                0.70083073               -0.03432701                0.01281267                0.73210244
               6.77051876                7.76557414               50.10462635                0.00010000                0.01410162                0.13695176               -0.19051711               -0.00391167                0.32344304               -0.73344315
               7.77162818                7.44618907               49.89473769                0.00010000                0.74852869                0.60384508               -1.07445025               -0.55234963                8.04552957               -2.43900724
               8.78548934                7.11521518               49.83251251                0.00010000                1.46740336                0.55830167               -1.53610889               -0.97973885               16.12983012                1.47997454
               9.80097625                6.77236338               49.77887600                0.00010000                1.63889511                0.51569276               -2.00844380               -1.44484725               17.40939150                2.79135357
              10.81826724                6.41886790               49.73608895                0.00010000                1.70341563                0.43236132               -2.41034413               -1.83605906               18.58986766                3.76523986
              11.83504456                6.05485023               49.69897586                0.00010000                1.47584846                0.41634102               -2.57269859               -2.26272592               19.41175408                4.39273336
              12.84778421                5.68039438               49.66538235                0.00010000                0.91611993                0.66227088               -2.49450491               -2.55320135               19.94699502                4.39796104
              13.85336696                5.29756190               49.63258275                0.00010000                0.20515916                1.01355450               -2.18603755               -2.36091977               20.10003071                3.50845551
              14.85188739                4.90761568               49.59751780                0.00010000                0.22241849                0.88921194               -1.68672034               -0.77892812               10.19306446                1.18152843
              15.85781533                4.53228849               49.36378362                0.00010000                0.59279369                1.04582569               -2.99363793                0.16496785                0.22273230               -2.28210851
               6.08741896                9.08179141               50.24396568                0.00010000               -0.00462735               -0.17929882                0.43877952               -0.03698704                0.02615965                0.69918347
               7.08737269                8.76726102               50.02073955                0.00010000                0.09873509                0.19947015               -0.43634651                0.03006114                0.16634883               -0.72838059
               8.08939366                8.45251290               49.80028725                0.00010000                1.15911032                0.62557486               -1.28321604               -0.73178620               10.02051445               -2.45071131
               9.11055489                8.12080754               49.77347129                0.00010000                2.24471801                0.44372640               -1.75272836               -1.38591609               20.12003875                0.27701947
              10.13428802                7.77640067               49.74688520                0.00010000                2.42826716                0.22399800               -2.15474184               -1.62403876               20.78561715                2.10456296
              11.15912024                7.42174758               49.72383042                0.00010000                2.42691309                0.11393982               -2.44812493               -1.74814868               21.66477354                3.23019785
              12.18282628                7.05779865               49.70451708                0.00010000                2.18464457                0.14497849               -2.58182940               -1.91930782               22.37857280                4.01535757
              13.20281313                6.68497990               49.68570301                0.00010000                1.72414122                0.28554810               -2.52558086               -2.06245483               22.54718599                4.45904065
              14.21730911                6.30391915               49.66139996                0.00010000                1.12334363                0.44606058               -2.30261823               -2.08044302               21.66922548                4.06997380
              15.22528000                5.91510273               49.61917409                0.00010000                0.76885238                0.74038953               -2.01165651               -0.87792317               10.56462280                1.01867719
              16.23268616                5.54303226               49.36881574                0.00010000                0.74061554                1.06368208               -3.21114181                0.08753315                0.12437011               -2.14343768
               6.39966719               10.08040373               50.16726227                0.00010000                0.07313140               -0.09365307                0.18073766               -0.03536022                0.00431714                0.69860547
               7.40039850                9.76956354               49.93679562                0.00010000                0.18893740                0.25612441               -0.68168489                0.04132467                0.01260387               -0.69547713
               8.40344593                9.45870057               49.70640028                0.00010000                1.67423703                0.59244685               -1.49553762               -1.05551214               11.76671027               -2.13168351
               9.43388324                9.12408971               49.71030152                0.00010000                3.20547501                0.08733394               -1.93667416               -1.80217874               23.74864815                0.00144385
              10.46755543                8.77684334               49.70854235                0.00010000                3.40115203               -0.24851029               -2.29915478               -1.62622280               24.10229667                1.43905782
              11.50190628                8.42114670               49.70652361                0.00010000                3.29353272               -0.24536652               -2.54710154               -1.46703984               24.88391548                2.46089522
              12.53342609                8.05774980               49.70660710                0.00010000                2.92541669               -0.14383667               -2.64870979               -1.49141233               25.68911020                3.28641934
              13.56041462                7.68610534               49.70744575                0.00010000                2.41045867               -0.00160547               -2.57954860               -1.63836845               25.75995824                4.13479353
              14.58163526                7.30648311               49.69787054                0.00010000                1.74006008                0.15344917               -2.34896680               -1.69233398               23.13340496                5.21148001
              15.59521582                6.92242347               49.63948008                0.00010000                1.10358345                0.75324888               -2.31650652               -0.80013883               10.50414631                1.02332195
              16.60370693                6.55356213               49.37346276                0.00010000                0.84911141                1.06115830               -3.41630455                0.05735178                0.08197783               -2.15178659
               6.70839214               11.07991835               50.09055511                0.00010000                0.15102062               -0.00232116               -0.08446954               -0.03805472               -0.00181054                0.60979135
               7.70990234               10.77238351               49.85325112                0.00010000                0.26825563                0.31002615               -0.92818117                0.01780814                0.09478230               -0.56802571
               8.71375725               10.46436183               49.61771933                0.00010000                2.32331019                0.56834451               -1.71838375               -1.60985847               13.45387360               -1.29773431
               9.75636855               10.12255422               49.64689493                0.00010000                4.54746649               -0.78764357               -2.14040287               -1.74068736               26.87504286               -0.01883792
              10.80470658                9.77143047               49.66578976                0.00010000                4.62522209               -0.75330199               -2.47675402               -1.16049682               27.08071376                0.77487548
              11.84887299                9.41684025               49.68221557                0.00010000                4.16664121               -0.58946985               -2.69397403               -0.83173789               27.92121642                1.39163189
              12.88803940                9.05492192               49.70093929                0.00010000                3.62197278               -0.38841920               -2.76472206               -0.85042217               29.06326821                1.94393376
              13.92131244                8.68494779               49.72363765                0.00010000                2.95524485               -0.19231425               -2.66128842               -1.03094505               30.19418706                2.67422662
              14.94714430                8.30698813               49.75004354                0.00010000                2.04428799                0.11991022               -2.30154625               -1.01900403               25.08101796                4.43090042
              15.96219820                7.93016771               49.66097945                0.00010000                1.22057800                0.79754804               -2.60379431               -0.58166997                9.66847353                1.00490831
              16.97155586                7.56425543               49.37790156                0.00010000                0.93576565                1.09990327               -3.61780365                0.04268497               -0.08098438               -1.76199220
               7.01397577               12.08035731               50.01218404                0.00010000                0.23354075                0.04389563               -0.34867294                0.09903930                0.30488716                0.52215065
               8.01631118               11.77576406               49.77145487                1.00000000                0.35511404                0.33805530               -1.18881235                0.12639136                0.76729888               -0.45647885
               9.02107805               11.47006746               49.53974248                0.00010000                3.78448415                0.57056249               -1.98302266               -2.63928069               15.15832731               -0.72022152
              10.09200086               11.10833684               49.58602662                0.00010000                6.44907085               -1.42173819               -2.39716153               -1.85127616               29.31174893               -0.17551424
              11.15005947               10.76177730               49.61843847                0.00010000                5.48896027               -0.96531628               -2.72240039               -0.41368767               29.42593442                0.27167494
              12.20178007               10.40935730               49.64822204                0.00010000                4.91253202               -0.74829470               -2.91817078               -0.29908654               30.43195764                0.60383282
              13.24831011               10.04998141               49.68132672                0.00010000                4.29747169               -0.49405101               -2.95946589               -0.32784183               31.93000050                0.90024644
              14.28772950                9.68225905               49.72148584                0.00010000                3.38625744               -0.26887346               -2.81600891               -0.41329891               33.83257920                1.33346565
              15.31603526                9.30888132               49.77467935                0.00010000                1.92928113                0.18931820               -2.41072704               -0.30513525               27.75521120                2.61750446
              16.32631512                8.93837443               49.68125974                0.00010000                1.01749675                0.82067186               -2.86375045               -0.25436373               10.67534135                0.91436477
              17.33638519                8.57556020               49.39113516                1.00000000                1.00700697                1.13047714               -3.82037068                0.20151057                0.79302832               -1.38575275
               3.96628682                2.20234749               51.77757326                1.00000000               -0.66100448               -0.76893870                2.66081533               -0.20208086               -1.04916020                0.97256420
               4.95967677                1.85314840               51.58640448                1.00000000               -0.54626845               -0.40946317                1.55867650               -0.13451601               -1.41077949                0.16134273
               5.95536145                1.50304001               51.38846715                1.00000000               -0.34844483               -0.06904640                0.51659931               -0.15948597               -1.37393364               -0.21448349
               6.95270788                1.14952647               51.19787889                1.00000000               -0.63594868                0.37266678               -0.52467298               -0.49167697               -0.24244439               -0.86512945
               7.94264248                0.78617319               51.02158815                1.00000000               -0.79793241                0.76001017               -1.19598853               -0.26238236                0.98037196               -0.01096870
               8.93674923                0.41468911               50.85242626                1.00000000               -0.49628788                0.96461207               -2.00321192               -0.30181242                1.71552554               -0.08762930
               9.93271672                0.03317649               50.68830990                1.00000000               -0.71837931                1.43770418               -2.97871790               -0.83004329                3.36383142               -0.30525910
              10.92238164               -0.36762512               50.54786967                1.00000000               -1.68471234                2.42094698               -4.31245033               -2.31883065                8.97006068                0.12539711
              11.89902247               -0.80896045               50.49004368                1.00000000                1.58967358                2.56242109               -3.72076807               -0.21215876                6.16713499                2.50126383
              12.95417511               -1.19555728               50.35404051                1.00000000                3.08190491                0.33285499               -1.62244074               -2.81939280                1.73910606                0.30632005
              13.96066057               -1.52629173               50.18065351                1.00000000                0.64854553                0.66203012               -2.41802955               -0.26852801               -0.18786273               -0.24947586
               4.31346509                3.19465810               51.69978360                1.00000000               -0.54797419               -0.73357426                2.36406050               -0.00913081               -0.25666457                1.29560753
               5.30798535                2.84905377               51.50861150                1.00000000               -0.39437684               -0.37413458                1.25954704                0.05032610               -0.40073183                0.25031776
               6.30557756                2.50234955               51.31501691                1.00000000               -0.08804167               -0.03050489                0.18817077                0.03259448               -0.30457253               -0.35452340
               7.30622452                2.15325314               51.12579116                1.00000000                0.09298881                0.38016978               -0.89189916               -0.36571403                1.29464478               -1.19313263
               8.30743733                1.79377329               50.96390341                1.00000000                0.20024685                0.61789925               -1.66349106               -0.17556845                2.34086192                0.07136415
               9.31022946                1.42433523               50.79794792                1.00000000                0.40680326                0.93674483               -2.59889479               -0.22620778                2.25380303                0.00281078
              10.31557340                1.04755353               50.63436189                1.00000000                0.50161754                1.43643879               -3.78761653               -0.55341922                3.80843042               -0.37314527
              11.32026181                0.65658435               50.49792623                1.00000000               -0.23532174                2.54528798               -5.65826683               -2.76448216               11.61107257               -0.22253608
              12.31086696                0.21666376               50.48551064                1.00000000               -1.78074901                0.47685453               -7.89333335               -6.89038474               15.58900465               10.21169170
              13.28464683               -0.19222873               50.40341056                1.00000000               -1.10786094                0.23424656               -0.92584994               -3.95745010                4.65437684                0.43575758
              14.28870975               -0.51967143               50.22813971                1.00000000                0.40629186                0.56800054               -1.80664026               -0.10074575                0.01425685               -0.23294500
               4.65731286                4.18767600               51.62915454                1.00000000               -0.43210101               -0.65831502                2.02847177               -0.01008733               -0.01155091                1.60795360
               5.65299185                3.84566571               51.43276205                1.00000000               -0.27494427               -0.28971143                0.95087435                0.03661043                0.06803994                0.27526227
               6.65181397                3.50242991               51.23837818                1.00000000                0.04890019                0.06782630               -0.12812952               -0.02626365                0.28820289               -0.73150912
               7.65396985                3.15712986               51.04632063                1.00000000                0.81175208                0.42609328               -1.21789617               -0.67791820                2.99000324               -1.51771420
               8.66804902                2.79853117               50.90553310                1.00000000                1.22374909                0.59349027               -2.13393982               -1.47877659                3.98103292                0.21040534
               9.67844484                2.43342400               50.74211426                1.00000000                1.06750975                0.99002697               -3.17754980               -2.03620833                2.57050661                2.23696764
              10.68939921                2.06190526               50.57519206                1.00000000                0.97684679                1.32832769               -4.40186707               -2.99997915                3.81719286                4.71150453
              11.69798177                1.68328064               50.43526042                1.00000000               -3.96856774                1.73463557               -5.64054228               -9.36852834               20.52268711                8.66707210
              12.61002786                1.20057664               50.59587268                1.00000000               -4.33102345                0.06705058               -3.23245550              -10.88500953               18.94722672                7.32669925
              13.61136130                0.80912765               50.45458176                0.00010000                0.17516033                0.06103056               -0.32501381               -3.25611122                1.91137054                0.45575009
              14.61353106                0.48506828               50.27574594                1.00000000                0.21697608                0.36452281               -1.12369361               -0.07799145                0.05265405               -0.20819566
               4.99728393                5.18149180               51.55813660                1.00000000               -0.33202783               -0.56628517                1.68493726               -0.03435397                0.11911639                1.41909651
               5.99396365                4.84325954               51.35554630                1.00000000               -0.18478985               -0.17844490                0.63666293               -0.00767778                0.30202301                0.02553560
               6.99358813                4.50370607               51.15694940                1.00000000                0.13006222                0.19788365               -0.37926532               -0.12143650                0.93913421               -1.19788044
               7.99656490                4.16177500               50.96680965                0.00010000                0.39897654                0.55569362               -1.50045280               -0.90490071                4.92100998               -1.63800808
               9.00156766                3.80564310               50.84720211                0.00010000                0.47831528                0.89056252               -2.27990640               -2.22478175                8.35720185                1.39416518
              10.00613120                3.44413577               50.72924156                0.00010000                0.20747581                1.12617844               -3.06765723               -3.12845175                8.71383425                4.65837107
              11.00571718                3.07412008               50.62011075                0.00010000               -0.59556674                1.19936645               -3.69242075               -4.46436960               11.84471085                8.70984436
              11.99421987                2.69127706               50.56660420                0.00010000               -1.91987088                0.46947246               -3.61784781               -9.75983593               18.74631589               12.26080813
              12.96731976                2.21800477               50.59539833                0.00010000               -2.95934519                3.28803930               -3.12564249               -7.21422323               17.39373732                0.62498083
              13.93503296                1.80899188               50.50399594                0.00010000               -1.60255468                2.31588855                0.23982185               -1.67933853                4.71701963               -0.65820998
              14.93526867                1.48761902               50.32339590                0.00010000                0.02357058               -0.36977252               -0.48534787                2.33928692                0.23698443               -1.99082540
               5.33309029                6.17635030               51.48408476                1.00000000               -0.24662725               -0.46291310                1.35267222               -0.05381282                0.18014358                1.10744560
               6.33062402                5.84209681               51.27472042                1.00000000               -0.11102542               -0.04533018                0.30805314               -0.04462355                0.43589875               -0.40654860
               7.33086979                5.50638759               51.07069989                0.84397420                0.16553976                0.36787602               -0.69165625               -0.18662002                1.59313466               -1.70406970
               8.33393482                5.16824374               50.88408348                0.00010000                0.51614154                0.62978741               -1.65594293               -0.75734009                8.19334346                1.21988163
               9.34119262                4.81634242               50.81151348                0.00010000                0.67319986                0.96826983               -2.23718866               -1.52770222               13.15522122                2.90868283
              10.34739881                4.45594757               50.72424638                0.00010000                0.58889538                1.01203679               -2.85027172               -1.98896926               13.11416325                4.92916704
              11.35297052                4.08589259               50.65023583                0.00010000                0.57507760                0.82948046               -3.16653236               -2.91934116               15.11145279                6.76441628
              12.35890037                3.69267009               50.60102375                0.00010000               -0.24709763                0.41093358               -3.09233818               -4.67090261               17.08192898                5.98006737
              13.34802857                3.26633742               50.56205384                0.00010000               -2.53700447                3.76171488               -2.43039179               -4.33590001               18.28819266                0.79870495
              14.30816028                2.85544542               50.53283837                0.00010000               -2.24830260                3.85227717               -1.44981897               -1.06653279               10.16949044                0.98724821
              15.30306252                2.47767283               50.33503887                0.00010000               -0.50977570                0.21254124               -2.29908228                0.69303479                1.12959168               -3.87244066
               5.66471464                7.17223354               51.40706623                1.00000000               -0.16807502               -0.36229395                1.04133931               -0.03814058                0.02414003                0.85043258
               6.66303389                6.84235294               51.18883257                0.00010000               -0.05029171                0.06800548                0.02584825               -0.02762978                0.42681800               -0.68162109
               7.66370881                6.51106359               50.97875109                0.00010000                0.42146815                0.53382277               -0.97683284               -0.31056644                5.46813704               -2.14910504
               8.67146326                6.17437075               50.86080760                0.00010000                0.98004870                0.62375170               -1.19877639               -0.54113652               12.26477233                3.24870047
               9.68330978                5.82500849               50.78357629                0.00010000                1.26691962                0.73013856               -2.22930825               -1.16910407               15.07085419                3.35200373
              10.69680165                5.46437650               50.71918250                0.00010000                1.36490279                0.64657863               -2.70882715               -1.64700389               16.37589567                4.60069560
              11.71060784                5.09070969               50.66390971                0.00010000                1.17776672                0.41525674               -2.92255141               -2.42096009               17.64866730                5.35844741
              12.72035698                4.69949573               50.61941996                0.00010000                0.36092944                0.68303650               -2.81431322               -3.52456335               19.00264636                4.83379324
              13.71782643                4.29323907               50.58463902                0.00010000               -0.89950401                2.03350472               -2.39484054               -3.35128166               20.21477604                3.48101028
              14.70236690                3.88603743               50.55814222                0.00010000               -0.65759347                2.12050494               -1.68786553               -0.72040034               10.76684396                1.39723498
              15.70467456                3.49186985               50.33054087                0.00010000                0.23076558                1.46133845               -2.99599419                0.46936593                0.68692400               -2.81144517
               5.99208868                8.16910442               51.32801922                0.00010000               -0.08473082               -0.27015071                0.74977103               -0.03578097                0.01749911                0.72098102
               6.99124137                7.84345692               51.10251537                0.00010000                0.02759834                0.14569548               -0.23257996                0.00937904                0.33117485               -0.70366934
               7.99264065                7.51706404               50.88331452                0.00010000                0.89629082                0.62898515               -1.21120157               -0.44078248                8.27293374               -2.36001334
               9.00916719                7.18071877               50.81602723                0.00010000                1.75820684                0.59448580               -1.76124628               -0.73648533               16.56494254                1.40878267
              10.02780478                6.83094520               50.75755571                0.00010000                1.97951749                0.46042226               -2.26641817               -1.18651958               17.90510766                3.02290286
              11.04875754                6.46887915               50.71072922                0.00010000                2.08136543                0.30007949               -2.67525659               -1.60030133               19.26946022                4.06766127
              12.06943209                6.09419773               50.67208236                0.00010000                1.85610934                0.24256438               -2.82645098               -2.13277860               20.38887725                4.72492021
              13.08587972                5.70633082               50.63941941                0.00010000                1.25145774                0.51470725               -2.72781680               -2.62533985               21.25442236                4.69934921
              14.09446125                5.30700752               50.60987706                0.00010000                0.46208817                0.99312830               -2.39659041               -2.66547188               21.75848388                3.70903748
              15.09512149                4.89785552               50.58019569                0.00010000                0.31618735                0.98493580               -1.80734284               -0.95469331               11.16403042                1.19819724
              16.10078499                4.50689960               50.33338413                0.00010000                0.56635059                1.35026036               -3.05839700                0.19314427                0.30143922               -1.98192113
               6.31529402                9.16683052               51.24855319                0.00010000               -0.00321645               -0.18588302                0.47839657               -0.03656016                0.02701536                0.69850945
               7.31526185                8.84526685               51.01610062                0.00010000                0.11686476                0.21340871               -0.49061314                0.04169087                0.18558208               -0.69768792
               8.31763131                8.52364330               50.78678850                0.00010000                1.37952717                0.65277725               -1.42149041               -0.64846582               10.24716676               -2.36757942
               9.34285240                8.18626047               50.75485630                0.00010000                2.68938525                0.41018397               -1.97705983               -1.19767697               20.56821370                0.37804209
              10.37141902                7.83421694               50.72406688                0.00010000                2.93453474                0.11804288               -2.42238394               -1.44020238               21.34589951                2.24487212
              11.40154309                7.47037809               50.69811712                0.00010000                2.95407875               -0.04384945               -2.71600923               -1.55815095               22.39801020                3.42547178
              12.43050059                7.09556098               50.67772643                0.00010000                2.67486521               -0.02544126               -2.80700700               -1.77282645               23.34206075                4.22262444
              13.45504039                6.70978988               50.65991654                0.00010000                2.12458475                0.16145509               -2.67357967               -2.05008755               23.75983238                4.66456419
              14.47299229                6.31310163               50.63830403                0.00010000                1.41702814                0.40581598               -2.36601266               -2.31059330               23.07464871                4.27368976
              15.48338096                5.90573614               50.59914577                0.00010000                0.87285052                0.75823780               -1.99530801               -1.06440094               11.32095274                1.00284498
              16.49044930                5.51887506               50.33698844                0.00010000                0.70683400                1.12094019               -3.12031578                0.07822434                0.14501348               -1.89015104
               6.63448483               10.16538676               51.16920190                0.00010000                0.07775911               -0.09922382                0.20823610               -0.03543733                0.00501214                0.69567002
               7.63526242                9.84772510               50.92967447                0.00010000                0.20964437                0.27375177               -0.74270626                0.04839561                0.03988398               -0.66513333
               8.63867771                9.53011959               50.69075332                0.00010000                1.96887954                0.62584729               -1.63883209               -1.03612656               12.00708211               -2.06006204
               9.67464001                9.18892245               50.68982202                0.00010000                3.81026984               -0.01199618               -2.16891259               -1.71403348               24.21636306                0.09962919
              10.71488311                8.83330605               50.68427165                0.00010000                4.08052350               -0.42401398               -2.57232701               -1.50382512               24.69288015                1.55599301
              11.75625048                8.46800216               50.67988012                0.00010000                3.98403336               -0.45251692               -2.80655253               -1.30569231               25.64575976                2.59221520
              12.79456378                8.09368890               50.67942140                0.00010000                3.55434216               -0.36478644               -2.82313752               -1.31583875               26.67198113                3.42970897
              13.82733732                7.70955992               50.68193518                0.00010000                2.88696705               -0.20296441               -2.57328200               -1.50332245               26.97804163                4.31217247
              14.85230312                7.31512384               50.67584343                0.00010000                2.03613626                0.02712873               -2.12145618               -1.75385530               24.29920608                5.56592629
              15.86806005                6.91302028               50.61673586                0.00010000                1.18842680                0.73618561               -2.22170997               -0.95498833               11.00574830                0.98115607
              16.87607165                6.52931840               50.34005487                0.00010000                0.80116080                1.02635929               -3.23135484                0.04925614                0.08039345               -1.96568626
               6.94990859               11.16484605               51.08979455                0.00010000                0.15883434               -0.00753751               -0.06608050               -0.03936498                0.00183615                0.60404254
               7.95149694               10.85074188               50.84361466                0.00010000                0.29014170                0.33192381               -0.99917476                0.02034051                0.12738658               -0.54758526
               8.95571143               10.53616024               50.59979504                0.00010000                2.69441611                0.60843749               -1.86832972               -1.69326683               13.70084170               -1.25312692
              10.00538526               10.18602054               50.62435738                0.00010000                5.32756903               -0.99871605               -2.37799209               -1.75081799               27.35845503                0.04632402
              11.06226281                9.82573666               50.63974549                0.00010000                5.48305680               -0.99823159               -2.74985313               -1.09573933               27.69786446                0.84781573
              12.11504640                9.46132775               50.65417468                0.00010000                5.01816213               -0.85963797               -2.93842785               -0.72285523               28.71754707                1.46915365
              13.16262605                9.08826525               50.67285713                0.00010000                4.42463071               -0.69049791               -2.88390236               -0.72140646               30.09387811                2.02765198
              14.20353901                8.70573059               50.69812044                0.00010000                3.59143863               -0.53717248               -2.49629693               -0.88467585               31.58945004                2.79535687
              15.23445482                8.31364421               50.73145761                0.00010000                2.32738089               -0.18328008               -1.51207537               -0.93834586               26.05757274                4.72389482
              16.25008663                7.92045985               50.63550080                0.00010000                1.21916773                0.76090576               -2.47159297               -0.63685752                9.80817358                0.94742193
              17.25883818                7.53940224               50.34279497                0.00010000                0.87515507                1.02826185               -3.36917559                0.04010966               -0.09174575               -1.62789851
               7.26190585               12.16523601               51.00872707                0.00010000                0.24491810                0.03899620               -0.34052641                0.11248211                0.29672884                0.51567486
               8.26435503               11.85436357               50.75915579                1.00000000                0.38139332                0.36216891               -1.27056494                0.13842577                0.78478176               -0.44382709
               9.26953372               11.54228834               50.51912945                0.00010000                4.28460998                0.61280942               -2.14101641               -2.88854331               15.39406639               -0.69578331
              10.35004723               11.16894813               50.56090059                0.00010000                7.40636970               -1.70724140               -2.63643607               -1.98114862               29.80615056               -0.13314796
              11.41766111               10.81334142               50.58996380                0.00010000                6.46087744               -1.23952370               -2.98627939               -0.36710636               30.07302690                0.32000169
              12.47926478               10.45080940               50.61802132                0.00010000                5.90358497               -1.05183576               -3.14025293               -0.25128546               31.27405416                0.65651005
              13.53573281               10.07987894               50.65145444                0.00010000                5.25000331               -0.83863071               -3.03900583               -0.28897027               33.02270601                0.96029135
              14.58426485                9.69881647               50.69481934                0.00010000                4.15370629               -0.69141186               -2.56307757               -0.34845174               35.31050524                1.42059007
              15.61880694                9.31145824               50.75603104                0.00010000                2.26500068               -0.21859715               -1.43273608               -0.09369264               28.62806370                2.82212431
              16.62956486                8.92823839               50.65314449                0.00010000                1.00910676                0.77785396               -2.72280100               -0.13090672               10.62417258                0.84380550
              17.63898907                8.54988364               50.35406696                1.00000000                0.94242120                1.04813950               -3.54804544                0.17961361                0.74334798               -1.29057378
               4.15282757                2.29110079               52.80481272                1.00000000               -0.68022037               -0.80078656                2.77456139               -0.21949940               -0.98010999                0.92292407
               5.14602537                1.93400283               52.60216310                1.00000000               -0.54860582               -0.41640298                1.58556916               -0.15181811               -1.30347516                0.15127444
               6.14185546                1.57601270               52.39335492                1.00000000               -0.30997728               -0.05000727                0.45525887               -0.17249030               -1.22726780               -0.20950284
               7.13982582                1.21492752               52.19184568                1.00000000               -0.49191155                0.40776017               -0.68675567               -0.42848057                0.08913167               -0.84141522
               8.13201723                0.84605494               52.00798036                1.00000000               -0.56252651                0.86151724               -1.56303407               -0.27001449                1.52113871               -0.01029649
               9.12857529                0.47119886               51.82976510                1.00000000               -0.16180150                1.11073441               -2.58161839               -0.27308219                2.25140767               -0.10975059
              10.12878120                0.08853185               51.65443233                1.00000000               -0.04819441                1.58185495               -3.85162053               -0.62064051                3.76365193               -0.28772546
              11.12761140               -0.30697796               51.49698528                1.00000000               -2.22657051                2.47972759               -5.64971587               -2.88389282               10.93193497                0.30390438
              12.08424978               -0.75537116               51.44701331                1.00000000                0.16806604                4.31665917               -5.17756098               -3.06615724               11.35333257               -0.65429223
              13.13097273               -1.24539508               51.33787394                1.00000000                2.63726435                0.37611375               -1.67108492               -7.85975851                3.48144576                0.29059412
              14.13699507               -1.57909222               51.15636438                1.00000000                0.60223462                0.64826265               -2.40841600               -0.22403511               -0.11983695               -0.24787330
               4.50773054                3.28309292               52.72400332                1.00000000               -0.56793069               -0.76123917                2.46867241               -0.01397726               -0.23000725                1.23273916
               5.50205123                2.92983880               52.52132805                1.00000000               -0.40311658               -0.37892869                1.27774964                0.04695429               -0.35030633                0.23752698
               6.49966821                2.57551262               52.31658283                1.00000000               -0.07656682               -0.01019896                0.12192895                0.03624244               -0.23620261               -0.34503206
               7.50051990                2.21900512               52.11607683                1.00000000                0.07566008                0.41980214               -1.04980365               -0.24393646                1.51634052               -1.15810794
               8.50118141                1.85467011               51.94586607                1.00000000                0.20430599                0.75342297               -1.97412696               -0.13986752                2.74177136                0.04529052
               9.50460602                1.48230621               51.76988868                1.00000000                0.52408962                1.08825339               -3.04754802               -0.16881986                2.54594408               -0.04328708
              10.51166320                1.10435040               51.59358726                1.00000000                0.80589843                1.57323416               -4.37688692               -0.29585313                3.69707296               -0.38720884
              11.52072398                0.71781932               51.43645811                1.00000000                0.55667859                2.43310307               -6.26686917               -2.33576760               10.62060057                0.38887238
              12.52279677                0.28779543               51.39101137                1.00000000               -2.82441569               -1.14304273               -6.62032133              -12.50649137               18.39835192                9.77035765
              13.46423567               -0.24163394               51.39365524                1.00000000               -2.71724570                0.28080637               -1.02146592               -9.84124714                9.30304084                0.41869175
              14.46845186               -0.57260959               51.21003196                1.00000000                0.42161889                0.56873308               -1.81714324               -0.09851364                0.01400336               -0.21533824
               4.85905628                4.27587600               52.64995588                1.00000000               -0.45115261               -0.67770249                2.12336783               -0.01381379                0.00426723                1.52645113
               5.85454475                3.92642425               52.44232856                1.00000000               -0.28211474               -0.29123374                0.95846010                0.03780902                0.08903897                0.25623133
               6.85341398                3.57580872               52.23673442                1.00000000                0.06224272                0.08597432               -0.20128356               -0.00656965                0.30883351               -0.68853306
               7.85578960                3.22332356               52.03338357                1.00000000                0.62524038                0.46904882               -1.36669798               -0.46408671                3.10178389               -1.44820183
               8.86591879                2.86112340               51.88318409                1.00000000                0.98645011                0.69628747               -2.36408232               -1.11954398                4.22504463                0.32096968
               9.87551861                2.49296393               51.70880282                1.00000000                1.07161168                0.98858161               -3.50979129               -1.67706753                2.67285821                2.52558765
              10.88735102                2.11999654               51.52846465                1.00000000                1.09662091                1.12418117               -4.87359600               -2.59252630                4.00327090                5.45065012
              11.89745102                1.74168410               51.37904162                1.00000000               -4.68889030                0.82013156               -5.42176122              -10.91593834               21.10822431               10.52421678
              12.79357322                1.22176798               51.54157795                1.00000000               -5.14491090               -2.02752739               -5.45669236              -16.18985155               23.60062039               10.30518397
              13.79455281                0.76022105               51.45091391                0.00010000                0.17014403                0.09139317               -0.40662691               -6.58792334                4.87264042                0.45916595
              14.79697610                0.43228244               51.26422031                1.00000000                0.24232903                0.39131988               -1.20318358               -0.11021508                0.09035148               -0.17562161
               5.20635776                5.26953887               52.57543214                1.00000000               -0.34830676               -0.57879199                1.76828914               -0.03511945                0.13005987                1.34349556
               6.20287470                4.92401412               52.36189699                1.00000000               -0.18601292               -0.17814988                0.63196395               -0.00131470                0.33112094               -0.00348727
               7.20263751                4.57723211               52.15267877                1.00000000                0.15243910                0.21440505               -0.47502094               -0.08868518                0.93720686               -1.15371593
               8.20592348                4.22838610               51.95099553                0.00010000                0.32563275                0.59915228               -1.66205812               -0.69246564                5.05304399               -1.48664407
               9.20915016                3.86859586               51.82349228                0.00010000                0.31340252                0.89557163               -2.47563406               -1.72392998                8.66308487                1.69469494
              10.21219153                3.50207784               51.69741073                0.00010000                0.09711714                0.96267787               -3.30833033               -2.64487295                9.15848704                5.23548089
              11.21109250                3.12683403               51.58221585                0.00010000               -0.57788798                0.68389354               -3.89501052               -4.19701558               12.72950002                9.85732395
              12.20063377                2.73422195               51.52779970                0.00010000               -1.53148535               -0.66389787               -4.02119833               -9.86494926               20.42375350               13.67778665
              13.18046280                2.24724488               51.56156138                0.00010000               -3.93355116                3.03454668               -4.21274359               -9.77638529               20.73143162                2.31318631
              14.12196275                1.76019392               51.50673263                0.00010000               -2.91690157                4.03749736                0.29724478               -3.67818931                6.97674447               -2.07262566
              15.12212477                1.43521680               51.31855559                0.00010000                0.01620191                0.20838721               -0.52598692                3.69909684                0.31048924               -3.40285061
               5.54940339                6.26430016               52.49798636                1.00000000               -0.25781710               -0.47088539                1.42333311               -0.05055477                0.16528005                1.05094058
               6.54682522                5.92286125               52.27770388                1.00000000               -0.10675417               -0.04597521                0.28870894               -0.02881258                0.44636774               -0.41987672
               7.54726830                5.58009682               52.06323685                0.90892797                0.18756620                0.38035770               -0.80215465               -0.13613686                1.65506083               -1.68048351
               8.55057654                5.23530661               51.86671124                0.00010000                0.52400725                0.71428335               -1.81283148               -0.50956149                8.46866348                1.71331955
               9.55774845                4.87903483               51.78808860                0.00010000                0.69032227                0.92443941               -2.45526324               -1.11797047               13.61425192                3.23195342
              10.56438298                4.51221749               51.69464277                0.00010000                0.67590772                0.82767950               -3.08164029               -1.60195996               13.74344308                5.40221455
              11.57126660                4.13367441               51.61728966                0.00010000                0.76790990                0.39801137               -3.42603981               -2.62803432               16.17267558                7.37443493
              12.57974118                3.72840614               51.56866127                0.00010000                0.04034677               -0.21036343               -3.41752494               -4.79684081               18.69531188                6.63088380
              13.57207354                3.28245892               51.53619698                0.00010000               -2.33620418                2.91000811               -2.71689876               -5.52879381               20.41774561                1.36472866
              14.53301710                2.84097099               51.51334647                0.00010000               -2.55806370                5.88559793               -2.72429661               -1.14756457               12.08526995                0.03226267
              15.52091226                2.43645019               51.30769354                0.00010000               -1.21048358                1.61623882               -3.20546732                0.82536132                2.15936016               -5.07054664
               5.88822449                7.26012116               52.41777899                1.00000000               -0.17226975               -0.36888943                1.09811778               -0.03763211                0.01657587                0.81704376
               6.88650179                6.92309462               52.18893770                0.00010000               -0.03775345                0.06857253               -0.00497318               -0.01300775                0.42618147               -0.66134901
               7.88746942                6.58483927               51.96835281                0.00010000                0.51462231                0.54272894               -1.09946112               -0.20580839                5.85422128               -2.09790009
               8.89679423                6.24267176               51.84747398                0.00010000                1.12052271                0.70177661               -1.48657481               -0.28920793               12.66170459                3.51189717
               9.90987987                5.88708465               51.76010081                0.00010000                1.43592607                0.66480078               -2.47259274               -0.87061873               15.36766432                3.59065012
              10.92551276                5.51863143               51.69081808                0.00010000                1.62316446                0.45345116               -2.97712489               -1.37717906               17.08966181                4.88623419
              11.94234316                5.13479425               51.63336254                0.00010000                1.51998433                0.09287517               -3.21124269               -2.28757192               18.70793921                5.67603910
              12.95591244                4.73001468               51.58991902                0.00010000                0.74894552                0.27393163               -3.11962880               -3.70062195               20.46246439                5.11063026
              13.95732207                4.30544505               51.55900452                0.00010000               -0.54461278                1.78093616               -2.81684180               -3.82109859               22.07853107                3.54498742
              14.94502019                3.87790588               51.53894635                0.00010000               -0.48242326                2.48025373               -2.30095885               -0.96298194               11.99331979                1.55835221
              15.94767361                3.46754158               51.29875516                0.00010000                0.26534185                2.48761588               -3.36925319                0.79131793                1.04471048               -2.54809646
               6.22270384                8.25692237               52.33576343                0.00010000               -0.08568780               -0.27711240                0.79592889               -0.03697109                0.02125450                0.70963085
               7.22184696                7.92423270               52.09997475                0.00010000                0.04355766                0.15267692               -0.27493068                0.01881260                0.33734684               -0.67241943
               8.22357499                7.59095140               51.87051366                0.00010000                1.03500182                0.64416224               -1.34617280               -0.33893332                8.49882323               -2.27971656
               9.24254699                7.24934214               51.79728758                0.00010000                2.04007099                0.59509152               -1.98781745               -0.53869969               17.01220809                1.31542819
              10.26437641                6.89233085               51.73354764                0.00010000                2.32914036                0.37487648               -2.54725552               -0.99951548               18.43826272                3.14633960
              11.28912980                6.52128651               51.68258382                0.00010000                2.48777523                0.12373447               -2.97493309               -1.44454003               19.99962853                4.21999055
              12.31413191                6.13553191               51.64244684                0.00010000                2.29740754                0.00589240               -3.13469383               -2.09384081               21.41256750                4.87973595
              13.33507795                5.73388478               51.61082601                0.00010000                1.68142259                0.28703676               -3.04248227               -2.79672707               22.58404477                4.82425732
              14.34776037                5.31807764               51.58465094                0.00010000                0.82914865                0.89907638               -2.71069935               -3.05289615               23.43768201                3.81114821
              15.35166093                4.89057607               51.56137094                0.00010000                0.48534255                1.03567910               -2.01593718               -1.19403373               12.15263912                1.32266266
              16.35746722                4.48620250               51.30261568                0.00010000                0.58062911                1.55084628               -3.10005453                0.17401820                0.40921917               -1.55019393
               6.55286440                9.25457891               52.25353361                0.00010000               -0.00153865               -0.19233037                0.51570549               -0.03715328                0.02527924                0.69863107
               7.55284902                8.92614816               52.01092728                0.00010000                0.13584573                0.22570612               -0.54199299                0.04707009                0.20398213               -0.66417091
               8.55558132                8.59772251               51.77185744                0.00010000                1.58958867                0.67706960               -1.56378180               -0.58547625               10.47462117               -2.28318299
               9.58464079                8.25457359               51.73393010                0.00010000                3.11819364                0.36195370               -2.21486078               -1.04975739               21.01480119                0.43405364
              10.61794519                7.89458218               51.69843752                0.00010000                3.43900519               -0.00231284               -2.71936020               -1.32444738               21.92205611                2.29764424
              11.65342089                7.52110612               51.66951023                0.00010000                3.49614436               -0.21765333               -3.03366445               -1.45640780               23.16541833                3.50415362
              12.68786808                7.13491210               51.64837694                0.00010000                3.20056386               -0.21593200               -3.10611244               -1.73359825               24.35138072                4.31844797
              13.71743217                6.73575541               51.63223141                0.00010000                2.58523892                0.01300555               -2.92195875               -2.15050340               25.00905846                4.82266404
              14.73957286                6.32342657               51.61407971                0.00010000                1.77912397                0.32852080               -2.55086366               -2.60388050               24.50993007                4.54987677
              15.75301465                5.89861946               51.57926793                0.00010000                1.01641206                0.75577467               -2.00287137               -1.27048229               12.09425133                1.02729496
              16.75990110                5.49855851               51.30640942                0.00010000                0.68864469                1.11196882               -2.99281508                0.05438268                0.18243096               -1.58897398
               6.87882229               10.25307577               52.17142699                0.00010000                0.08224749               -0.10524385                0.23715443               -0.03668278                0.00591249                0.69461964
               7.87964476                9.92874683               51.92194149                0.00010000                0.23088683                0.29011682               -0.80275398                0.05087962                0.06874032               -0.63289251
               8.88344003                9.60449279               51.67362363                0.00010000                2.25237053                0.66003263               -1.78626259               -1.03577847               12.24624943               -1.98593829
               9.92469217                9.25658121               51.66692327                0.00010000                4.39574558               -0.10857301               -2.42118175               -1.66308962               24.67332704                0.15988110
              10.97135494                8.89228459               51.65709580                0.00010000                4.74897750               -0.59437800               -2.88323837               -1.43731972               25.29107899                1.60570651
              12.01967172                8.51693344               51.65039256                0.00010000                4.67278576               -0.65119970               -3.12407435               -1.21899639               26.44498881                2.64220150
              13.06481065                8.13121327               51.65014435                0.00010000                4.19408442               -0.57350926               -3.08057991               -1.23427146               27.73922690                3.51368037
              14.10355341                7.73414489               51.65598011                0.00010000                3.40040278               -0.38923224               -2.68582047               -1.47482117               28.31043736                4.52521860
              15.13281871                7.32464806               51.65544141                0.00010000                2.37829666               -0.10740757               -2.05465232               -1.85553916               25.43411521                6.22955627
              16.15111935                6.90569156               51.59504588                0.00010000                1.29290344                0.70440291               -2.12769328               -1.10982538               11.42167828                0.94364701
              17.15867678                6.50844188               51.30883567                0.00010000                0.75574307                0.95634288               -3.00812329                0.03660771                0.09173989               -1.75325080
               7.20078863               11.25247404               52.08923350                0.00010000                0.16609592               -0.01350000               -0.04482894               -0.04082371                0.00541315                0.60070771
               8.20244959               10.93195049               51.83326763                0.00010000                0.31213686                0.35292245               -1.06930806                0.02043946                0.16504371               -0.52708808
               9.20703136               10.61092316               51.58035274                0.00010000                3.05688047                0.64950854               -2.02237064               -1.78869056               13.94979489               -1.20774250
              10.26358719               10.25240213               51.59933508                0.00010000                6.09076008               -1.19968758               -2.63734097               -1.78155980               27.83034358                0.09186893
              11.32884656                9.88269462               51.61079270                0.00010000                6.32625460               -1.22719453               -3.06272205               -1.06378361               28.32481945                0.88361726
              12.39011229                9.50808212               51.62344701                0.00010000                5.85623196               -1.10696087               -3.24107954               -0.65769584               29.56496422                1.50150394
              13.44597120                9.12344192               51.64326124                0.00010000                5.21943371               -0.96103294               -3.08392090               -0.64778958               31.25737129                2.08439603
              14.49450096                8.72797077               51.67371172                0.00010000                4.24720970               -0.84359100               -2.45857375               -0.81769509               33.30911086                2.96501667
              15.53091540                8.32127842               51.71980203                0.00010000                2.62616793               -0.42355572               -0.95923594               -0.89052877               26.91623255                5.30378232
              16.54702432                7.91270752               51.61154759                0.00010000                1.21086075                0.71358015               -2.32720489               -0.69748753                9.61299790                0.88066696
              17.55513261                7.51768536               51.31051805                0.00010000                0.81082934                0.93814251               -3.08686617                0.03430585               -0.08362321               -1.47474127
               7.51905291               12.25280577               52.00537352                0.00010000                0.25515210                0.03317290               -0.32789560                0.12637912                0.28949322                0.51110074
               8.52160443               11.93580528               51.74604357                1.00000000                0.40808328                0.38547848               -1.35059390                0.14934406                0.80993210               -0.43167094
               9.52721457               11.61748296               51.49692215                0.00010000                4.78425457                0.65597985               -2.30440060               -3.14256979               15.64137250               -0.67427301
              10.61728952               11.23258746               51.53329790                0.00010000                8.35923511               -1.98146727               -2.89245495               -2.11688042               30.30618414               -0.09028919
              11.69439928               10.86774070               51.55871288                0.00010000                7.42404963               -1.49539195               -3.28289277               -0.33439066               30.75044623                0.35918699
              12.76577051               10.49479423               51.58541698                0.00010000                6.87834702               -1.32878974               -3.40990412               -0.22158187               32.18516376                0.69800423
              13.83196622               10.11199261               51.62054660                0.00010000                6.17962468               -1.14493044               -3.18508778               -0.27655674               34.27346396                1.02271029
              14.88936301                9.71727307               51.67022429                0.00010000                4.91525834               -1.06977012               -2.42156763               -0.30457894               37.15548140                1.56859454
              15.93027138                9.31617694               51.74602463                0.00010000                2.56998238               -0.51014789               -0.74618812                0.07010334               29.31798927                3.17437736
              16.94076265                8.91996316               51.62680372                0.00010000                0.95679098                0.72556460               -2.54407399               -0.07477720               10.15152713                0.77203436
              17.94940720                8.52720473               51.32017425                0.00010000                0.86445485                0.95193665               -3.22621939                0.15161557                0.70758083               -1.16876040
               4.35198385                2.38242475               53.83306449                1.00000000               -0.69187869               -0.82550379                2.86242087               -0.23491037               -0.91260466                0.87530393
               5.34506507                2.01784400               53.61811587                1.00000000               -0.54251717               -0.42051520                1.59821189               -0.16806589               -1.20100092                0.14219369
               6.34113351                1.65239413               53.39757233                1.00000000               -0.25999958               -0.03247219                0.38634234               -0.18328638               -1.10016524               -0.20133147
               7.33986508                1.28423586               53.18414378                1.00000000               -0.29938372                0.43172312               -0.84905356               -0.36961391                0.31000421               -0.81457029
               8.33514584                0.91019583               52.99032746                1.00000000               -0.22698354                0.92795386               -1.95828351               -0.26793858                1.80299210                0.00770974
               9.33532540                0.53224693               52.80079389                1.00000000                0.28118667                1.21848316               -3.17937334               -0.24401047                2.35984899               -0.12069471
              10.34076957                0.14911213               52.61127749                1.00000000                0.65569785                1.66649080               -4.64411175               -0.41939542                3.45785734               -0.30443045
              11.34843936               -0.24049269               52.43487535                1.00000000               -2.77845517                2.27981534               -6.30580991               -4.27669240               11.15789204                0.28037633
              12.28520047               -0.71004241               52.38649246                1.00000000               -1.69932003                2.75486830               -7.31478887               -9.39712501               13.34425577               -5.39285333
              13.31445296               -1.30130800               52.32061881                1.00000000                1.80412408                0.44131420               -2.03987583              -12.70368720                5.90220764                0.25880995
              14.32128295               -1.63858435               52.13248519                1.00000000                0.68299869                0.67502226               -2.68658171               -0.23229065               -0.01496892               -0.46627736
               4.71421551                3.37416972               53.74915705                1.00000000               -0.58157865               -0.78242734                2.54993840               -0.01963736               -0.20190919                1.17289617
               5.70839972                3.01363885               53.53416649                1.00000000               -0.40553945               -0.38113007                1.28437609                0.04143629               -0.29873290                0.22540229
               6.70610472                2.65206941               53.31745549                1.00000000               -0.05658148                0.00845925                0.05211127                0.03581861               -0.17210062               -0.33368209
               7.70726809                2.28855309               53.10479509                1.00000000                0.11780997                0.45056372               -1.20107209               -0.14516319                1.67674462               -1.11567990
               8.70846092                1.91947537               52.92442087                1.00000000                0.30795306                0.85642652               -2.30735073               -0.10682553                3.01037610                0.05025437
               9.71342715                1.54443176               52.73699696                1.00000000                0.72422544                1.20833877               -3.51165754               -0.12011480                2.68138393               -0.08855654
              10.72294542                1.16577703               52.54682415                1.00000000                1.09112782                1.65887710               -4.89783018               -0.18350166                3.56431863               -0.46215252
              11.73524971                0.78230546               52.37258884                1.00000000               -0.06542763                2.14580423               -6.25717042               -4.48385845               12.33497079                0.89416350
              12.72163687                0.31750627               52.35310421                0.00010000               -4.17813248               -2.69136406               -2.29965163              -17.71164063               20.57958090                2.00337072
              13.65168706               -0.29689486               52.38298124                1.00000000               -3.27002424                0.32707951               -1.17423757              -13.88108025               11.03574910                0.42810893
              14.65623639               -0.63183412               52.19179684                1.00000000                0.45493301                0.58082786               -1.92057714               -0.12180957                0.05084572               -0.34328253
               5.07265285                4.36677621               53.67162190                1.00000000               -0.46587470               -0.69192390                2.19979623               -0.01848443                0.02312378                1.44736862
               6.06799410                4.01022140               53.45193125                1.00000000               -0.28586032               -0.29121831                0.95846896                0.03634189                0.11648132                0.23651466
               7.06693564                3.65256332               53.23435251                1.00000000                0.07808791                0.10299570               -0.27403240                0.00773736                0.34043683               -0.65375081
               8.06955586                3.29324713               53.01898667                1.00000000                0.50975086                0.50806821               -1.51087891               -0.28473949                3.20616594               -1.38387153
               9.07713066                2.92732436               52.85825146                1.00000000                0.85327916                0.75785610               -2.62012088               -0.84400948                4.44874392                0.44336238
              10.08662144                2.55641370               52.67191844                1.00000000                1.10475884                0.92868395               -3.86373783               -1.39422358                2.79783648                2.77891467
              11.09922583                2.18228967               52.47772014                1.00000000                1.02057578                0.83322592               -5.23460273               -2.35087582                4.66042507                6.06754878
              12.10703296                1.80242339               52.32682519                0.00010000               -4.45289282               -0.35461576               -4.95175084              -12.90298279               22.14676803               11.46642154
              13.01016798                1.23613031               52.48673883                0.00010000               -6.04306014               -2.39284011               -5.73895845              -20.79056079               28.40896604                8.38273715
              13.98617175                0.70523359               52.44644923                1.00000000               -1.07213448                0.10008312               -0.44185036               -9.86057582                7.83030519                0.51016139
              14.98872529                0.37303221               52.25168226                1.00000000                0.25535342                0.39614514               -1.23836525               -0.14033107                0.11262092               -0.24388152
               5.42695544                5.36033124               53.59350238                1.00000000               -0.36159902               -0.58769722                1.83798699               -0.03627561                0.14542919                1.26762563
               6.42333945                5.00781448               53.36818558                1.00000000               -0.18608546               -0.17814177                0.62353528                0.00524387                0.36351241               -0.03537515
               7.42323373                4.65412932               53.14744898                1.00000000                0.17364067                0.22702773               -0.56712369               -0.05360086                0.94839182               -1.12359688
               8.42681226                4.29871445               52.93356848                1.00000000                0.25902146                0.63922716               -1.82080393               -0.52981792                5.22063094               -1.34396787
               9.42841416                3.93463249               52.79768943                0.00010000                0.18825541                0.85243028               -2.69596640               -1.36467746                9.02725117                1.93609373
              10.43057737                3.56300544               52.66307495                0.00010000                0.07520305                0.70854082               -3.57513078               -2.28728798                9.72594773                5.70600589
              11.42991822                3.18244155               52.54221054                0.00010000               -0.36139778               -0.00275316               -4.10232996               -4.23062924               13.76472562               10.72749374
              12.42334941                2.77521315               52.48618024                0.00010000               -1.34513775               -1.96274753               -4.26161024              -10.29628772               21.51496705               14.07351088
              13.40301546                2.26964947               52.51114346                0.00010000               -5.28878868                3.00292735               -5.22309308              -13.42880228               24.02734707                2.75325431
              14.31757364                1.70510680               52.50994084                0.00010000               -4.25914693                5.93216832                0.33544427               -5.06816673               10.10461308               -4.26673957
              15.31783252                1.37608878               52.31287616                0.00010000                0.02588851                1.15150566               -0.60175904                5.53971236                0.32960571               -5.34359706
               5.77696085                6.35502226               53.51255142                1.00000000               -0.26599588               -0.47669502                1.48356682               -0.04770530                0.15341995                0.99131487
               6.77430089                6.00665856               53.28049460                1.00000000               -0.09986002               -0.04796951                0.26949973               -0.01370668                0.45794332               -0.43673594
               7.77496365                5.65710387               53.05465680                0.96195342                0.20777228                0.38497261               -0.90487579               -0.08018266                1.74038379               -1.66431265
               8.77845633                5.30603168               52.84782685                0.00010000                0.52912375                0.76589476               -1.95117482               -0.32969107                8.77692313                2.12368528
               9.78554612                4.94437296               52.76240821                0.00010000                0.73051401                0.83649814               -2.68405839               -0.82711702               14.11945792                3.44675318
              10.79306661                4.57058452               52.66261358                0.00010000                0.84297080                0.55773508               -3.33752422               -1.36912851               14.45966903                5.68588164
              11.80240554                4.18223461               52.58171503                0.00010000                1.04163348               -0.16841329               -3.70671432               -2.58343055               17.28802761                7.63015427
              12.81389928                3.76316844               52.53267325                0.00010000                0.46463689               -0.78347782               -3.79457795               -5.27154365               20.39545737                6.74267492
              13.81169828                3.29618885               52.50771586                0.00010000               -1.77650875                2.30176887               -3.15956566               -6.59686171               21.93005458                1.80483449
              14.77836911                2.82387696               52.47835244                0.00010000               -2.70713463                8.20365984               -4.21324058               -0.76087572               13.38500468               -2.20670197
              15.75755558                2.39606232               52.27092952                0.00010000               -2.08135258                3.49485025               -4.00580528                1.62446770                3.41856357               -7.04876218
               6.12272873                7.35079734               53.42902859                1.00000000               -0.17450286               -0.37399237                1.14488867               -0.03771037                0.01138327                0.78041070
               7.12098370                7.00685509               53.18873311                0.00010000               -0.02358865                0.06801966               -0.03486277               -0.00156841                0.42643934               -0.64189782
               8.12225696                6.66182878               52.95676187                0.00010000                0.59828219                0.54306054               -1.21023968               -0.12410532                6.18563830               -2.04777159
               9.13294935                6.31403235               52.83107610                0.00010000                1.25310070                0.72697704               -1.78975172               -0.12726461               13.05136949                3.68267039
              10.14731897                5.95136245               52.73412443                0.00010000                1.61919040                0.55811550               -2.72801963               -0.70722646               15.74453057                3.69967148
              11.16533315                5.57416014               52.65964000                0.00010000                1.91733548                0.20011409               -3.27513701               -1.27524364               17.84186912                4.96522921
              12.18566568                5.17907329               52.59968485                0.00010000                1.93155673               -0.27282808               -3.55785865               -2.37904219               19.80034546                5.69536202
              13.20396429                4.75954359               52.55702739                0.00010000                1.23520172               -0.13324373               -3.52683005               -4.09656032               21.85463092                5.02296578
              14.21036972                4.31568485               52.52830219                0.00010000               -0.07408171                1.59832173               -3.40449523               -4.46959564               23.69821385                3.10571306
              15.20248266                3.86918000               52.51212304                0.00010000               -0.22092877                3.00551211               -3.27182858               -1.39293192               13.10645687                1.94448427
              16.20595114                3.44598578               52.26315581                0.00010000                0.34684859                3.60895657               -3.83264557                1.12679446                1.50688272               -2.30834171
               6.46409114                8.34754242               53.34393780                1.00000000               -0.08530532               -0.28288732                0.83459268               -0.03816974                0.02549896                0.69866138
               7.46323808                8.00801895               53.09701675                0.00010000                0.06065732                0.15807991               -0.31508678                0.02283173                0.34122872               -0.64021808
               8.46530428                7.66796508               52.85639106                0.00010000                1.15696433                0.65204427               -1.47242578               -0.27918869                8.71529023               -2.20016235
               9.48637737                7.32057122               52.77627088                0.00010000                2.29847606                0.56367514               -2.21573916               -0.44054122               17.44907962                1.19901956
              10.51127380                6.95553527               52.70661060                0.00010000                2.67367684                0.26296039               -2.85011858               -0.95116918               18.97634449                3.13670851
              11.53985091                6.57458680               52.65123056                0.00010000                2.90837204               -0.07538608               -3.32034295               -1.45891718               20.74176198                4.18664074
              12.56944124                6.17677804               52.60938848                0.00010000                2.77528066               -0.24204283               -3.52354696               -2.24709456               22.42791246                4.80922297
              13.59535652                5.76050357               52.57856977                0.00010000                2.16143562                0.07727381               -3.48126058               -3.15341257               23.87610072                4.70529352
              14.61266996                5.32815529               52.55566307                0.00010000                1.24265084                0.88119262               -3.18988108               -3.53658569               25.08484685                3.76137032
              15.62020954                4.88398720               52.53987694                0.00010000                0.69049753                1.17135522               -2.38056118               -1.47301097               13.15479834                1.61316183
              16.62647991                4.46824145               52.27138304                0.00010000                0.62703713                1.74449029               -3.19968399                0.11861479                0.57132833               -1.09723908
               6.80101226                9.34513959               53.25886730                0.00010000                0.00054130               -0.19815730                0.55049576               -0.03814386                0.02421858                0.70208258
               7.80101767                9.01001669               53.00526076                0.00010000                0.15543327                0.23539744               -0.59011887                0.04662828                0.21932190               -0.63035091
               8.80412092                8.67486966               52.75551286                0.00010000                1.77753312                0.69702191               -1.70200299               -0.56970946               10.68992293               -2.19764046
               9.83656833                8.32530585               52.71055908                0.00010000                3.50795413                0.30719339               -2.46415123               -0.99954972               21.43811497                0.42532521
              10.87428001                7.95662166               52.66967967                0.00010000                3.91718541               -0.12351319               -3.04885095               -1.33459209               22.48426083                2.23857541
              11.91491204                7.57265242               52.63744383                0.00010000                4.02635091               -0.38386969               -3.41323515               -1.50692129               23.92687602                3.43384141
              12.95480702                7.17423243               52.61560418                0.00010000                3.73033761               -0.38499165               -3.50440560               -1.86219116               25.35920226                4.26326972
              13.98951879                6.76108907               52.60147737                0.00010000                3.06736757               -0.09597882               -3.31039500               -2.40156221               26.24607410                4.88652593
              15.01615437                6.33330870               52.58728676                0.00010000                2.17087390                0.29186750               -2.90165744               -2.96161374               25.98904127                4.83337244
              16.03293627                5.89260710               52.55908834                0.00010000                1.18302739                0.78131794               -2.07914827               -1.47716444               12.92312032                1.10457157
              17.03981492                5.48087559               52.27713214                0.00010000                0.68786518                1.09516522               -2.88980278                0.01919720                0.24150540               -1.28306743
               7.13357406               10.34357927               53.17394499                0.00010000                0.08665131               -0.11129583                0.26678076               -0.03841977                0.00698224                0.69802555
               8.13444058               10.01272690               52.91361939                0.00010000                0.25234322                0.30406806               -0.86066712                0.04935761                0.09804091               -0.60267948
               9.13862093                9.68190552               52.65502807                0.00010000                2.50969006                0.69186063               -1.93212504               -1.07464354               12.47184354               -1.91385980
              10.18463438                9.32671509               52.64139839                0.00010000                4.93072334               -0.19112821               -2.69306305               -1.69283368               25.09621002                0.16841355
              11.23723539                8.95306501               52.62660688                0.00010000                5.37336647               -0.74148662               -3.23765815               -1.47192053               25.86856450                1.56713448
              12.29210171                8.56690941               52.61739864                0.00010000                5.32626882               -0.81595026               -3.51617430               -1.25108494               27.24541333                2.58630181
              13.34376077                8.16907821               52.61780980                0.00010000                4.80736493               -0.73407567               -3.45025021               -1.28118335               28.84667292                3.51165506
              14.38824901                7.75858399               52.62821877                0.00010000                3.90794371               -0.51511629               -2.95164200               -1.57119667               29.70069263                4.73996636
              15.42191965                7.33399264               52.63475039                0.00010000                2.74251757               -0.20860295               -2.20542590               -2.00906060               26.57641076                7.12495923
              16.44309936                6.89961356               52.57418199                0.00010000                1.42036179                0.68541261               -2.07832259               -1.25767899               11.82674067                0.90402371
              17.45032688                6.49014476               52.27989240                0.00010000                0.72275240                0.88466233               -2.80135330                0.02361403                0.11548926               -1.55030217
               7.46194859               11.34291367               53.08889797                0.00010000                0.17299784               -0.02006422               -0.02097594               -0.04248511                0.00941683                0.60153879
               8.46367857               11.01609805               52.82222850                0.00010000                0.33456389                0.37256860               -1.13830919                0.01788308                0.20545235               -0.50912318
               9.46863987               10.68870687               52.55934762                0.00010000                3.39368000                0.68792628               -2.17559353               -1.90644271               14.19015300               -1.16816216
              10.53155217               10.32148329               52.57161056                0.00010000                6.80037011               -1.37491866               -2.92005574               -1.85845709               28.27008055                0.11119161
              11.60464727                9.94179193               52.57849105                0.00010000                7.11624847               -1.41901083               -3.42447614               -1.09171568               28.93563091                0.87016893
              12.67387714                9.55633341               52.58935309                0.00010000                6.64307496               -1.30399349               -3.62348672               -0.66041913               30.43337778                1.47516069
              13.73750877                9.15955092               52.61117871                0.00010000                5.96516455               -1.16578974               -3.39982523               -0.64563291               32.51461535                2.10074010
              14.79318043                8.75078674               52.64894897                0.00010000                4.87174140               -1.07103870               -2.58462281               -0.83834145               35.26940473                3.16795901
              15.83494360                8.32913664               52.71227289                0.00010000                2.92250701               -0.57460196               -0.67676474               -0.89018705               27.72615165                6.08108639
              16.85163057                7.90631536               52.58895670                0.00010000                1.21405989                0.67766340               -2.22521679               -0.76106907                9.20950814                0.80005717
              17.85922480                7.49856884               52.28105764                0.00010000                0.75942261                0.85256362               -2.82831716                0.02898545               -0.06128263               -1.33412063
               7.78635561               12.34317798               53.00216915                1.00000000                0.26494268                0.02643105               -0.31108902                0.14073098                0.28499793                0.51040575
               8.78900504               12.02017828               52.73214391                1.00000000                0.43756118                0.40802266               -1.42950644                0.15694978                0.84029586               -0.42190826
               9.79510683               11.69566405               52.47304144                0.00010000                5.26875734                0.69571718               -2.46445543               -3.40138173               15.89157617               -0.66131735
              10.89438018               11.29921671               52.50305149                0.00010000                9.27220605               -2.22665760               -3.16905588               -2.26616132               30.79823397               -0.04919186
              11.98055096               10.92468479               52.52430595                0.00010000                8.33770743               -1.71071335               -3.62414310               -0.32899040               31.43785777                0.38347266
              13.06113433               10.54082954               52.54982324                0.00010000                7.79219143               -1.55038758               -3.75262126               -0.22039952               33.14270975                0.72180764
              14.13639478               10.14576242               52.58775269                0.00010000                7.03810602               -1.37885012               -3.43755256               -0.29471469               35.65293640                1.07995604
              15.20189645                9.73716322               52.64638799                0.00010000                5.60962531               -1.36235236               -2.43182940               -0.29148855               39.25371193                1.76733448
              16.24858729                9.32250060               52.74110728                0.00010000                2.82746635               -0.66360404               -0.39697322                0.16454935               29.91584257                3.55921042
              17.25844578                8.91316682               52.60226301                0.00010000                0.89061705                0.68514680               -2.39667382               -0.08370750                9.44400303                0.70072884
              18.26639963                8.50719603               52.28954257                0.00010000                0.79538509                0.86271960               -2.92116178                0.12040413                0.69032986               -1.04933168
               4.56447273                2.47642175               54.86206113                1.00000000               -0.69752133               -0.84283120                2.92355663               -0.24755768               -0.85026565                0.83203856
               5.55749751                2.10474544               54.63412734                1.00000000               -0.53242441               -0.42139820                1.59835318               -0.18203974               -1.10903037                0.13476356
               6.55382424                1.73221973               54.40108177                1.00000000               -0.21133728               -0.01609361                0.31734059               -0.19326183               -0.99883682               -0.18979709
               7.55327077                1.35733349               54.17486461                1.00000000               -0.11986415                0.45151387               -0.99655726               -0.32800652                0.41458962               -0.78623249
               8.55142696                0.97802232               53.96881469                1.00000000                0.07757413                0.97288896               -2.30528422               -0.27172310                1.83841467                0.03425439
               9.55482225                0.59637882               53.76617763                1.00000000                0.62149608                1.30317070               -3.67111986               -0.23280359                2.17900334               -0.13249574
              10.56385688                0.21134992               53.56155010                1.00000000                1.03660106                1.73147837               -5.17235987               -0.30873023                3.04733161               -0.37310120
              11.57555427               -0.17679742               53.37086909                1.00000000               -4.92327198                2.05501584               -6.37055281              -11.83117626                9.94984727                0.08151954
              12.46539144               -0.79645174               53.30071754                0.00010000               -3.62650650                2.40682082               -6.86311274              -13.54686053               14.91423422               -2.74974016
              13.50302414               -1.36494374               53.29707642                1.00000000                2.37857462                0.60415574               -3.08382144              -11.20607856                9.17267947                0.29089137
              14.51296293               -1.70704106               53.10263275                1.00000000                0.99387886                0.83687504               -3.76372882               -0.32226932                0.08671322               -0.71613980
               4.93367346                3.46799344               54.77500209                1.00000000               -0.58953331               -0.79718539                2.60690538               -0.02483190               -0.17444500                1.11874694
               5.92777813                3.10053146               54.54701557                1.00000000               -0.40379303               -0.38049890                1.28073995                0.03558003               -0.25000491                0.21512256
               6.92559760                2.73205879               54.31762506                1.00000000               -0.03443587                0.02602412               -0.01575673                0.03301085               -0.11719190               -0.31969404
               7.92708941                2.36184862               54.09205539                1.00000000                0.17947300                0.47696254               -1.33968572               -0.07821867                1.76747094               -1.07016137
               8.92918706                1.98775121               53.89971906                1.00000000                0.43705039                0.93498869               -2.61862181               -0.09515749                3.13337774                0.08521151
               9.93583042                1.60941053               53.69965553                1.00000000                0.90853171                1.30427079               -3.92657541               -0.09510524                2.70302277               -0.13238615
              10.94735769                1.22866470               53.49563066                1.00000000                1.26564596                1.73056010               -5.30170678               -0.19309475                3.66657362               -0.59684705
              11.96114334                0.84375274               53.31131471                1.00000000               -1.16808500                1.71092761               -6.01058451              -12.26174044               15.64981591                1.35937629
              12.92399599                0.22761647               53.34501834                0.00010000               -5.74426574                1.39176083               -2.85959651              -21.29589270               23.62148970                0.06993506
              13.84625802               -0.35890218               53.37017049                1.00000000               -3.60792134                0.42042060               -1.54884868              -12.15487259               11.13229881                0.51306819
              14.85183757               -0.69867231               53.17162041                1.00000000                0.55795452                0.66832795               -2.30011154               -0.18703820                0.13437906               -0.45911441
               5.29890005                4.46047804               54.69395181                1.00000000               -0.47562889               -0.70157907                2.25551568               -0.02293316                0.04397226                1.37395239
               6.29414376                4.09713546               54.46149794                1.00000000               -0.28663778               -0.28940951                0.95159995                0.03411927                0.14741617                0.21731169
               7.29316729                3.73274021               54.23125377                1.00000000                0.09351113                0.11985469               -0.34247856                0.01810544                0.37453218               -0.62472845
               8.29601398                3.36687274               54.00316599                1.00000000                0.43973069                0.54089714               -1.64543002               -0.15059382                3.28944000               -1.32782344
               9.30196191                2.99672209               53.83078167                1.00000000                0.79963373                0.77048873               -2.89955760               -0.67034215                4.62143523                0.58469018
              10.31200666                2.62246423               53.63152807                1.00000000                1.18454305                0.80461440               -4.22693159               -1.22010118                2.92537097                3.01804905
              11.32565277                2.24596112               53.42377260                1.00000000                0.96805182                0.43621536               -5.57792743               -2.45595318                5.81210299                6.60784118
              12.33136769                1.85742114               53.28000660                0.00010000               -4.17621305               -1.69543173               -4.08869534              -15.68603901               23.19243603               11.42692712
              13.24212851                1.23138348               53.42679878                0.00010000               -7.25761072                2.68582328               -5.82360944              -25.03516577               31.57041243                4.86523812
              14.18621548                0.64346468               53.44207690                1.00000000               -2.66830336                0.09290471               -0.45286475              -12.44968505               11.06568263                0.51148143
              15.18876244                0.30632549               53.23945301                1.00000000                0.25469610                0.38849597               -1.29704299               -0.16348479                0.21395924               -0.44884665
               5.65989995                5.45396186               54.61219188                1.00000000               -0.37016133               -0.59388960                1.89106800               -0.03758935                0.16325250                1.19403535
               6.65619834                5.09474327               54.37436769                1.00000000               -0.18387598               -0.17782307                0.61068801                0.01144893                0.39645875               -0.06824070
               7.65622243                4.73445589               54.14133629                1.00000000                0.19486557                0.23787331               -0.64607064               -0.02501317                0.96225718               -1.10072367
               8.66009565                4.37266657               53.91457945                1.00000000                0.19831417                0.66999774               -1.95861543               -0.44726478                5.38983057               -1.19894430
               9.66018872                4.00316098               53.76957295                0.00010000                0.10468578                0.74063996               -2.92109368               -1.18873924                9.38979503                2.14264367
              10.66218937                3.62550281               53.62590812                0.00010000                0.15465049                0.34529151               -3.86011658               -2.17545431               10.36519926                6.10862246
              11.66328173                3.23738901               53.50016926                0.00010000               -0.00945872               -0.85789679               -4.28377046               -4.71719950               14.88924499               11.32648099
              12.66200019                2.80984411               53.44256749                0.00010000               -1.30162950               -3.25043212               -4.37501114              -11.28871312               22.34809046               13.65296457
              13.63724914                2.28133294               53.45709952                0.00010000               -6.98389435                3.50067001               -5.20091258              -17.20106281               27.44126955                2.70081943
              14.52232231                1.64295592               53.51344151                0.00010000               -5.72014520                7.55950369                0.36735151               -6.04736386               13.48050493               -7.27790853
              15.52284623                1.30909761               53.30652041                0.00010000                0.05239271                1.94349007               -0.77670073                7.38251535                0.36157745               -7.76084583
               6.01658544                6.44860025               54.52765769                1.00000000               -0.27067307               -0.48094272                1.53213583               -0.04496701                0.14344472                0.92931315
               7.01387870                6.09357900               54.28309388                1.00000000               -0.09208528               -0.05043819                0.24898192               -0.00018087                0.47018001               -0.45464989
               8.01474373                5.73749768               54.04513933                0.97897827                0.22424425                0.38468394               -0.98507110               -0.03447784                1.84166760               -1.64443703
               9.01836359                5.38027269               53.82768774                0.00010000                0.53035720                0.76072832               -2.04946869               -0.27996885                9.08249856                2.45016765
              10.02535087                5.01153489               53.73440743                0.00010000                0.79529776                0.68573523               -2.90745339               -0.74423810               14.61620457                3.57530273
              11.03426955                4.62937006               53.62789228                0.00010000                1.08083042                0.19081072               -3.60560419               -1.40656801               15.20081034                5.81118155
              12.04696748                4.22880318               53.54315537                0.00010000                1.36899769               -0.81804809               -4.01095550               -2.96383055               18.36338500                7.56893504
              13.06164950                3.79241249               53.49276971                0.00010000                0.90139794               -1.26333169               -4.17217590               -6.25093841               21.92673415                6.35545871
              14.06499544                3.30139688               53.47300566                0.00010000               -1.20729830                1.91395795               -3.78885454               -7.94080950               22.70893339                1.62358951
              15.03750353                2.79465475               53.42908166                0.00010000               -3.04330375               10.61575719               -5.23126095               -0.31140943               13.94700823               -5.66861384
              16.00412937                2.34519530               53.22757744                0.00010000               -3.33741667                5.59118105               -4.68253784                2.69902931                4.71745217              -10.30194248
               6.36904311                7.44434300               54.44067676                1.00000000               -0.17458163               -0.37716770                1.17930510               -0.03732629                0.01250642                0.74219461
               7.36729729                7.09373451               54.18824045                0.00010000               -0.01019610                0.06608464               -0.06145894                0.00730622                0.42948505               -0.62363240
               8.36883919                6.74214957               53.94414802                0.00010000                0.65808838                0.53497398               -1.30093329               -0.09852193                6.45228753               -1.99632451
               9.38045906                6.38788113               53.81167895                0.00010000                1.36836970                0.67834292               -2.06757210               -0.11642107               13.41687984                3.75276647
              10.39620658                6.01687569               53.70554042                0.00010000                1.81653278                0.39874430               -2.98344240               -0.74846798               16.16620025                3.67933972
              11.41678972                5.62931903               53.62531534                0.00010000                2.23780527               -0.10772851               -3.59705863               -1.44650111               18.57422885                4.84570817
              12.44096269                5.22102805               53.56220537                0.00010000                2.37990049               -0.65030680               -3.96244805               -2.81790408               20.83203365                5.42262766
              13.46438773                4.78457747               53.51938242                0.00010000                1.76140018               -0.44359160               -4.06006103               -4.83700367               23.06388868                4.56558219
              14.47619069                4.31961210               53.49091462                0.00010000                0.39539880                1.64617976               -4.16047389               -5.30758627               24.84197726                2.31147413
              15.47229570                3.85527106               53.47350978                0.00010000               -0.02224818                4.06096252               -4.67071990               -1.85787413               14.04165069                2.31852418
              16.47574573                3.42092123               53.22210225                0.00010000                0.34500247                5.25430488               -4.59584635                1.65262740                2.23780678               -2.51492626
               6.71705590                8.44105690               54.35245529                1.00000000               -0.08376397               -0.28648158                0.86769059               -0.03968328                0.03297539                0.69284332
               7.71621826                8.09490069               54.09367302                0.00010000                0.07853796                0.16019950               -0.35215651                0.02164278                0.34274832               -0.61010796
               8.71862666                7.74819716               53.84106514                0.00010000                1.25453918                0.64915654               -1.58141124               -0.29094415                8.91166146               -2.12495541
               9.74130905                7.39383955               53.75297280                0.00010000                2.51584784                0.50357290               -2.43914138               -0.49550820               17.85158879                1.05157238
              10.76894362                7.01950978               53.67654527                0.00010000                2.99390589                0.12408632               -3.16460537               -1.10424903               19.48451422                2.98455214
              11.80118717                6.62721549               53.61617696                0.00010000                3.32036675               -0.28520789               -3.70873903               -1.72342693               21.44189543                3.95503143
              12.83535095                6.21579705               53.57197590                0.00010000                3.25691044               -0.46359348               -4.00432660               -2.68094673               23.35979494                4.49771025
              13.86632537                5.78354066               53.54120080                0.00010000                2.63995876               -0.03702730               -4.07562156               -3.75966136               25.03848869                4.33502260
              14.88815013                5.33432048               53.52085332                0.00010000                1.63557735                1.06973053               -3.90711564               -4.10573236               26.64705168                3.52705410
              15.89903692                4.87587400               53.51375972                0.00010000                0.88657254                1.55673909               -3.02695468               -1.73515537               14.20436438                2.18342643
              16.90588158                4.45028139               53.23862200                0.00010000                0.68446596                2.17332856               -3.48285097                0.08563410                0.86089941               -0.61942911
               7.06056185                9.43861337               54.26454353                0.00010000                0.00280392               -0.20256460                0.58471236               -0.03962619                0.02263388                0.71271657
               8.06058989                9.09693850               53.99912491                0.00010000                0.17598014                0.24123995               -0.63590181                0.04117856                0.23048905               -0.60089895
               9.06408145                8.75513270               53.73781738                0.00010000                1.93231956                0.70918374               -1.83066040               -0.62573323               10.88232485               -2.11941470
              10.09923628                8.39795259               53.68464707                0.00010000                3.83321031                0.25292269               -2.71879692               -1.10233836               21.81423921                0.33872526
              11.14074566                8.01935741               53.63746051                0.00010000                4.33988161               -0.23469347               -3.40719534               -1.52776808               22.99609421                2.04979470
              12.18603391                7.62361487               53.60124553                0.00010000                4.51364646               -0.52326381               -3.85874989               -1.77056665               24.62988010                3.19196941
              13.23101859                7.21175618               53.57828883                0.00010000                4.23185803               -0.49626045               -4.02180952               -2.21024610               26.29878027                4.03106302
              14.27067107                6.78383693               53.56602351                0.00010000                3.53620599               -0.10340239               -3.88449617               -2.82240818               27.41354957                4.82902099
              15.30174271                6.34100671               53.55604656                0.00010000                2.54803038                0.39203155               -3.47205629               -3.35987561               27.52913632                5.08346206
              16.32163168                5.88640584               53.53768496                0.00010000                1.34504590                0.90148387               -2.28416311               -1.65718443               13.85429010                1.29141199
              17.32864362                5.46438780               53.24861337                0.00010000                0.70119451                1.16144681               -2.87606491               -0.01759643                0.34074133               -0.94352255
               7.39961313               10.43700560               54.17676260                0.00010000                0.09093767               -0.11663595                0.29703156               -0.04030867                0.00795715                0.70724870
               8.40052251               10.09972549               53.90472815                0.00010000                0.27423856                0.31525091               -0.91658472                0.04471606                0.12644245               -0.57882841
               9.40509790                9.76238083               53.63498113                0.00010000                2.72575282                0.72069244               -2.07451571               -1.17282892               12.67194858               -1.84977882
              10.45503756                9.39889800               53.61306201                0.00010000                5.38140388               -0.24898659               -2.98118768               -1.84779102               25.45882280                0.11128477
              11.51272598                9.01481591               53.59234264                0.00010000                5.91697533               -0.84792426               -3.63753190               -1.65383948               26.38723408                1.42158218
              12.57337707                8.61675022               53.58006908                0.00010000                5.90989977               -0.92270697               -3.99594256               -1.44429020               27.99463725                2.40103685
              13.63092398                8.20587184               53.58113935                0.00010000                5.36248043               -0.81211723               -3.96307170               -1.48142775               29.93570009                3.39698398
              14.68062668                7.78147261               53.59694727                0.00010000                4.37298647               -0.53380964               -3.41262872               -1.77934640               31.08287211                4.92943513
              15.71838370                7.34216111               53.61133289                0.00010000                3.09427319               -0.22317257               -2.61132476               -2.19404720               27.78011253                8.21195328
              16.74251214                6.89390368               53.55347943                0.00010000                1.55910177                0.71109019               -2.11178106               -1.39263619               12.30124792                0.87466928
              17.74956574                6.47351033               53.25280860                0.00010000                0.70535968                0.84824907               -2.64905344                0.01373801                0.15049011               -1.34957831
               7.73431590               11.43628065               54.08881398                0.00010000                0.17930830               -0.02670461                0.00549506               -0.04420248                0.01249790                0.60734125
               8.73610898               11.10324351               53.81050144                1.00000000                0.35682336                0.39054031               -1.20548080                0.01407243                0.25100322               -0.49754657
               9.74145236               10.76954655               53.53684087                0.00010000                3.68682019                0.72440737               -2.32691911               -2.06150223               14.40995597               -1.13440695
              10.80984538               10.39297286               53.54093397                0.00010000                7.41821449               -1.50881208               -3.22729757               -2.00977457               28.64747657                0.09451106
              11.88981665               10.00239893               53.54230318                0.00010000                7.81233976               -1.55177797               -3.84332880               -1.20767129               29.49229453                0.79544418
              12.96609218                9.60516073               53.55097728                0.00010000                7.34254916               -1.42300682               -4.10806413               -0.75420990               31.27200860                1.37507532
              14.03666764                9.19551383               53.57526473                0.00010000                6.63513481               -1.27140278               -3.87261537               -0.72318850               33.80845301                2.05978786
              15.09879487                8.77316074               53.62201926                0.00010000                5.43815313               -1.18654447               -2.91844183               -0.92573013               37.40939160                3.38426546
              16.14543070                8.33654326               53.70626674                0.00010000                3.18174294               -0.62343644               -0.60548804               -0.91017913               28.55620544                7.01354049
              17.16242973                7.90062765               53.56704325                0.00010000                1.21371911                0.67307262               -2.20751916               -0.82476010                8.68479953                0.70435046
              18.16970508                7.48135278               53.25395171                0.00010000                0.72753477                0.78689511               -2.61788972                0.02695967               -0.03011144               -1.20795330
               8.06480336               12.43647151               53.99915174                1.00000000                0.27347030                0.01908603               -0.28970795                0.15522502                0.28189579                0.51378137
               9.06753806               12.10753630               53.71745344                1.00000000                0.46675767                0.42927864               -1.50521656                0.16278168                0.88359349               -0.41797850
              10.07413851               11.77686898               53.44763304                0.00010000                5.72258147                0.73224341               -2.61946785               -3.67211205               16.13516226               -0.65181370
              11.18198969               11.36872176               53.46991678                0.00010000               10.11230860               -2.42510981               -3.47092912               -2.44000080               31.25160302               -0.01548575
              12.27638468               10.98378035               53.48623002                0.00010000                9.15941401               -1.86185798               -4.02333168               -0.36478092               32.10087183                0.38695501
              13.36517797               10.58829008               53.51036456                0.00010000                8.60377588               -1.68706489               -4.19791559               -0.25824910               34.10067637                0.72050351
              14.44846020               10.18044378               53.55179555                0.00010000                7.79523408               -1.50700493               -3.84515553               -0.34816134               37.11031501                1.12270804
              15.52108265                9.75774172               53.62158770                0.00010000                6.21265056               -1.54190106               -2.64104579               -0.30879240               41.51357662                2.00503494
              16.57271321                9.32969238               53.73808516                0.00010000                3.00623833               -0.68508780               -0.31363046                0.20942166               30.48400000                3.90055536
              17.58120742                8.90736513               53.57887024                0.00010000                0.79707267                0.67374850               -2.33331469               -0.14443875                8.62446564                0.62580716
              18.58865467                8.48924823               53.26175101                0.00010000                0.74472469                0.78954527               -2.65871277                0.08326867                0.68778007               -0.94062277
               4.79084614                2.57318361               55.89153562                1.00000000               -0.69823088               -0.85296291                2.95841855               -0.25672825               -0.79421693                0.79379164
               5.78386383                2.19476281               55.65008293                1.00000000               -0.52133178               -0.41921164                1.58784643               -0.19231688               -1.02820575                0.12880644
               6.78041950                1.81551161               55.40391914                1.00000000               -0.17199384               -0.00080824                0.25377533               -0.20150282               -0.91960350               -0.17579808
               7.78042395                1.43412964               55.16421263                1.00000000                0.00908055                0.47188371               -1.12099190               -0.31201617                0.43705728               -0.75788340
               8.78060111                1.04907217               54.94422178                1.00000000                0.28730544                1.01404366               -2.57237597               -0.28169915                1.73931015                0.05081229
               9.78617006                0.66264121               54.72737149                1.00000000                0.82118174                1.37923859               -4.02457229               -0.23856424                1.93048272               -0.15548426
              10.79702475                0.27348899               54.50783029                1.00000000                1.10494051                1.81286073               -5.51139431               -0.36044002                2.88043078               -0.48086520
              11.80826887               -0.11975354               54.30746430                1.00000000               -6.98734668                2.01090100               -6.35207338              -17.29744292               10.70794565               -0.15528693
              12.65727781               -0.85363882               54.24923020                0.00010000               -5.61387651                4.64625431               -5.70643489              -18.30293199               16.83378950               -0.05751763
              13.69599134               -1.44167831               54.25894238                1.00000000                2.73133764                1.00443390               -5.02478367              -11.68822101                9.91562762                0.60040385
              14.71190456               -1.79088247               54.05721062                1.00000000                1.59132262                1.30458045               -5.85524301               -0.50846026                0.11575747               -0.76701422
               5.16669965                3.56465398               55.80129515                1.00000000               -0.59229976               -0.80590719                2.63999057               -0.02863450               -0.14883924                1.07095316
               6.16077666                3.19057069               55.55978129                1.00000000               -0.39893005               -0.37736508                1.26861085                0.03130932               -0.20548745                0.20636957
               7.15872105                2.81550353               55.31714036                1.00000000               -0.01265743                0.04229507               -0.07724029                0.03082625               -0.07370578               -0.30449752
               8.16052351                2.43884848               55.07800138                1.00000000                0.24036409                0.50184811               -1.45886740               -0.04490594                1.78997647               -1.02411454
               9.16352833                2.05921261               54.87204844                1.00000000                0.55262499                1.00460465               -2.89933978               -0.09093532                3.15689986                0.10939888
              10.17157601                1.67643360               54.65846545                1.00000000                1.05446932                1.39404409               -4.28967648               -0.08135671                2.69633227               -0.19289385
              11.18461772                1.29161760               54.44079001                1.00000000                1.36411674                1.82094513               -5.66418831               -0.30567582                4.09339407               -0.77100391
              12.19885834                0.90035547               54.25237715                1.00000000               -2.47034213                0.97313444               -5.81432865              -16.96036250               17.20224134                2.22800105
              13.13521088                0.19282373               54.29591228                0.00010000               -7.55636925                3.74963536               -5.11298035              -25.48806640               27.08752543                3.06873591
              14.04773096               -0.43163397               54.35200427                1.00000000               -3.95933763                0.69352538               -2.60647929              -13.59102756               13.04354454                0.83115693
              15.05602413               -0.77783667               54.14579461                1.00000000                0.82931688                1.00188770               -3.49730272               -0.30288500                0.39610982               -0.51387429
               5.53844002                4.55706546               55.71673221                1.00000000               -0.47995588               -0.70739600                2.29010778               -0.02653535                0.06534700                1.30750816
               6.53364046                4.18721551               55.47096325                1.00000000               -0.28408941               -0.28584788                0.93870938                0.03198017                0.17891014                0.19778723
               7.53275823                3.81635751               55.22750294                1.00000000                0.10881441                0.13628799               -0.40274116                0.02485806                0.40632635               -0.59894259
               8.53581675                3.44416661               54.98607807                1.00000000                0.42195262                0.56826691               -1.75527800               -0.06722729                3.30851951               -1.27165087
               9.54119729                3.06916426               54.80026030                1.00000000                0.81605925                0.73234980               -3.22416455               -0.61457278                4.73114861                0.75387661
              10.55213794                2.69052210               54.58737980                1.00000000                1.28960352                0.61900347               -4.61762789               -1.17736653                3.05795205                3.27583679
              11.56698936                2.30990789               54.36616159                1.00000000                0.78587760               -0.10145999               -5.95819696               -3.21934609                7.76313218                7.20529432
              12.56785549                1.89970915               54.24505129                0.00010000               -4.37417145               -3.24230689               -2.60225146              -18.70156917               24.28954848               10.36223142
              13.47950593                1.22135389               54.37026664                0.00010000               -8.65121525                4.23176253               -5.15827494              -29.08805006               33.56705044                4.11534186
              14.39483118                0.57219220               54.43739193                1.00000000               -4.06268331                0.20889205               -0.71698443              -15.10833623               14.25393179                0.49212836
              15.39825226                0.22915528               54.22574140                1.00000000                0.34210782                0.52920491               -1.94391859               -0.15958425                0.52694637               -0.96526829
               5.90586886                5.55050606               55.63132374                1.00000000               -0.37446533               -0.59709106                1.92629210               -0.03936477                0.18187054                1.12635499
               6.90212421                5.18485373               55.38039934                1.00000000               -0.18008760               -0.17613492                0.59459881                0.01528103                0.43204193               -0.10422010
               7.90226711                4.81822929               55.13452757                1.00000000                0.21239993                0.25229471               -0.70787842               -0.00975056                0.98288768               -1.08163991
               8.90637221                4.45021382               54.89439617                1.00000000                0.13071386                0.68844637               -2.05638095               -0.46741148                5.53877818               -1.03027007
               9.90488139                4.07385960               54.73926755                0.00010000                0.04564201                0.53736440               -3.11675910               -1.24658836                9.70586438                2.36380946
              10.90728505                3.68881367               54.58587262                0.00010000                0.30811770               -0.15605821               -4.12556296               -2.40371324               11.04797014                6.51341640
              11.91104374                3.28958840               54.45653513                0.00010000                0.30479548               -1.91653482               -4.40559374               -5.77489376               16.12838662               11.80521871
              12.91338096                2.83550934               54.39868001                0.00010000               -1.50384564               -4.31232295               -4.35682941              -12.87006163               23.27404434               12.19505788
              13.88096683                2.27745898               54.40712521                0.00010000               -8.78090583                3.67458280               -4.61845052              -20.64532016               30.80182920                1.84601278
              14.73776284                1.57254387               54.51728787                0.00010000               -7.10302777                8.91221078                0.35134837               -6.84026157               16.86155097              -10.79182506
              15.73890628                1.23274743               54.29734215                0.00010000                0.11434327                2.26431766               -1.26087748                8.85339660                0.46742911              -10.74409881
               6.26895738                6.54512364               55.54319414                1.00000000               -0.27345245               -0.48312115                1.56749484               -0.04395237                0.13155737                0.86744396
               7.26622285                6.18369281               55.28547424                1.00000000               -0.08771215               -0.05252153                0.22637348                0.01288524                0.49007768               -0.47358010
               8.26720314                5.82140341               55.03495538                0.98592251                0.23076760                0.38735912               -1.04955822               -0.00800862                1.98096509               -1.63034526
               9.27083821                5.45793553               54.80683747                0.00010000                0.52312669                0.67944008               -2.08674296               -0.39847609                9.36911872                2.69706834
              10.27766567                5.07991155               54.70425914                0.00010000                0.87483367                0.44759002               -3.09603222               -0.92047026               15.06185549                3.63936026
              11.28833488                4.68740093               54.59050149                0.00010000                1.35650733               -0.30120189               -3.85003455               -1.77333121               15.92556212                5.82612943
              12.30479582                4.27157720               54.50149592                0.00010000                1.71243978               -1.54415446               -4.30686114               -3.83713540               19.38842281                7.23229684
              13.32258368                3.81346269               54.44922973                0.00010000                1.23845867               -1.65425970               -4.51459447               -7.67898970               23.27023221                5.48008088
              14.32956499                3.29484555               54.43193877                0.00010000               -0.99230873                1.83038465               -4.38690929               -9.54556050               23.22490589                0.51792919
              15.30273750                2.75043641               54.37372722                0.00010000               -3.73259566               12.91642773               -5.64251116               -0.30193613               14.13796921              -10.22513062
              16.25491308                2.27444163               54.17727877                0.00010000               -4.78244243                7.59476335               -5.54456569                3.13132476                5.97317601              -14.41750037
               6.62785149                7.54084364               55.45261469                1.00000000               -0.17493369               -0.37955628                1.21311273               -0.03614294                0.02590539                0.70768537
               7.62610215                7.18380330               55.18750393                0.00010000                0.00063619                0.06197653               -0.08618277                0.01965862                0.44306740               -0.60893574
               8.62786421                6.82597647               54.93074320                0.00010000                0.68961950                0.51966029               -1.37391212               -0.14830439                6.66840198               -1.95650883
               9.63989454                6.46380262               54.78972466                0.00010000                1.45711871                0.53495018               -2.28783529               -0.30371265               13.75708421                3.71498326
              10.65700659                6.08281140               54.67445558                0.00010000                2.01291205                0.16973375               -3.21142081               -1.04593656               16.59839227                3.53919168
              11.68015278                5.68278963               54.58769883                0.00010000                2.56163441               -0.48218468               -3.91420983               -1.95913990               19.24635204                4.54609217
              12.70823928                5.25870531               54.52043589                0.00010000                2.81900155               -1.04642045               -4.39388761               -3.67740052               21.73885030                4.87888641
              13.73653281                4.80242414               54.47582616                0.00010000                2.24213126               -0.64498845               -4.67812191               -5.99867194               24.02828306                3.71681786
              14.75308190                4.31406667               54.44509271                0.00010000                0.77976097                1.93594385               -5.05965376               -6.40323174               25.37310042                1.10967665
              15.75212803                3.83087242               54.41870864                0.00010000                0.02202149                5.65220641               -6.47864211               -2.28166645               14.79430829                1.93468462
              16.75352233                3.38464270               54.17123888                0.00010000                0.13942966                7.74500603               -5.95793124                2.33004011                3.39602363               -3.48894381
               6.98231519                8.53753252               55.36129161                1.00000000               -0.08319954               -0.28785149                0.90535209               -0.03748368                0.04425845                0.69914405
               7.98148319                8.18493234               55.08997362                0.00010000                0.09612709                0.15701352               -0.38789563                0.02577721                0.34996342               -0.58800600
               8.98423773                7.83179661               54.82476284                0.00010000                1.32229140                0.62944536               -1.67155785               -0.39583793                9.08598750               -2.06651507
              10.00792902                7.46863454               54.72748805                0.00010000                2.67610997                0.40942636               -2.64299974               -0.75874691               18.20363885                0.85802334
              11.03775993                7.08330623               54.64331850                0.00010000                3.26645797               -0.04956125               -3.46829973               -1.51402263               19.93846820                2.68744591
              12.07325818                6.67775724               54.57705578                0.00010000                3.69266844               -0.50949721               -4.11723628               -2.30644528               22.05173808                3.52239189
              13.11161330                6.25064879               54.52930195                0.00010000                3.69953474               -0.65075294               -4.55834532               -3.47144738               24.13706407                3.93203148
              14.14724887                5.80056292               54.49705734                0.00010000                3.07193870               -0.02505583               -4.82696057               -4.67925636               25.97136037                3.68348484
              15.17305207                5.33356442               54.47752076                0.00010000                1.96396362                1.52158494               -4.93063943               -4.75443147               28.02578188                3.03448752
              16.18652815                4.86348054               54.47933785                0.00010000                1.04606329                2.39216050               -4.24835349               -1.94477184               15.34582085                3.03971162
              17.19397334                4.42934175               54.20172602                0.00010000                0.74451905                3.15879207               -4.16688523                0.14865154                1.44341071               -0.03648696
               7.33230218                9.53508661               55.27056154                0.00010000                0.00514259               -0.20393621                0.61759806               -0.03995717                0.02038337                0.73175023
               8.33235360                9.18694357               54.99254272                0.00010000                0.19715393                0.24207302               -0.67872526                0.03732380                0.24153297               -0.57908641
               9.33624525                8.83856538               54.71889965                0.00010000                2.04281939                0.70449213               -1.94379260               -0.77320540               11.04589887               -2.06085742
              10.37320999                8.47199115               54.65618315                0.00010000                4.06790901                0.20096732               -2.96810388               -1.41124462               22.12382991                0.16303776
              11.41760343                8.08182018               54.60153577                0.00010000                4.67356651               -0.33261225               -3.77893672               -1.95891912               23.42489053                1.71675324
              12.46668132                7.67259969               54.56026884                0.00010000                4.92006043               -0.62794203               -4.35682236               -2.30951814               25.21829098                2.75780657
              13.51600464                7.24569025               54.53516799                0.00010000                4.66753653               -0.53034004               -4.65963715               -2.83466885               27.08407485                3.58811641
              14.56003205                6.80192302               54.52378745                0.00010000                3.95355053                0.03070136               -4.68078754               -3.43639266               28.42626812                4.60234884
              15.59507565                6.34449837               54.51784563                0.00010000                2.87116083                0.72235522               -4.35289939               -3.76348643               29.12869472                5.24694770
              16.61745527                5.87871563               54.51340508                0.00010000                1.48486411                1.21340540               -2.73377388               -1.77796844               14.94294870                1.69479620
              17.62477294                5.44781854               54.21961084                0.00010000                0.73176690                1.42365510               -3.04206130               -0.05445955                0.52785333               -0.47027573
               7.67780211               10.53345379               55.17988562                0.00010000                0.09487853               -0.12076195                0.32810365               -0.04192753                0.00902491                0.72281843
               8.67875090               10.18977380               54.89528770                0.00010000                0.29619674                0.32391287               -0.97048398                0.03754032                0.15517262               -0.56363487
               9.68372604                9.84588646               54.61353775                0.00010000                2.88492152                0.74007237               -2.20832251               -1.34793515               12.83658410               -1.80455314
              10.73644933                9.47265388               54.58177463                0.00010000                5.71234811               -0.27362081               -3.27964906               -2.17015341               25.73683644               -0.02636161
              11.79797301                9.07665398               54.55385624                0.00010000                6.33742107               -0.90033742               -4.07528965               -2.03045319               26.80635494                1.15022476
              12.86319775                8.66519840               54.53747979                0.00010000                6.38117882               -0.95301240               -4.56340440               -1.84687814               28.62468191                2.05915015
              13.92559658                8.24004199               54.53854837                0.00010000                5.82575764               -0.77998902               -4.64146037               -1.86951211               30.91605622                3.12922868
              14.97971290                7.80117695               54.55996620                0.00010000                4.76965742               -0.40457032               -4.12332832               -2.08481251               32.36533629                5.04838611
              16.02098973                7.34801153               54.58252389                0.00010000                3.39678547               -0.09215926               -3.31794804               -2.37301209               29.07445902                9.48739319
              17.04764861                6.88774865               54.53194637                0.00010000                1.68443047                0.81479590               -2.26299650               -1.50051714               12.91626302                0.88854475
              18.05467834                6.45781486               54.22691133                0.00010000                0.70297317                0.88244106               -2.58036876                0.00825725                0.20200418               -1.09502415
               8.01882362               11.53267137               55.08900787                0.00010000                0.18481303               -0.03378488                0.03453336               -0.04555320                0.01553934                0.61947679
               9.02067175               11.19342183               54.79811889                1.00000000                0.37914246                0.40704595               -1.26990862                0.00700814                0.29967122               -0.49303716
              10.02640646               10.85336683               54.51280924                0.00010000                3.91838238                0.75784816               -2.47976417               -2.26412033               14.59679178               -1.11646576
              11.09903939               10.46651873               54.50706461                0.00010000                7.90216962               -1.58562573               -3.55859253               -2.25937260               28.93549876                0.03089018
              12.18444986               10.06381343               54.50162447                0.00010000                8.36581801               -1.60418901               -4.32119829               -1.44158403               29.94751208                0.64564461
              13.26635575                9.65353944               54.50719181                0.00010000                7.90929953               -1.43666758               -4.70910566               -0.96691913               32.00499263                1.18213051
              14.34263585                9.23009047               54.53372640                0.00010000                7.20052516               -1.24435240               -4.54277735               -0.89632319               35.03994007                1.93416029
              15.41036626                8.79383162               54.59058013                0.00010000                5.92039325               -1.15249567               -3.52651936               -1.06349032               39.67958755                3.58379052
              16.46104371                8.34265518               54.70016313                0.00010000                3.36376693               -0.55683320               -0.69359480               -0.94125248               29.43244986                8.08703293
              17.47764160                7.89501155               54.54480632                0.00010000                1.18809769                0.71401714               -2.29892646               -0.87835963                8.05149254                0.59090566
              18.48480567                7.46546736               54.22869985                0.00010000                0.71640710                0.74850538               -2.45526905                0.03134820                0.01168147               -1.06824595
               8.35539012               12.53277810               54.99637499                1.00000000                0.28054801                0.01067287               -0.26326807                0.17031250                0.28339694                0.52298288
               9.35819560               12.19791472               54.70203958                1.00000000                0.49783081                0.44928866               -1.57743398                0.16565150                0.93745013               -0.41913939
              10.36534674               11.86104342               54.42065208                0.00010000                6.13098343                0.76765928               -2.78042894               -3.95464027               16.36154281               -0.65383624
              11.48081527               11.44094137               54.43363291                0.00010000               10.83869417               -2.55773630               -3.80157217               -2.64607333               31.63837723                0.00514121
              12.58212062               11.04457020               54.44383932                0.00010000                9.83835296               -1.92432287               -4.49051487               -0.45673997               32.69021667                0.36195144
              13.67758233               10.63646505               54.46586493                0.00010000                9.26286610               -1.70743935               -4.77142086               -0.34810588               34.98264916                0.68477912
              14.76737794               10.21515494               54.51084958                0.00010000                8.41480252               -1.49355309               -4.46109721               -0.44269111               38.55210342                1.14035434
              15.84587838                9.77812704               54.59356707                0.00010000                6.68034029               -1.57045807               -3.11524595               -0.36279158               43.85519121                2.27424819
              16.90098475                9.33687486               54.73483467                0.00010000                3.06954322               -0.57803199               -0.44476045                0.18920118               31.01803336                4.14408045
              17.90726924                8.90202899               54.55559671                0.00010000                0.67044734                0.70174393               -2.37462100               -0.24173033                7.72016924                0.53415039
              18.91439369                8.47278496               54.23636832                0.00010000                0.71244516                0.73176055               -2.42807041                0.03439992                0.68940494               -0.82706962
               5.03149378                2.67277852               56.92122950                1.00000000               -0.69438914               -0.85626035                2.96819731               -0.26230563               -0.74475443                0.76060150
               6.02454988                2.28792484               56.66588427                1.00000000               -0.50956546               -0.41463079                1.56823111               -0.19853085               -0.95784247                0.12375059
               7.02130247                1.90226132               56.40615727                1.00000000               -0.14203062                0.01237143                0.19809860               -0.20623212               -0.85756366               -0.16219127
               8.02170927                1.51459833               56.15244477                1.00000000                0.08759171                0.49025620               -1.21721764               -0.31664465                0.40910699               -0.72810588
               9.02305430                1.12338525               55.91736717                1.00000000                0.40570627                1.05154102               -2.75864817               -0.29518833                1.59817772                0.04626523
              10.02982340                0.73108121               55.68568618                1.00000000                0.91591941                1.44631271               -4.26076291               -0.25939580                1.71979132               -0.19143614
              11.04137269                0.33581316               55.45132221                1.00000000                0.92449361                1.91001601               -5.74993488               -0.64638510                2.96203638               -0.57910853
              12.04831327               -0.06972887               55.24382762                1.00000000               -9.53917747                2.04546398               -6.38637566              -21.16370788               11.01166647               -0.38853167
              12.85058914               -0.89096625               55.18658884                0.00010000               -7.74784946                5.89209976               -6.89398111              -21.91350287               17.14100642                0.94500368
              13.89335628               -1.53905942               55.19658075                1.00000000                3.40762368                1.83308356               -8.13475204              -14.04012443                9.99033210                0.94004002
              14.91874161               -1.89954934               54.98552789                1.00000000                2.53853328                2.20687508               -9.29508884               -0.70524579                0.09694518               -1.05296907
               5.41372440                3.66421591               56.82780190                1.00000000               -0.59012243               -0.80894488                2.65027857               -0.03118137               -0.12568546                1.02954094
               6.40782317                3.28377853               56.57238778                1.00000000               -0.39104979               -0.37258379                1.24958959                0.02852338               -0.16598024                0.19833078
               7.40590340                2.90238504               56.31608025                1.00000000                0.00788447                0.05564130               -0.12963434                0.02994416               -0.04174241               -0.29069880
               8.40798086                2.51950089               56.06287805                1.00000000                0.29787887                0.52232952               -1.54908573               -0.03833198                1.74076599               -0.97530260
               9.41186098                2.13390066               55.84173226                1.00000000                0.65173116                1.05976279               -3.12542648               -0.08638555                3.08912515                0.08660675
              10.42101548                1.74554433               55.61386200                1.00000000                1.17264488                1.47462992               -4.59574698               -0.07731635                2.66891613               -0.27725473
              11.43531388                1.35491332               55.38234689                1.00000000                1.45252047                1.92543620               -6.00552862               -0.64736623                4.81281894               -0.92343931
              12.45006589                0.95072577               55.19502813                1.00000000               -3.45972440               -0.59541147               -5.51218478              -21.11091157               18.85550925                3.75037719
              13.36611939                0.16795475               55.24275873                0.00010000               -9.64096561                4.67218193               -5.43084397              -30.04573137               29.76409073                3.42482407
              14.25724658               -0.52072859               55.31804091                1.00000000               -4.69701586                1.35415321               -4.91635208              -16.14861342               14.49732018                1.44166514
              15.27217907               -0.87748059               55.10167436                1.00000000                1.49324885                1.75109666               -6.11607949               -0.48215975                0.84481755               -0.70986431
               5.79174491                4.65659962               56.73975396                1.00000000               -0.47936843               -0.70944439                2.30467427               -0.02955682                0.08585685                1.24889571
               6.78695123                4.28047316               56.48027213                1.00000000               -0.27829602               -0.28153272                0.92103577                0.02933533                0.20893449                0.17787600
               7.78617899                3.90337415               56.22319894                1.00000000                0.12378909                0.14928086               -0.45206575                0.02758517                0.43715427               -0.57655884
               8.78942701                3.52504492               55.96806043                1.00000000                0.45520777                0.59004382               -1.83078149               -0.03216362                3.21953692               -1.20938394
               9.79528315                3.14458051               55.76629838                1.00000000                0.89187012                0.62688360               -3.52291263               -0.67512650                4.69114517                0.96693448
              10.80726441                2.76057381               55.53917551                1.00000000                1.39803904                0.35525589               -4.99186282               -1.26964581                3.15337952                3.60120637
              11.82324393                2.37432189               55.30460866                1.00000000                0.28945981               -0.83771357               -6.32713390               -5.22413580               10.78180023                7.99720773
              12.81305361                1.91836290               55.22796157                0.00010000               -5.10575286               -5.05794755               -1.20592582              -22.25096901               25.81148967                8.50524923
              13.72112887                1.20247739               55.32363328                0.00010000               -9.86171285                4.43131565               -4.38903721              -33.08903896               34.79215318                3.44793380
              14.61581935                0.48802364               55.42773721                1.00000000               -4.92632261                0.57563567               -1.55274537              -17.74574955               16.95261372                0.78246872
              15.62260242                0.13547260               55.20057463                1.00000000                0.67830674                1.00794275               -3.56865155               -0.25974514                0.80992917               -1.62572213
               6.16538617                5.65002703               56.65071772                1.00000000               -0.37508224               -0.59707216                1.94387326               -0.04234093                0.20134832                1.06559858
               7.16163535                5.27814788               56.38625967                1.00000000               -0.17514108               -0.17351800                0.57695251                0.01557112                0.47104814               -0.14445133
               8.16188335                4.90537066               56.12717872                1.00000000                0.22479416                0.26504945               -0.75720968               -0.00126533                1.01758586               -1.07325093
               9.16613123                4.53130177               55.87345183                1.00000000                0.04731064                0.69203256               -2.11952354               -0.59585664                5.67233440               -0.82556400
              10.16282956                4.14643833               55.70723777                0.00010000               -0.01250204                0.22767799               -3.25465949               -1.55057504                9.97375241                2.65861866
              11.16588119                3.75264945               55.54339686                0.00010000                0.51062506               -0.82536829               -4.32701801               -2.99998433               11.78449207                6.99987620
              12.17304206                3.33815905               55.41205738                0.00010000                0.55049075               -3.23867618               -4.48068489               -7.51594294               17.54146184               12.32527750
              13.17689101                2.84956682               55.35543090                0.00010000               -1.91820974               -4.67474703               -4.36589800              -14.90101501               24.73839805                9.57520260
              14.13467787                2.25658106               55.36473051                0.00010000              -10.37773091                3.56552857               -4.01207766              -23.74577460               34.35701417                0.09613208
              14.96933639                1.49078413               55.52046848                1.00000000               -8.12958043               10.03538602                0.04619035               -7.73996122               20.27400636              -14.54154526
              15.97208626                1.14267827               55.28130286                1.00000000                0.27498720                2.37379793               -2.33172455                9.88378290                0.80050600              -14.27213340
               6.53465639                6.64465818               56.55900759                1.00000000               -0.27373694               -0.48138934                1.58661928               -0.04570881                0.11997739                0.81689352
               7.53191902                6.27700281               56.28762135                1.00000000               -0.08282973               -0.05457373                0.20322851                0.02058716                0.51756015               -0.49776413
               8.53299980                5.90867514               56.02414817                0.00010000                0.22615889                0.39206358               -1.10668009               -0.00070432                2.18575308               -1.63536502
               9.53644220                5.53888557               55.78595288                0.00010000                0.49620831                0.51142238               -2.05078996               -0.68919691                9.65344299                2.86668155
              10.54292396                5.14913407               55.67248678                0.00010000                0.95509057                0.10809172               -3.21733341               -1.37242174               15.44323057                3.66359467
              11.55554401                4.74406644               55.55089159                0.00010000                1.65418697               -0.94814337               -4.03458479               -2.48652233               16.63178851                5.77928975
              12.57600770                4.30954836               55.45701815                0.00010000                2.05336416               -2.36796510               -4.56249898               -5.23140909               20.41366976                6.66913364
              13.59661129                3.82486796               55.40247782                0.00010000                1.44941857               -1.92402976               -4.82564590               -9.61774158               24.54864312                4.16687757
              14.60499607                3.27378796               55.38526748                0.00010000               -1.08441849                1.98212891               -4.92117833              -11.50221232               23.95236660               -1.64261616
              15.57492292                2.68873136               55.31623144                0.00010000               -4.42531395               14.87849983               -5.89555005               -0.90700502               14.46937241              -16.00334373
              16.51648979                2.18294855               55.11668612                0.00010000               -5.84331299                9.20084122               -6.61430553                2.74769256                7.15918489              -19.13134109
               6.89978274                7.64039924               56.46493902                1.00000000               -0.17526099               -0.37826256                1.24327314               -0.03825083                0.03403636                0.68844614
               7.89803013                7.27705640               56.18651679                0.00010000                0.01018790                0.05494891               -0.11076504                0.03199843                0.46454920               -0.60152470
               8.89998650                6.91321193               55.91666977                0.00010000                0.69291184                0.50176339               -1.43700206               -0.28470017                6.86484425               -1.94085961
               9.91188837                6.54153022               55.76592224                0.00010000                1.51068806                0.28279811               -2.42866508               -0.71138944               14.09021380                3.55859159
              10.93020026                6.14860017               55.64131200                0.00010000                2.19240423               -0.14777764               -3.37937551               -1.63111669               17.02307169                3.29309918
              11.95573645                5.73368658               55.54703114                0.00010000                2.87060511               -0.94865560               -4.18736154               -2.85529773               19.85085683                4.09405954
              12.98761236                5.29079975               55.47432761                0.00010000                3.22800607               -1.49213895               -4.80808558               -5.02586908               22.51867276                4.09632705
              14.02029657                4.81108623               55.42581998                0.00010000                2.65789305               -0.78094424               -5.32433310               -7.68268138               24.78416224                2.46212462
              15.04077022                4.29622364               55.38972154                0.00010000                1.08695628                2.42346694               -6.07018851               -8.06714581               25.32104981               -0.68366801
              16.04203570                3.78835412               55.34393694                0.00010000               -0.10822472                7.66202154               -8.46215821               -3.13516996               15.32238300                0.09740211
              17.03860573                3.32669509               55.10294363                0.00010000               -0.34299706               10.91155712               -8.12496862                2.50827951                5.05584328               -5.57106048
               7.26057705                8.63709293               56.37056233                1.00000000               -0.08307446               -0.28724400                0.94283769               -0.03789345                0.04296801                0.71166465
               8.25974630                8.27810178               56.08591510                0.00010000                0.11274672                0.14931428               -0.41940027                0.03348934                0.36197461               -0.57495658
               9.26283198                7.91871041               55.80763399                0.00010000                1.35399336                0.59643544               -1.74753678               -0.60938710                9.24924489               -2.03733272
              10.28682617                7.54454153               55.70011280                0.00010000                2.76566390                0.26982756               -2.80854245               -1.26717473               18.51319990                0.59807637
              11.31814526                7.14617851               55.60717927                0.00010000                3.47061538               -0.27227167               -3.73068370               -2.22453433               20.33289117                2.24893128
              12.35623848                6.72509333               55.53383223                0.00010000                3.99727105               -0.76697938               -4.50662308               -3.27209363               22.55014659                2.89808219
              13.39809068                6.27970558               55.48080900                0.00010000                4.06476471               -0.82638306               -5.14075090               -4.71375699               24.72115279                3.10395947
              14.43753377                5.80924908               55.44466159                0.00010000                3.41472895                0.09444099               -5.69340324               -6.06130321               26.58889649                2.68337730
              15.46638526                5.32225730               55.42224053                0.00010000                2.21071520                2.23594437               -6.27679201               -5.66742706               28.95835404                2.10829052
              16.48174807                4.84197179               55.42879265                0.00010000                1.17940933                3.96695598               -6.64280542               -2.21939284               16.58932721                3.86600479
              17.48997344                4.40117970               55.15528430                0.00010000                0.82253704                5.15509399               -5.73230044                0.32996307                2.67913338                0.60647732
               7.61700716                9.63465436               56.27689549                0.00010000                0.00752789               -0.20386404                0.64883241               -0.04054552                0.02006255                0.75380320
               8.61708243                9.28004269               55.98555040                0.00010000                0.21759249                0.23874244               -0.71752607                0.03569030                0.25928641               -0.56623170
               9.62135901                8.92514064               55.69894153                0.00010000                2.09971650                0.68348886               -2.04380365               -1.03026270               11.18173721               -2.03567796
              10.65907676                8.54692677               55.62528500                0.00010000                4.18993858                0.14738857               -3.19790665               -1.96781321               22.36288997               -0.11424808
              11.70515778                8.14315474               55.56188177                0.00010000                4.88453730               -0.42234071               -4.13721526               -2.67885495               23.75785447                1.23147715
              12.75676751                7.71834700               55.51410908                0.00010000                5.20118476               -0.70415413               -4.87243674               -3.19712704               25.65264935                2.11809363
              13.80918147                7.27427209               55.48509609                0.00010000                4.98756386               -0.49037941               -5.38544496               -3.83519724               27.63178211                2.89170164
              14.85651879                6.81297504               55.47240776                0.00010000                4.27587459                0.31992864               -5.70436054               -4.34527232               29.15436597                4.12026107
              15.89469896                6.34094253               55.46898857                0.00010000                3.11033299                1.36670840               -5.68951758               -4.18871737               30.73645249                5.21788735
              16.91872545                5.86769324               55.48300948                0.00010000                1.60451086                1.91507715               -3.75057147               -1.82218360               16.26606091                2.50727557
              17.92678918                5.42979697               55.18777214                0.00010000                0.80637338                2.06705694               -3.59107996               -0.10450445                0.95015874                0.28726606
               7.96898948               10.63301565               56.18332468                0.00010000                0.09843537               -0.12367722                0.35897242               -0.04402663                0.00880695                0.74640338
               8.96997383               10.28287663               55.88531847                0.00010000                0.31765859                0.32941016               -1.02086303                0.02915688                0.18728860               -0.56047715
               9.97534265                9.93238018               55.59081468                0.00010000                2.97409875                0.74811328               -2.33877685               -1.61519299               12.95968687               -1.79702902
              11.02945581                9.54748930               55.54746903                0.00010000                5.89026400               -0.25971900               -3.58018775               -2.69925603               25.91774387               -0.26083363
              12.09314793                9.13773170               55.51083685                0.00010000                6.58613893               -0.89129942               -4.53105653               -2.64985708               27.10103174                0.73717596
              13.16117858                8.71101025               55.48880099                0.00010000                6.68053790               -0.89644007               -5.19462523               -2.52555598               29.07115196                1.53347427
              14.22675869                8.26989799               55.48831014                0.00010000                6.13896480               -0.61881295               -5.47866356               -2.52329765               31.67123438                2.65296538
              15.28395788                7.81564765               55.51448070                0.00010000                5.05670129               -0.08696854               -5.13734010               -2.54377072               33.41238964                5.00992999
              16.32789271                7.34959147               55.54497393                0.00010000                3.62460401                0.25153028               -4.45724036               -2.51098843               30.47511915               10.96329129
              17.35644996                6.88027334               55.50821950                0.00010000                1.78915920                1.05510860               -2.59379179               -1.54366079               13.75956153                1.01744305
              18.36367590                6.44252084               55.20120123                0.00010000                0.72259364                1.03669510               -2.66199448               -0.00712649                0.29230715               -0.69744575
               8.31640465               11.63218082               56.08950464                0.00010000                0.18963831               -0.04093625                0.06591994               -0.04735954                0.01810329                0.63946268
               9.31830103               11.28663089               55.78510327                1.00000000                0.40189120                0.42177496               -1.33149113               -0.00208840                0.34965208               -0.49956956
              10.32444247               10.94010290               55.48724558                0.00010000                4.07195478                0.78631940               -2.64210529               -2.52325608               14.73800685               -1.12898350
              11.39974013               10.54173239               55.46976212                0.00010000                8.20986106               -1.59006592               -3.91525067               -2.63299793               29.11602902               -0.09303818
              12.48863969               10.12532875               55.45587921                0.00010000                8.71749846               -1.55710059               -4.84877294               -1.82525607               30.26393443                0.40668199
              13.57409010                9.70041820               55.45679516                0.00010000                8.27192104               -1.31854094               -5.42035280               -1.33954052               32.54757610                0.87424240
              14.65407812                9.26189583               55.48440919                0.00010000                7.59298997               -1.04467347               -5.43211726               -1.20705393               36.06807900                1.68638233
              15.72594990                8.81123567               55.55148887                0.00010000                6.28876969               -0.91974172               -4.48368502               -1.28395948               41.99174519                3.71691703
              16.77985351                8.34597314               55.69239484                0.00010000                3.44864853               -0.31802799               -1.06487706               -0.96443685               30.29569241                9.28833799
              17.79492287                7.88879541               55.52106473                0.00010000                1.11490717                0.80970063               -2.49744403               -0.89075341                7.30509474                0.45358726
              18.80215165                7.45053087               55.20484632                0.00010000                0.72287851                0.74245304               -2.34422596                0.03472878                0.07887269               -0.87211659
               8.65914213               12.63219692               55.99388637                1.00000000                0.28678437                0.00161045               -0.23218760                0.18526940                0.28836035                0.54039807
               9.66200998               12.29131213               55.68590476                1.00000000                0.53169503                0.46812387               -1.64724050                0.16637699                0.99867038               -0.43089651
              10.66977603               11.94810657               55.39202446                0.00010000                6.47800131                0.80036707               -2.95587745               -4.24785130               16.55461528               -0.67408451
              11.79157000               11.51568799               55.39388534                0.00010000               11.40904826               -2.60444005               -4.17037549               -2.89285681               31.93528130                0.00395271
              12.89795700               11.10658969               55.39641972                0.00010000               10.31253456               -1.87390582               -5.02802601               -0.62069763               33.15924233                0.29908261
              13.99782069               10.68463943               55.41493614                0.00010000                9.69215660               -1.57787692               -5.48418428               -0.50619860               35.69605348                0.60248699
              15.09180013               10.24900453               55.46257361                0.00010000                8.81903444               -1.28913025               -5.32792256               -0.59712912               39.84437559                1.11882920
              16.17420138                9.79725282               55.55928278                0.00010000                6.96220525               -1.39828590               -3.93463582               -0.46353214               46.16986985                2.59239735
              17.23104423                9.34323091               55.72918995                0.00010000                2.99378858               -0.27422245               -0.86668910                0.07979925               31.41192548                4.15989722
              18.23407715                8.89646735               55.53137782                0.00010000                0.49276591                0.76719337               -2.48468346               -0.37762212                6.73679873                0.40128509
              19.24089955                8.45736990               55.21318960                0.00010000                0.68223995                0.68390221               -2.20816031               -0.03495515                0.68328119               -0.67452182
               5.28664153                2.77525084               57.95089957                1.00000000               -0.68623173               -0.85305030                2.95456285               -0.26474042               -0.70201837                0.73238933
               6.27977921                2.38423078               57.68144755                1.00000000               -0.49669035               -0.40813396                1.54090345               -0.20150087               -0.89760478                0.11917930
               7.27670772                1.99242183               57.40788111                1.00000000               -0.11915056                0.02260504                0.15144815               -0.20766731               -0.80875753               -0.15027875
               8.27739620                1.59870098               57.13986828                1.00000000                0.13077678                0.50257880               -1.28302278               -0.32866532                0.35261729               -0.69714664
               9.27932325                1.20126729               56.88904882                1.00000000                0.46073208                1.07462417               -2.87117846               -0.31164325                1.45209731                0.02375861
              10.28661084                0.80246086               56.64215623                1.00000000                0.94003921                1.49383207               -4.40360308               -0.29760467                1.56086125               -0.23788354
              11.29812404                0.39985747               56.39283159                1.00000000                0.33123663                2.00049011               -5.90330968               -1.46091001                3.22677559               -0.63615250
              12.29323557               -0.02992520               56.17973678                1.00000000              -12.53896154                2.11542596               -6.37348154              -25.11468816               10.22336954               -0.88312567
              13.04734481               -0.94707853               56.11135058                0.00010000               -9.81883203                7.13542890               -7.64370150              -25.78012007               15.79788575                1.04002187
              14.09685893               -1.66579782               56.09624734                1.00000000                4.43021932                3.18406925              -12.21765361              -16.66753344                9.01185571                1.54712421
              15.13594919               -2.04423480               55.87130884                1.00000000                3.90902631                3.71540969              -13.96932211               -0.87325988               -0.14618570               -1.20111533
               5.67501418                3.76672034               57.85430073                1.00000000               -0.58354778               -0.80616415                2.63929563               -0.03312467               -0.10507004                0.99494018
               6.66917870                3.38014944               57.58477309                1.00000000               -0.38091189               -0.36648195                1.22489120                0.02612546               -0.13153461                0.19082934
               7.66739594                2.99264788               57.31454767                1.00000000                0.02540564                0.06530156               -0.17101408                0.02913148               -0.01833590               -0.27918259
               8.66968682                2.60372677               57.04701966                1.00000000                0.34654694                0.53520793               -1.60678711               -0.04612498                1.63696394               -0.92385054
               9.67432688                2.21201353               56.80953991                1.00000000                0.73264427                1.08650795               -3.26745989               -0.08728657                2.93095740                0.02683348
              10.68433970                1.81739918               56.56655051                1.00000000                1.26905421                1.52752523               -4.81372723               -0.09333740                2.58350661               -0.37295271
              11.69970797                1.41986237               56.32067944                1.00000000                1.56084915                2.01420446               -6.27756856               -1.52274306                5.89536203               -1.00523925
              12.71555669                0.99122906               56.14213346                0.00010000               -4.61140245               -3.03317183               -4.74337644              -26.18807606               20.60089078                5.06134609
              13.60747992                0.12427576               56.18729540                0.00010000              -11.83974768                5.77096586               -5.76717247              -34.84788222               30.23412040                3.16043831
              14.47876173               -0.63395713               56.25367722                1.00000000               -5.09131733                2.56059098               -9.23567066              -18.56366426               14.76261158                2.82314576
              15.50565357               -1.00708070               56.02347302                1.00000000                2.68918399                3.06235667              -10.88640198               -0.67101688                1.62860224               -0.55062184
               6.05912083                4.75912756               57.76282569                1.00000000               -0.47466533               -0.70779669                2.30022429               -0.03275373                0.10446922                1.19896208
               7.05437417                4.37690114               57.48938396                1.00000000               -0.27039042               -0.27669746                0.89966162                0.02528877                0.23663978                0.15870286
               8.05371302                3.99372786               57.21846163                1.00000000                0.13669395                0.15835835               -0.48937730                0.02673617                0.46937689               -0.55909951
               9.05710805                3.60940514               56.94946244                1.00000000                0.50960474                0.60416601               -1.87436531               -0.03286924                3.04461744               -1.14506021
              10.06390511                3.22299744               56.72980205                1.00000000                0.98936000                0.44150234               -3.70684471               -0.81546242                4.47470828                1.23343430
              11.07689525                2.83301136               56.48754255                1.00000000                1.49670918               -0.01520362               -5.25986896               -1.45201558                3.14893274                4.03363743
              12.09383930                2.44014155               56.23961891                1.00000000               -0.59172993               -1.80889560               -6.60345990               -8.67345149               14.41046126                9.02449879
              13.06506065                1.90941137               56.22093277                0.00010000               -5.91329716               -6.93659597               -1.18022088              -26.59408271               28.20623974                7.04240024
              13.97557335                1.16834079               56.28248590                0.00010000              -10.40592725                4.67358312               -4.19524740              -36.42038740               35.77505472                2.70429537
              14.85694211                0.38541400               56.40633702                1.00000000               -5.33986761                1.35879327               -2.96995453              -20.17097854               19.19321731                1.98946776
              15.86877600                0.01701234               56.15436837                1.00000000                1.18338923                1.91369852               -6.02038764               -0.46046320                0.89742151               -1.92211815
               6.43881194                5.75256440               57.67020120                1.00000000               -0.37277663               -0.59436696                1.94718716               -0.04446174                0.22161301                1.01291054
               7.43508417                5.37461549               57.39193839                1.00000000               -0.16926369               -0.17103709                0.55824707                0.01549774                0.51041819               -0.18706791
               8.43542667                4.99581505               57.11938338                1.00000000                0.23378380                0.27385966               -0.79705854                0.00341218                1.06332195               -1.07518691
               9.43975985                4.61581009               56.85200570                1.00000000               -0.05076278                0.66968077               -2.15792612               -0.82555404                5.80535330               -0.56538066
              10.43441141                4.22084357               56.67417436                0.00010000               -0.08022846               -0.19441145               -3.31320053               -2.05142638               10.22596157                3.05240465
              11.43815528                3.81709511               56.49933226                0.00010000                0.77137626               -1.68294598               -4.43245055               -3.88075434               12.57861574                7.62051588
              12.44983894                3.38368445               56.36692144                0.00010000                0.86602567               -4.87259596               -4.56491979               -9.84771377               19.08411755               13.00026158
              13.45547579                2.85249714               56.31136205                0.00010000               -2.33846998               -4.15000987               -4.50070965              -17.28452374               26.77676309                6.51511571
              14.40306954                2.21774743               56.32688365                0.00010000              -11.44025895                3.43306996               -3.87599583              -26.99965292               38.33383348               -2.06997716
              15.22667062                1.39321874               56.51821167                1.00000000               -8.49109517               11.07435421               -0.97559437               -9.13949805               23.76002682              -18.17176886
              16.23324763                1.03119327               56.25070765                1.00000000                0.65770178                2.65808554               -4.18162586               10.21802342                1.35032549              -17.95490166
               6.81412942                6.74724022               57.57492652                1.00000000               -0.26959338               -0.47532919                1.58415789               -0.04774571                0.10984397                0.77662589
               7.81143348                6.37348040               57.28953881                1.00000000               -0.07713774               -0.05682201                0.18376724                0.02715221                0.54691614               -0.52600586
               8.81258666                5.99920506               57.01282177                0.00010000                0.20674816                0.39292036               -1.14993144               -0.01763288                2.47309187               -1.65626420
               9.81556845                5.62279876               56.76582167                0.00010000                0.45024529                0.25022202               -1.92501312               -1.13995503                9.95300605                2.96796871
              10.82159157                5.21910922               56.63991247                0.00010000                1.04354197               -0.34313380               -3.25125188               -2.07493010               15.76321791                3.68327636
              11.83643929                4.79935245               56.50980980                0.00010000                1.99457096               -1.76824615               -4.14014279               -3.52102774               17.33434321                5.72364708
              12.86148299                4.34268964               56.41024594                0.00010000                2.44339611               -3.34217275               -4.76333065               -7.14781607               21.47391174                6.00284959
              13.88530721                3.82641117               56.35271681                0.00010000                1.66878565               -2.15071410               -5.14849339              -12.21705533               25.89666068                2.64358511
              14.89485870                3.23700219               56.33351520                0.00010000               -1.23004526                2.28364143               -5.45316209              -14.05968413               25.11237927               -4.54131379
              15.86070630                2.60690108               56.25581622                0.00010000               -4.88356481               16.35202589               -6.23229004               -2.40725757               15.18348226              -22.58900509
              16.79718740                2.07017405               56.04499266                0.00010000               -6.35188989               10.17150224               -7.60145838                1.49620542                8.15351191              -24.34158804
               7.18537667                7.74305782               57.47748015                1.00000000               -0.17142843               -0.37154393                1.25395989               -0.04089776                0.04039604                0.68214409
               8.18366238                7.37347905               57.18528863                0.00010000                0.01894931                0.04595993               -0.13206650                0.04165892                0.48861065               -0.59911784
               9.18575565                7.00367346               56.90200316                0.00010000                0.66971047                0.47865750               -1.49267734               -0.51131277                7.07194594               -1.95346515
              10.19705659                6.62081453               56.74115136                0.00010000                1.53017346               -0.07827234               -2.47799438               -1.33066369               14.44826415                3.27119894
              11.21635912                6.21398090               56.60686807                0.00010000                2.35488583               -0.56970659               -3.46363477               -2.49887955               17.43880514                2.96683991
              12.24415431                5.78173019               56.50395160                0.00010000                3.17323856               -1.53557521               -4.38416003               -4.14738989               20.40172070                3.54930501
              13.27982389                5.31684100               56.42427418                0.00010000                3.63339129               -2.03650654               -5.16917207               -6.92616596               23.20138619                3.15907838
              14.31682213                4.80948286               56.36933950                0.00010000                3.07810236               -0.93842420               -5.95199740              -10.05663432               25.37545177                0.90107573
              15.34138594                4.26342025               56.32368894                0.00010000                1.42657372                2.97305045               -7.15965836              -10.79971073               24.87721192               -3.10987560
              16.34535361                3.72025926               56.24946548                0.00010000               -0.23800624                9.74135023              -10.01892523               -5.21161560               15.43729639               -3.49065751
              17.33662581                3.23462332               56.00873951                0.00010000               -0.87277928               14.32343682              -10.63001583                1.30567158                6.78818156               -8.86637293
               7.55246900                8.73980934               57.38014836                1.00000000               -0.08179744               -0.28287486                0.97087759               -0.04012749                0.03838086                0.73376190
               8.55165103                8.37439960               57.08158562                0.00010000                0.12779633                0.13682593               -0.44369407                0.03998889                0.37931019               -0.57276080
               9.55502493                8.00877821               56.78981210                0.00010000                1.34983524                0.54988334               -1.81647269               -0.93882673                9.41251089               -2.05132090
              10.57864773                7.62123331               56.67131721                0.00010000                2.78366983                0.07677166               -2.92130182               -2.02960849               18.80809278                0.25722559
              11.61069832                7.20771508               56.56870482                0.00010000                3.59918284               -0.55943749               -3.92344011               -3.25075262               20.68755492                1.69160900
              12.65063139                6.76864094               56.48692332                0.00010000                4.22543349               -1.08686910               -4.83308649               -4.66949477               22.95029073                2.12928482
              13.69520699                6.30195950               56.42648693                0.00010000                4.34819398               -1.04089295               -5.69162147               -6.52402733               25.12225825                2.06380843
              14.73759527                5.80764268               56.38318927                0.00010000                3.64405490                0.25131383               -6.60475369               -8.15457792               26.86573824                1.32168464
              15.76808809                5.29646320               56.35198492                0.00010000                2.38378312                3.13512315               -7.80634202               -7.40487770               28.94299422                0.61820019
              16.78527093                4.80172809               56.34648174                0.00010000                1.32423123                6.45875212              -10.70083417               -3.05905534               17.82036556                3.87341232
              17.79457272                4.35664278               56.08708001                0.00010000                0.93017861                8.65118065               -9.23888842                0.37271848                5.28501567                0.69730844
               7.91539360                9.73740032               57.28353819                0.00010000                0.00996929               -0.20183173                0.67714634               -0.04239242                0.01913729                0.78256570
               8.91549329                9.37621557               56.97819220                0.00010000                0.23759025                0.23058935               -0.75104173                0.03132173                0.28028758               -0.56807974
               9.92014540                9.01467112               56.67802358                0.00010000                2.10171252                0.64318054               -2.13975593               -1.40606514               11.29496773               -2.06862443
              10.95752754                8.62234996               56.59222501                0.00010000                4.18955164                0.08633890               -3.39653671               -2.78723334               22.55448298               -0.49986594
              12.00393644                8.20279215               56.51879146                0.00010000                4.94962241               -0.51575101               -4.45021988               -3.71969028               24.01708456                0.60654380
              13.05651999                7.75999280               56.46282010                0.00010000                5.32025823               -0.77295695               -5.35224618               -4.51264502               25.93865161                1.29593236
              14.11034160                7.29602314               56.42745909                0.00010000                5.13534442               -0.40856561               -6.13184454               -5.36745498               27.90315653                1.93664878
              15.15922688                6.81450914               56.40970024                0.00010000                4.44306897                0.73258789               -6.88392544               -5.80993960               29.45366409                3.29670789
              16.19920298                6.32612272               56.40405528                0.00010000                3.23830182                2.37039432               -7.57385167               -4.82048084               32.07281580                4.78109897
              17.22399292                5.84943430               56.43839365                0.00010000                1.75239057                3.41570908               -6.26819087               -1.85670850               17.88356807                3.99262727
              18.23425079                5.40764693               56.14778924                0.00010000                1.02578768                3.50744880               -5.11028624               -0.17932111                2.06411677                1.54144660
               8.27399066               10.73577271               57.18706507                0.00010000                0.10160023               -0.12506999                0.38814548               -0.04639079                0.00884367                0.77894548
               9.27500666               10.37901139               56.87487044                0.00010000                0.33892855                0.33142909               -1.06616698                0.01498336                0.21603857               -0.57328080
              10.28076923               10.02164182               56.56676222                0.00010000                2.98876889                0.74531258               -2.48250150               -1.98444734               13.03634498               -1.85671447
              11.33478204                9.62296009               56.51017088                0.00010000                5.89462250               -0.20541552               -3.87980642               -3.45214745               26.02154329               -0.60902583
              12.39866168                9.19740006               56.46323511                0.00010000                6.61827288               -0.82139756               -4.97522277               -3.55096106               27.28901853                0.18139399
              13.46714750                8.75318180               56.43358728                0.00010000                6.73399403               -0.75518334               -5.83578643               -3.56772823               29.31452747                0.82063022
              14.53334156                8.29378819               56.42897509                0.00010000                6.20747013               -0.32342472               -6.41820746               -3.59626224               32.10279360                1.92021752
              15.59129690                7.82229444               56.45721940                0.00010000                5.17058772                0.44293701               -6.46454877               -3.34642414               34.04346278                4.70811814
              16.63675331                7.34387109               56.49337908                0.00010000                3.76578250                0.90416045               -6.30741859               -2.70367236               32.02671671               12.60175918
              17.66661255                6.87004227               56.48007053                0.00010000                1.89038592                1.57453390               -3.30593416               -1.48901168               15.01043465                1.49544006
              18.67456103                6.42679176               56.17367144                0.00010000                0.79484840                1.41948604               -3.08378353               -0.09659459                0.51427523               -0.00736636
               8.62798843               11.73489892               57.09032627                0.00010000                0.19354230               -0.04750538                0.09865332               -0.04898228                0.01972636                0.66998971
               9.62992385               11.38284415               56.77148906                1.00000000                0.42596648                0.43412137               -1.38892105               -0.01486461                0.38892518               -0.52086506
              10.63650776               11.02957737               56.45996713                0.00010000                4.14012497                0.81810742               -2.84969651               -2.84566325               14.82017047               -1.19346400
              11.71272635               10.61824165               56.42875960                0.00010000                8.30938737               -1.50930531               -4.30757958               -3.14347895               29.20355890               -0.29590154
              12.80269550               10.18636420               56.40464901                0.00010000                8.80254752               -1.39646178               -5.40611357               -2.38797651               30.44952445                0.07128443
              13.88877730                9.74488914               56.39878476                0.00010000                8.33041076               -1.04744852               -6.20009177               -1.93037682               32.84747461                0.43843676
              14.96930372                9.28955465               56.42508406                0.00010000                7.67191026               -0.62927576               -6.52688795               -1.74720034               36.75367020                1.27471053
              16.04221550                8.82336788               56.50090643                0.00010000                6.40389947               -0.39536373               -5.85746057               -1.69930932               44.18902157                3.72119430
              17.09738171                8.34420593               56.67886559                0.00010000                3.45382526                0.13057529               -2.02398064               -1.10340008               31.12156661               10.68261944
              18.11129201                7.88092498               56.49485744                0.00010000                1.07191071                0.96931152               -2.78120183               -0.83881300                6.59728847                0.33114051
              19.11881992                7.43603665               56.18181533                0.00010000                0.75279126                0.79081052               -2.35573744                0.00490348                0.20866433               -0.57628038
               8.97712056               12.73482260               56.99173124                1.00000000                0.29103612               -0.00763252               -0.19687394                0.20033441                0.29855906                0.56807939
               9.98003092               12.38769381               56.66909477                1.00000000                0.56689529                0.48496607               -1.71113909                0.16977517                1.05584559               -0.45592990
              10.98845846               12.03800397               56.36153453                0.00010000                6.75473599                0.84265909               -3.18870488               -4.55092094               16.69549866               -0.71840635
              12.11512564               11.59277398               56.35022540                0.00010000               11.78981027               -2.54676725               -4.59935626               -3.18672804               32.14089616               -0.03336742
              13.22425467               11.16947083               56.34327879                0.00010000               10.51119373               -1.68933693               -5.63264213               -0.87114111               33.49886291                0.19037598
              14.32534951               10.73223283               56.35618124                0.00010000                9.78320726               -1.26563048               -6.31865634               -0.75618631               36.17153312                0.46080916
              15.41991881               10.28120268               56.40429112                0.00010000                8.86549604               -0.83519688               -6.46853630               -0.83077382               40.85324127                1.03273452
              16.50265943                9.81438717               56.51487435                0.00010000                6.86047013               -0.89807100               -5.20372929               -0.69161149               48.34838914                2.99604365
              17.55712821                9.34648259               56.71750089                0.00010000                2.76730667                0.22766654               -1.67612498               -0.27328266               31.68822127                3.89620712
              18.55800557                8.88942850               56.50590304                0.00010000                0.36537704                0.85035245               -2.58668804               -0.52237543                5.80892782                0.22859395
              19.56443576                8.44260797               56.19220511                0.00010000                0.64301900                0.65713212               -2.04868785               -0.12046963                0.67811027               -0.45218629
               5.55635744                2.88062399               58.98032076                1.00000000               -0.67411953               -0.84353971                2.91943286               -0.26457965               -0.66568309                0.70918949
               6.54961625                2.48365736               58.69670233                1.00000000               -0.48254275               -0.39986496                1.50705255               -0.20213972               -0.84665591                0.11496505
               7.54670659                2.08592262               58.40918624                1.00000000               -0.10111683                0.02982461                0.11440519               -0.20688440               -0.77008858               -0.13977328
               8.54759391                1.68635263               58.12678432                1.00000000                0.15508529                0.50770832               -1.32047930               -0.33881941                0.28079280               -0.66717534
               9.54980829                1.28287824               57.85994360                1.00000000                0.48319688                1.08058530               -2.92491481               -0.32678497                1.30871662               -0.00938763
              10.55725785                0.87753497               57.59761412                1.00000000                0.92596786                1.51639911               -4.47227691               -0.34536831                1.44462889               -0.29267966
              11.56832765                0.46739441               57.33325602                1.00000000               -1.14980896                2.06268064               -5.96508396               -3.55493290                3.67727709               -0.64965817
              12.53426167               -0.01218473               57.11635799                0.00010000              -15.91456789                2.29414353               -5.94457353              -28.35188512                8.03514734               -2.10752149
              13.25003629               -1.02205545               57.03371481                0.00010000              -11.03132671                8.20836524               -7.45017018              -29.61742498               12.78165953                1.64757663
              14.31363514               -1.82297670               56.95222768                1.00000000                5.78293054                4.86213482              -15.82026515              -20.02362191                6.52778756                2.46349803
              15.36569490               -2.22790001               56.70614145                1.00000000                5.20597691                5.63474507              -18.33571595               -0.54586920               -0.78263157               -0.87245447
               5.95067828                3.87218859               58.88058782                1.00000000               -0.57327440               -0.79728030                2.60864751               -0.03497247               -0.08695282                0.96689078
               6.94494553                3.47965871               58.59688561                1.00000000               -0.36940853               -0.35877187                1.19542591                0.02320596               -0.10127536                0.18386952
               7.94329011                3.08622087               58.31265997                1.00000000                0.03911865                0.07169168               -0.20095554                0.02762328                0.00009359               -0.27009553
               8.94572791                2.69142972               58.03074230                1.00000000                0.38295834                0.54025202               -1.63518315               -0.05758749                1.50508705               -0.87205621
               9.95094927                2.29368410               57.77638306                1.00000000                0.79090880                1.08682464               -3.32812099               -0.09209184                2.71054241               -0.04469135
              10.96154608                1.89269896               57.51758746                1.00000000                1.33444502                1.54649188               -4.92446141               -0.12472613                2.43230342               -0.46115321
              11.97763817                1.48802122               57.25679552                1.00000000                1.69608329                2.05877287               -6.43008506               -3.61034904                7.58392152               -1.00298021
              12.99546775                1.01075670               57.10016060                0.00010000               -5.91900730               -4.89164802               -3.34012832              -31.39716341               21.88886822                4.34485154
              13.85925803                0.06002820               57.12741528                0.00010000              -13.95732772                6.95152498               -6.06531372              -39.19613187               27.34150075                3.32352632
              14.71632119               -0.77435535               57.13332749                1.00000000               -4.70492545                4.31276235              -15.97715049              -20.87073355               12.85639297                6.61969012
              15.76515952               -1.17155256               56.88394632                1.00000000                4.88383253                4.88478038              -18.28117862               -0.78005825                2.52216154                1.76246290
               6.34071776                4.86467838               58.78575845                1.00000000               -0.46696707               -0.70020923                2.27802506               -0.03635675                0.12155346                1.16006448
               7.33604809                4.47648192               58.49826536                1.00000000               -0.26148568               -0.27035158                0.87498869                0.01970401                0.26236102                0.14066121
               8.33548805                4.08735646               58.21341140                1.00000000                0.14654220                0.16429507               -0.51506412                0.02340580                0.50449951               -0.54839586
               9.33897893                3.69715767               57.93057313                1.00000000                0.56045807                0.61026054               -1.89044910               -0.05111583                2.83355599               -1.08268150
              10.34669721                3.30461474               57.69216149                1.00000000                1.07236366                0.18459539               -3.76809745               -0.98099477                4.14688945                1.55801419
              11.36042621                2.90846481               57.43397813                1.00000000                1.56828609               -0.49532222               -5.37540395               -1.64422588                3.04970697                4.57830621
              12.37806293                2.50856987               57.17253946                1.00000000               -1.30573958               -3.02419823               -6.73454927              -12.67130291               17.60729817               10.21486309
              13.33431142                1.88998231               57.20435716                0.00010000               -6.34186090               -8.13358065               -2.39019130              -31.72992584               31.59442505                6.34715301
              14.25122571                1.11697505               57.23972834                0.00010000              -10.32550970                5.20620067               -4.71902109              -39.57284356               37.07408362                2.29195431
              15.12780122                0.26327855               57.36833812                1.00000000               -5.33687820                2.61124535               -4.23421665              -22.13938583               20.99287811                5.87997410
              16.14448815               -0.13020440               57.08016688                1.00000000                1.66869266                3.22542550               -8.19502339               -0.90123008                0.41181751                0.19797996
               6.72634407                5.85818441               58.68966147                1.00000000               -0.36825269               -0.58833190                1.93553231               -0.04772574                0.23713846                0.96398455
               7.72266154                5.47425168               58.39742461                1.00000000               -0.16307983               -0.16747384                0.53884128                0.01181827                0.54501220               -0.22854939
               8.72308247                5.08950677               58.11123755                1.00000000                0.23928849                0.27868063               -0.82669609                0.00369838                1.11646442               -1.08539752
               9.72744731                4.70363493               57.83029331                1.00000000               -0.15301154                0.59708081               -2.17027265               -1.13490404                5.95910146               -0.21186074
              10.72002224                4.29737600               57.64097376                0.00010000               -0.13704378               -0.72544256               -3.28284144               -2.66697105               10.50842927                3.54673218
              11.72470643                3.88279252               57.45474785                0.00010000                1.13361888               -2.72723858               -4.43579476               -4.91837767               13.40301388                8.39154655
              12.74269462                3.42753725               57.32075898                0.00010000                1.38788074               -6.81586288               -4.67984461              -12.50957194               20.70397107               13.84435162
              13.75246405                2.84808509               57.26541671                0.00010000               -2.40948495               -3.51100466               -4.77203064              -20.32106045               29.03492481                4.17053993
              14.69450492                2.16415221               57.28721059                0.00010000              -11.58755623                3.45906783               -4.29944298              -30.86484972               42.29632016               -3.90971894
              15.52071292                1.27786956               57.50095659                1.00000000               -8.02020543               12.12094545               -3.14102469              -11.59411821               27.08305601              -20.71732547
              16.53410081                0.89295595               57.19767034                1.00000000                1.33878854                3.41446700               -6.78030857                9.34459031                2.04514248              -20.48526955
               7.10762871                6.85291175               58.59069075                1.00000000               -0.26666147               -0.46820619                1.58099900               -0.04644809                0.11851709                0.74396471
               8.10496209                6.47313244               58.29129669                1.00000000               -0.07249709               -0.06122207                0.17169044                0.03180584                0.58254053               -0.55765947
               9.10617877                6.09293007               58.00114954                0.00010000                0.17247635                0.38227625               -1.17697110               -0.07764700                2.87311644               -1.69229208
              10.10841162                5.70909929               57.74745262                0.00010000                0.40107143               -0.10881327               -1.68615828               -1.71413781               10.28890007                3.00837727
              11.11420019                5.29010589               57.60746175                0.00010000                1.17428938               -0.91156924               -3.20112655               -2.95126844               16.01821450                3.73965404
              12.13189741                4.85392004               57.46808874                0.00010000                2.41893629               -2.76166778               -4.16847740               -4.80974762               18.03817204                5.72344550
              13.16257892                4.37225261               57.36175154                0.00010000                2.96889178               -4.48984617               -4.91335384               -9.53001293               22.51652221                5.41895167
              14.19127524                3.81976222               57.29950795                0.00010000                2.07826671               -2.47249055               -5.51452595              -15.50847016               27.25016360                1.22077164
              15.20414425                3.18615641               57.27620424                0.00010000               -1.20800623                2.57021013               -6.09843587              -17.51905974               26.60573186               -7.47656142
              16.16711512                2.50569746               57.19158564                1.00000000               -5.14685485               17.50029482               -6.46775305               -5.15266664               16.24821785              -28.77867340
              17.10120716                1.93808494               56.96465696                0.00010000               -6.59079612               10.71621604               -8.46821047               -0.67522698                9.03022908              -29.25369542
               7.48497371                7.84882028               58.49001822                1.00000000               -0.16943747               -0.36008089                1.26657886               -0.03723249                0.05888381                0.70131889
               8.48327933                7.47302724               58.18387546                0.00010000                0.02944890                0.03052763               -0.14835130                0.05193411                0.51367544               -0.60708445
               9.48556269                7.09715230               57.88681623                0.00010000                0.63547025                0.43667512               -1.53386695               -0.81983657                7.31681568               -1.99733094
              10.49598874                6.70145866               57.71636235                0.00010000                1.53067176               -0.52434478               -2.44396007               -2.11619948               14.87051068                2.84266148
              11.51617612                6.27914462               57.57203931                0.00010000                2.51880102               -1.10092886               -3.46004680               -3.59047238               17.85192370                2.61200620
              12.54636476                5.82755916               57.45934794                0.00010000                3.50380306               -2.25547575               -4.49202726               -5.79197579               20.91091223                3.02158173
              13.58625218                5.33774033               57.37094417                0.00010000                4.10130457               -2.72278821               -5.45511972               -9.36164568               23.79705484                2.24579852
              14.62839085                4.79863528               57.30678003                0.00010000                3.59681506               -1.22200896               -6.53073564              -13.20543037               25.78891945               -0.66814939
              15.65818848                4.21555642               57.24652837                0.00010000                1.86701031                3.40492797               -8.15633475              -14.64757032               24.45628730               -5.75284435
              16.66573106                3.62787545               57.14355843                0.00010000               -0.11835912               11.24072045              -10.77506976               -8.61654855               15.12242884               -8.75381359
              17.65582130                3.10728027               56.89034331                0.00010000               -0.99097551               16.89955971              -12.27191817               -1.39601512                7.50001074              -13.08297350
               7.85847015                8.84571013               58.38997988                1.00000000               -0.08013909               -0.27156598                0.98865216               -0.04130442                0.03008394                0.77275261
               8.85766876                8.47374300               58.07704122                0.00010000                0.14402273                0.11845183               -0.46127311                0.04384532                0.39184299               -0.58380442
               9.86135061                8.10166357               57.77130453                0.00010000                1.32132715                0.48328703               -1.87684540               -1.37338703                9.58775630               -2.11276371
              10.88409531                7.69861239               57.64168677                0.00010000                2.74698173               -0.16914436               -2.97990160               -3.00832289               19.13411966               -0.16320767
              11.91629024                7.26808731               57.52871047                0.00010000                3.66834387               -0.91946478               -4.03119961               -4.55368054               21.04133067                1.07665906
              12.95746218                6.80881052               57.43717050                0.00010000                4.39898234               -1.49787405               -5.06251373               -6.48911524               23.29281707                1.33422188
              14.00426989                6.31779684               57.36697657                0.00010000                4.59441810               -1.36117152               -6.15230914               -8.96881010               25.37710544                0.97825480
              15.04935055                5.79532204               57.31256652                0.00010000                3.88413932                0.31218998               -7.46229256              -11.14684272               26.87684671               -0.20356309
              16.08195268                5.25425496               57.26611369                0.00010000                2.68548721                3.98069639               -9.40452000              -10.77683963               27.44162107               -1.34570488
              17.10306029                4.73051187               57.21477597                0.00010000                1.62622658                9.30407707              -14.88815636               -5.56235173               18.15540677                2.30427865
              18.11447721                4.27607613               56.97050653                0.00010000                1.14169184               13.33770999              -14.99232441               -0.77062074                8.87654152               -0.58103063
               8.22808188                9.84338896               58.29043842                0.00010000                0.01209143               -0.19518255                0.69937891               -0.04499611                0.01731552                0.81913847
               9.22820280                9.47539627               57.97052957                0.00010000                0.25718338                0.21855780               -0.77730332                0.01788833                0.29538159               -0.58737635
              10.23322555                9.10681804               57.65614641                0.00010000                2.05978743                0.58193852               -2.23800160               -1.89509999               11.38928467               -2.17846515
              11.26939854                8.69807577               57.55735426                0.00010000                4.08394154                0.00809041               -3.56294595               -3.83721204               22.74562277               -0.99159690
              12.31490438                8.26075532               57.47287737                0.00010000                4.87371864               -0.62926388               -4.69132580               -5.06262176               24.26701928               -0.10415405
              13.36687292                7.79760168               57.40706416                0.00010000                5.27300442               -0.86761645               -5.73725313               -6.29857307               26.14022654                0.39362731
              14.42036447                7.31051690               57.36245919                0.00010000                5.10614795               -0.35597355               -6.80886968               -7.59050249               27.95161311                0.83193732
              15.46899588                6.80487908               57.33472925                0.00010000                4.35486971                1.16408894               -8.09945023               -8.21369755               29.28105181                2.15566312
              16.50746186                6.29517035               57.31751154                0.00010000                3.18334877                3.62806900               -9.68032613               -6.36494277               32.45351093                3.67594421
              17.53266285                5.81395699               57.35764567                0.00010000                2.09092423                6.16032434              -12.03955579               -2.39149341               19.87889937                6.07182343
              18.54928035                5.37403447               57.08556642                0.00010000                1.66174956                6.61356413               -9.59030355               -0.37813315                5.30489398                3.40900176
               8.59355562               10.84180648               58.19108759                0.00010000                0.10418417               -0.12372629                0.41381719               -0.04964713                0.00731469                0.82284496
               9.59459746               10.47811415               57.86399513                0.00010000                0.36067456                0.32964953               -1.10404568               -0.01341300                0.22250681               -0.60602424
              10.60076911               10.11330234               57.54116465                0.00010000                2.94081599                0.73216342               -2.66630142               -2.44950758               13.05575357               -2.03344880
              11.65341378                9.69877420               57.46987290                0.00010000                5.73713957               -0.11579699               -4.19274933               -4.40347133               26.10158438               -1.08799858
              12.71551190                9.25550203               57.41133239                0.00010000                6.41576858               -0.70222868               -5.38041330               -4.73076799               27.45825285               -0.48562723
              13.78172915                8.79145820               57.37208526                0.00010000                6.48352723               -0.55043581               -6.40682824               -5.05465154               29.42726393               -0.01414691
              14.84518244                8.31067737               57.35994599                0.00010000                5.93469988                0.07785554               -7.35279225               -5.30945030               32.20340801                0.95455748
              15.90042315                7.81860382               57.38518972                0.00010000                5.01967325                1.15627615               -8.01281721               -4.84540548               34.05495681                4.02153153
              16.94557591                7.32681634               57.41882556                0.00010000                3.79715728                2.01666875               -9.15392056               -3.20067454               33.82079138               14.21433712
              17.97636629                6.85371835               57.44210082                0.00010000                2.05918369                2.78143609               -5.27865702               -1.36064401               17.02252175                2.99587126
              18.98675958                6.40834742               57.13952556                0.00010000                1.03932898                2.32185615               -4.43569827               -0.38065288                1.28152223                1.32385433
               8.95447359               11.84091444               58.09147771                0.00010000                0.19650840               -0.05289582                0.13055516               -0.05098512                0.01941261                0.71413089
               9.95643867               11.48198926               57.75732485                1.00000000                0.45508811                0.44339872               -1.43930891               -0.03634971                0.37563125               -0.56020846
              10.96357535               11.12146130               57.43025165                0.00010000                4.13453796                0.86506534               -3.16761498               -3.22215823               14.81436330               -1.35937366
              12.03912943               10.69575983               57.38361053                0.00010000                8.20148389               -1.33425854               -4.77494159               -3.77603339               29.26045707               -0.60151965
              13.12760503               10.24671075               57.34775694                0.00010000                8.57375567               -1.11821944               -5.98329529               -3.13501760               30.60479659               -0.35131055
              14.21060454                9.78659297               57.33279333                0.00010000                7.97124079               -0.61977818               -6.95504398               -2.80634325               32.95887502               -0.09845145
              15.28702984                9.31207401               57.35387143                0.00010000                7.26721264                0.02838548               -7.73357567               -2.67994801               36.99720466                0.68007275
              16.35594880                8.82800460               57.43433966                0.00010000                6.06519966                0.53170161               -7.75273232               -2.45170165               46.05755885                3.48880719
              17.40833384                8.33550372               57.65191523                0.00010000                3.39850514                0.85340573               -3.98620115               -1.51074140               32.19714058               12.49378805
              18.42391890                7.86958571               57.46544069                0.00010000                1.20376616                1.26148316               -3.18577888               -0.79234652                6.35106796                0.41914503
              19.43240916                7.42047160               57.15773158                0.00010000                0.84902600                0.95995922               -2.72603803               -0.15650975                0.47812005               -0.13551154
               9.31038626               12.84074856               57.98994890                1.00000000                0.29373322               -0.01658784               -0.15888159                0.21462458                0.31672283                0.61025611
              10.31332360               12.48698213               57.65168198                1.00000000                0.60845531                0.49928644               -1.76776197                0.18124713                1.06018397               -0.49702942
              11.32255537               12.13060365               57.32825037                0.00010000                6.96600333                0.91423439               -3.54624087               -4.84665255               16.74204357               -0.81561120
              12.45264366               11.67208903               57.30189821                0.00010000               11.97115211               -2.36708033               -5.15296428               -3.52187690               32.29047086               -0.12544681
              13.56197841               11.23313764               57.28376688                0.00010000               10.37976811               -1.35731088               -6.32413625               -1.21398125               33.78838844                0.03248417
              14.66023903               10.77906263               57.28856301                0.00010000                9.40967167               -0.75303355               -7.20410508               -1.13117959               36.43943770                0.25963915
              15.75017185               10.31124508               57.33320288                0.00010000                8.38601876               -0.08289248               -7.83765188               -1.17703873               41.45620315                0.84834244
              16.82795940                9.82923785               57.45520819                0.00010000                6.18040608                0.12332442               -7.15735706               -1.16697063               50.38558113                3.45931531
              17.87377997                9.34388446               57.69566745                0.00010000                2.37960415                0.83807390               -2.97416661               -0.96987829               32.34740922                3.76582027
              18.87555148                8.87894802               57.47964406                0.00010000                0.40388265                0.93623003               -2.67643968               -0.65363427                5.23728509                0.07214543
              19.88185762                8.42754660               57.17221585                0.00010000                0.63061371                0.70750042               -2.17123804               -0.19529502                0.72952799               -0.16664143
               5.84056472                2.98890052               60.00928823                1.00000000               -0.65841032               -0.82800572                2.86465693               -0.26221680               -0.63503828                0.69039657
               6.83398062                2.58616353               59.71158860                1.00000000               -0.46703774               -0.38997304                1.46759081               -0.20103821               -0.80365738                0.11100882
               7.83122396                2.18267890               59.41016921                1.00000000               -0.08629614                0.03419088                0.08680741               -0.20438560               -0.73925680               -0.13046799
               8.83225469                1.77744151               59.11345869                1.00000000                0.17219089                0.50553334               -1.33261393               -0.34283796                0.19829382               -0.64001083
               9.83466778                1.36820060               58.83055052                1.00000000                0.49681510                1.07012098               -2.93180875               -0.33656544                1.16051811               -0.04627972
              10.84219099                0.95666060               58.55271069                1.00000000                0.91289666                1.51515081               -4.48241377               -0.38253265                1.35538424               -0.35214799
              11.85292571                0.53978530               58.27352991                1.00000000               -4.43556334                2.07340189               -5.94569791               -8.22831954                4.60613654               -0.64493190
              12.75347973               -0.03968086               58.06084531                1.00000000              -19.29087041                2.98077831               -4.36902037              -29.14220627                4.66346671               -4.13751442
              13.46710831               -1.10152794               57.96234718                0.00010000               -9.92458417                8.62607000               -6.84037431              -31.54885791                9.09011888                3.73357228
              14.55498804               -1.97872749               57.77984204                1.00000000                7.26803609                6.10537215              -17.30255982              -23.35123397                3.00778500                2.84397059
              15.61246903               -2.41729363               57.50459452                1.00000000                5.74809840                7.14367573              -20.47125704                0.38239766               -1.55620681               -0.64729166
               6.24067954                3.98062047               59.90647368                1.00000000               -0.55984964               -0.78226629                2.55993370               -0.03699871               -0.07079577                0.94510013
               7.23508104                3.58226380               59.60868160                1.00000000               -0.35692093               -0.34940845                1.16185489                0.01940876               -0.07402095                0.17705878
               8.23354112                3.18302081               59.31052856                1.00000000                0.04922098                0.07517306               -0.22019363                0.02521590                0.01593106               -0.26389035
               9.23606546                2.78249684               59.01431600                1.00000000                0.40757287                0.53795000               -1.63778728               -0.06723050                1.36244858               -0.82173358
              10.24169258                2.37890181               58.74297749                1.00000000                0.82539265                1.06832158               -3.32422404               -0.09573060                2.45904218               -0.11210713
              11.25257332                1.97181211               58.46806129                1.00000000                1.35603353                1.53782475               -4.93444812               -0.15310306                2.24273587               -0.53310748
              12.26881325                1.56051932               58.19207774                1.00000000                1.50704849                2.03450226               -6.44104548               -7.95023334               10.13965974               -0.95407013
              13.28271429                0.99012692               58.07533089                0.00010000               -7.38351034               -4.46104110               -2.06731521              -34.97530063               21.62156864                1.44643606
              14.12114304               -0.01526724               58.06598913                0.00010000              -15.16778668                7.79562534               -6.30824726              -41.09174692               19.96584264                4.30142374
              14.97935855               -0.91767377               57.93413421                1.00000000               -3.31419463                5.70559355              -22.63136080              -22.46082780                7.95803012               15.16373808
              16.05485915               -1.34585688               57.65784945                1.00000000                7.55005976                6.22707726              -25.64938929               -0.77402076                2.46133987                9.15973214
               6.63653807                4.97325520               59.80838620                1.00000000               -0.45696242               -0.68543343                2.23928821               -0.04053911                0.13615070                1.12975649
               7.63196845                4.57917536               59.50688374                1.00000000               -0.25214122               -0.26253129                0.84735191                0.01272275                0.28626205                0.12335377
               8.63149525                4.18418236               59.20816034                1.00000000                0.15303184                0.16740754               -0.52993803                0.01856381                0.54403905               -0.54637218
               9.63502908                3.78820051               58.91165346                1.00000000                0.59713263                0.60982726               -1.88176708               -0.07375610                2.62124701               -1.02331638
              10.64343790                3.38956703               58.65444010                1.00000000                1.12411692               -0.12119259               -3.73846605               -1.11752642                3.77989219                1.93809725
              11.65751142                2.98741710               58.38003447                1.00000000                1.60841675               -1.04983394               -5.35227220               -1.76173327                2.90234228                5.20163552
              12.67560623                2.58047535               58.10492793                1.00000000               -1.38755724               -4.45799567               -6.71800009              -16.59412654               20.07001420               11.44003058
              13.62976028                1.87109832               58.17312894                0.00010000               -6.12660864               -7.46848888               -3.82332661              -36.95411904               34.94880471                5.30851512
              14.55307406                1.05438457               58.18810548                0.00010000               -9.66995749                5.91721923               -5.82700162              -42.17004617               38.89263809                2.72936485
              15.43636113                0.13538438               58.32165269                1.00000000               -4.98596143                3.66492390               -4.18620419              -23.43116138               22.84481987               14.80830321
              16.45335483               -0.29275209               57.99046791                1.00000000                1.69937052                4.14273399               -8.18374554               -1.52045554               -0.66836675                7.95352658
               7.02802842                5.96691180               59.70891185                1.00000000               -0.36200906               -0.57462164                1.90854965               -0.05237172                0.25257773                0.93405382
               8.02440833                5.57701318               59.40271521                1.00000000               -0.15705836               -0.16495037                0.51938232                0.00571124                0.57590837               -0.26714103
               9.02488726                5.18636896               59.10284945                1.00000000                0.23986696                0.27990891               -0.84577621                0.00390123                1.17782368               -1.10420220
              10.02920567                4.79469338               58.80860025                1.00000000               -0.23808987                0.43483771               -2.15712376               -1.49429243                6.15820961                0.28366828
              11.02012546                4.37647796               58.60851754                0.00010000               -0.13876691               -1.33651406               -3.17971393               -3.29980562               10.85815573                4.13448994
              12.02643033                3.95081543               58.41061636                0.00010000                1.65620185               -3.90979167               -4.36084448               -5.98585161               14.20363697                9.29952174
              13.05324950                3.47135941               58.27332454                0.00010000                2.16461760               -8.97959339               -4.79749744              -15.26351491               22.22487117               14.86745546
              14.06972269                2.84075715               58.21592144                0.00010000               -1.98967195               -3.08175196               -5.18415638              -24.10923799               31.07938962                2.93790010
              15.01345606                2.10307715               58.24089479                0.00010000              -10.59253519                3.68843054               -5.02779826              -35.16554241               45.07084922               -4.68637689
              15.85787198                1.15562471               58.45539118                1.00000000               -6.63665381               12.66706976               -6.36476926              -15.26112651               29.39139970              -20.63902354
              16.88072298                0.73699780               58.11510148                1.00000000                2.28509987                4.25896308               -9.76670965                7.05203512                2.59550920              -20.33022037
               7.41528788                6.96176276               59.60654650                1.00000000               -0.26623692               -0.45583654                1.58084373               -0.04806960                0.11686530                0.73725446
               8.41262551                6.57587636               59.29297261                1.00000000               -0.06974063               -0.07101726                0.16415397                0.03736618                0.61319446               -0.59374073
               9.41389306                6.18978054               58.98928235                0.00010000                0.12043652                0.36014397               -1.18807838               -0.21306381                3.43485196               -1.74103064
              10.41503424                5.79689726               58.73209851                0.00010000                0.37133377               -0.56298853               -1.33577626               -2.34528685               10.67924385                2.98353298
              11.42131974                5.36283675               58.57588994                0.00010000                1.39393507               -1.57528306               -3.10148163               -3.86947235               16.18472887                3.87837691
              12.44291294                4.90922126               58.42644025                0.00010000                2.95372404               -3.88676872               -4.13819219               -6.24579591               18.71325718                5.85801659
              13.48039422                4.40088348               58.31197886                0.00010000                3.64724207               -5.74137362               -5.02170223              -12.23372904               23.42090469                5.12451038
              14.51585778                3.80946328               58.24242630                0.00010000                2.72507148               -2.88479205               -5.87335651              -19.27183331               28.30827979                0.31680014
              15.53489565                3.12815318               58.21154649                0.00010000               -0.93199200                2.76883815               -6.90932364              -22.02301376               28.11335330               -9.45877106
              16.49721794                2.38872578               58.12646116                1.00000000               -5.16231500               18.31839717               -6.31240662               -9.48053702               17.21753306              -33.31577186
              17.43164935                1.79242717               57.87562845                0.00010000               -6.55685907               11.50582358               -9.62159548               -4.01319585                9.78050072              -32.12205391
               7.79883985                7.95779507               59.50281173                1.00000000               -0.17019667               -0.34592855                1.28110995               -0.03721731                0.05683756                0.72856443
               8.79713788                7.57559283               59.18232160                0.00010000                0.03826153                0.00965249               -0.15625644                0.06572505                0.53225248               -0.62429546
               9.79960508                7.19357184               58.87132582                0.00010000                0.60529227                0.37061056               -1.55709840               -1.19588867                7.62126682               -2.07090927
              10.80924373                6.78343361               58.69227216                0.00010000                1.54034656               -0.99600056               -2.36609842               -2.98547976               15.38368245                2.27242936
              11.83041201                6.34497230               58.53766714                0.00010000                2.71119801               -1.72132765               -3.39084399               -4.78160466               18.26868657                2.31516735
              12.86346769                5.87308006               58.41411106                0.00010000                3.89604449               -3.08060513               -4.52232854               -7.65658330               21.37305382                2.66610396
              13.90833290                5.35653194               58.31517179                0.00010000                4.67743182               -3.54369514               -5.65151945              -12.15299419               24.25803389                1.61608296
              14.95701632                4.78306131               58.23872479                0.00010000                4.27001934               -1.69205412               -7.01360137              -16.89703656               25.98594482               -1.79089192
              15.99373328                4.15845391               58.16056224                0.00010000                2.34854630                3.52063768               -8.81800622              -19.06266197               24.26805188               -7.95379411
              17.00398725                3.52199265               58.03396408                0.00010000               -0.03385063               12.25003236              -11.14334295              -12.22856708               14.88006655              -14.54386871
              17.99305627                2.96711427               57.76330114                0.00010000               -1.09309755               17.86859445              -13.02146855               -4.03818399                7.26762221              -17.85011969
               8.17894800                8.95484419               59.39992141                1.00000000               -0.07847653               -0.25598390                0.99646508               -0.04159063                0.02580250                0.81442401
               9.17816323                8.57606941               59.07236015                0.00010000                0.15932547                0.09606504               -0.47021507                0.04518066                0.40113331               -0.60386995
              10.18213451                8.19719275               58.75227520                0.00010000                1.28804759                0.38349301               -1.93029225               -1.87954149                9.78276914               -2.23365103
              11.20392418                7.77697725               58.61171917                0.00010000                2.69533470               -0.45508583               -2.99150453               -4.11586234               19.52568722               -0.62920967
              12.23604120                7.32841020               58.48808083                0.00010000                3.71487239               -1.34425751               -4.05958744               -6.01065844               21.43741121                0.51496722
              13.27822163                6.84760916               58.38567304                0.00010000                4.56559422               -2.00647326               -5.18424445               -8.60628019               23.62104369                0.70990671
              14.32735309                6.33000958               58.30344075                0.00010000                4.88867216               -1.84197357               -6.48195924              -11.93055466               25.52592538                0.13786666
              15.37599508                5.77562220               58.23394342                0.00010000                4.36789876                0.09689433               -8.15462179              -14.93321991               26.59096412               -1.47818738
              16.41471106                5.19856593               58.16389452                0.00010000                3.39955783                4.42379119              -10.91324161              -15.51361353               25.05854132               -3.19939644
              17.44398623                4.63372642               58.04871861                0.00010000                2.29656830               11.07766316              -16.45824509               -9.96190457               16.10302494               -1.50178358
              18.46064243                4.14979906               57.78723353                0.00010000                1.66561952               16.98468301              -18.80458046               -3.82019131                9.01696059               -3.09898036
               8.55555761                9.95267539               59.29752577                0.00010000                0.01353264               -0.18269414                0.71338982               -0.04743253                0.01404593                0.86709474
               9.55569293                9.57751413               58.96264613                0.00010000                0.27743988                0.20131053               -0.79274972               -0.01085958                0.28997398               -0.62313602
              10.56110640                9.20124170               58.63326355                0.00010000                2.00080494                0.48374217               -2.34910678               -2.46551036               11.45948826               -2.40508808
              11.59570903                8.77433190               58.52096609                0.00010000                3.92302610               -0.10166989               -3.70435450               -5.02163763               22.98551569               -1.57848128
              12.63956693                8.31808715               58.42496495                0.00010000                4.70168343               -0.78011217               -4.84710906               -6.59040665               24.59407444               -0.79563349
              13.68974270                7.83295059               58.34807504                0.00010000                5.10709202               -1.02197329               -5.98829870               -8.47685683               26.36309465               -0.37807860
              14.74170877                7.31969247               58.29128169                0.00010000                5.00264340               -0.42712346               -7.33406933              -10.54996152               27.88035606               -0.13848350
              15.78979557                6.78499919               58.24771123                0.00010000                4.18240102                1.37462344               -9.19458996              -11.76206726               28.85643036                0.96102803
              16.82535679                6.24692973               58.21044876                0.00010000                3.18602289                4.75941030              -11.66552600               -9.99531440               30.48767197                1.95795277
              17.85351603                5.74354592               58.19760254                0.00010000                2.95751914                9.42191243              -19.44246448               -4.88725198               21.13335368                7.85018388
              18.88450717                5.30680794               57.95598317                0.00010000                3.09911437               11.56523132              -19.24045603               -1.43881957               11.30050611                5.50360424
               8.92832186               10.95119031               59.19534142                0.00010000                0.10578699               -0.11775779                0.43246127               -0.05322985                0.00346136                0.87976265
               9.92937973               10.58009562               58.85278953                0.00010000                0.38423385                0.32195026               -1.12888529               -0.06765584                0.16424964               -0.66044789
              10.93600654               10.20686760               58.51343619                0.00010000                2.86331284                0.70312439               -2.91640459               -2.98744128               12.97921430               -2.40539098
              11.98664599                9.77494385               58.42631589                0.00010000                5.48039188               -0.00729763               -4.56362833               -5.46692345               26.22188639               -1.73139639
              13.04561437                9.31280795               58.35562684                0.00010000                6.02165960               -0.55918233               -5.74329045               -6.08662237               27.76447343               -1.19986156
              14.10707918                8.82716969               58.30545072                0.00010000                5.93454408               -0.32541186               -6.82499290               -6.96216185               29.59145132               -0.77740723
              15.16430525                8.32146711               58.28191925                0.00010000                5.32186425                0.51033716               -8.14457207               -7.90311591               32.11323384               -0.02896689
              16.21351646                7.80311467               58.29696305                0.00010000                4.59763969                1.90631791               -9.65440797               -7.60928309               33.34033758                2.92397110
              17.25625805                7.29375414               58.31030067                0.00010000                3.64232640                3.51550319              -12.45876830               -4.80416457               35.52140455               15.03560659
              18.28636299                6.82216467               58.37449739                0.00010000                2.45419756                5.41093569              -11.55115605               -1.68347274               20.39446420                6.78696076
              19.30534200                6.38110369               58.08495748                0.00010000                1.89790096                4.69140956               -9.21260744               -1.14142957                4.37481697                4.41919557
               9.29668240               11.95032023               59.09293737                0.00010000                0.19801344               -0.05524792                0.15810488               -0.05336008                0.01590783                0.77544260
              10.29866253               11.58395314               58.74270289                1.00000000                0.49134742                0.44716772               -1.47673343               -0.07313242                0.22374028               -0.62269328
              11.30650935               11.21530419               58.39661484                0.00010000                4.08838366                0.94133590               -3.64931100               -3.63453167               14.62710835               -1.68935919
              12.38043020               10.77418594               58.33326077                0.00010000                7.95496448               -1.06270896               -5.43210498               -4.48140664               29.36571623               -1.06973930
              13.46560863               10.30690350               58.28498311                0.00010000                8.07050525               -0.73536636               -6.62628667               -4.00001626               30.95847355               -0.83744643
              14.54184031                9.82644235               58.25968388                0.00010000                7.10464211               -0.06417257               -7.57485583               -3.96906035               33.13948928               -0.61119148
              15.60770148                9.32989921               58.27041254                0.00010000                6.17412840                0.90197529               -8.77984846               -4.26121831               36.85293193                0.00043730
              16.66532288                8.82312555               58.34585179                0.00010000                5.12610065                1.93608695              -10.15199943               -3.91346946               47.21932665                2.85344987
              17.71022349                8.31723980               58.59914157                0.00010000                3.35870726                2.02702071               -8.14785348               -2.39892186               34.02805639               14.67859547
              18.73249702                7.85176463               58.43114186                0.00010000                1.67885291                2.01499950               -4.10395430               -0.83818939                7.39474209                1.50133172
              19.74380055                7.40063613               58.12729457                0.00010000                1.13035258                1.46014559               -4.10013645               -0.68581320                1.21165692                0.70255816
               9.65998885               12.95008535               58.98855361                1.00000000                0.29442774               -0.02348804               -0.12133144                0.22600691                0.34263395                0.67195114
              10.66293312               12.58903897               58.63373953                1.00000000                0.65471246                0.50858337               -1.81125028                0.20750736                0.92616434               -0.56162284
              11.67308310               12.22569431               58.29060972                0.00010000                7.12427083                1.03901252               -4.03351723               -5.11008994               16.56729889               -1.00956182
              12.80541854               11.75368967               58.24716612                0.00010000               12.01372709               -2.04962726               -6.04075569               -3.88085070               32.39381736               -0.30100521
              13.91335764               11.29810063               58.21679607                0.00010000                9.96418608               -0.88028729               -7.22147090               -1.61527113               34.26082352               -0.17094570
              15.00470226               10.82588624               58.21209914                0.00010000                8.45200276               -0.05561110               -8.02633331               -1.64350534               36.78062292                0.03110074
              16.08239769               10.33950661               58.24753809                0.00010000                7.16021112                0.96074066               -9.12648568               -1.73287033               41.60022037                0.55950704
              17.14790648                9.84183641               58.37172721                0.00010000                4.86214194                1.87108551              -10.11212791               -2.00224236               52.22865992                3.85767029
              18.17964053                9.33429455               58.65801756                0.00010000                1.91481941                1.70547564               -5.67513828               -2.02688302               34.15028762                4.64361808
              19.18620287                8.86246466               58.45237425                0.00010000                0.71211069                1.07000321               -3.01900157               -0.82881261                5.61630479                0.03777567
              20.19388275                8.41030660               58.14878035                0.00010000                0.76798723                0.96704739               -3.13233282               -0.20758659                1.08425538                0.21590696
               6.13905592                3.10006102               61.03761390                1.00000000               -0.63938120               -0.80683947                2.79181296               -0.25789050               -0.60896246                0.67540002
               7.13266211                2.69169153               60.72605415                1.00000000               -0.45022817               -0.37867812                1.42320921               -0.19851106               -0.76700900                0.10713040
               8.13005136                2.28259457               60.41092238                1.00000000               -0.07418160                0.03573647                0.06840361               -0.20038906               -0.71433937               -0.12221741
               9.13117848                1.87183781               60.10013204                1.00000000                0.18576469                0.49624693               -1.32150913               -0.33984523                0.10834791               -0.61635916
              10.13376665                1.45709872               59.80130742                1.00000000                0.51038310                1.04536560               -2.89809424               -0.34053127                0.99616509               -0.08214490
              11.14138614                1.03979083               59.50796585                1.00000000                0.92745548                1.49222095               -4.44080320               -0.39348968                1.26056547               -0.40860360
              12.15231576                0.61740011               59.21434206                1.00000000              -10.13362028                2.01416853               -5.85932257              -16.10025033                6.67896963               -0.66657374
              12.93871374               -0.12390618               59.02897758                1.00000000              -21.97369112                5.13079686               -2.11759568              -27.07600137                3.83638187               -4.80867430
              13.71284194               -1.15466791               58.89690732                0.00010000               -5.35851230                7.49662841               -6.52130617              -28.84581157                5.79534092                7.70936983
              14.83154349               -2.07468164               58.60617648                1.00000000                8.61119314                6.17903961              -16.17453313              -24.42659110               -0.34015144                2.26351153
              15.88506580               -2.54735570               58.29671631                1.00000000                5.35223140                7.31243989              -19.51751580                0.92159810               -2.03908554               -0.79508184
               6.54484651                4.09199262               60.93178649                1.00000000               -0.54362786               -0.76128406                2.49459837               -0.03929897               -0.05624150                0.92850422
               7.53941023                3.68790475               60.62012271                1.00000000               -0.34360869               -0.33880721                1.12468897                0.01481871               -0.04886364                0.17007796
               8.53797433                3.28295193               60.30825610                1.00000000                0.05588623                0.07567771               -0.22941415                0.02216323                0.03069894               -0.26093026
               9.54052795                2.87680027               59.99798656                1.00000000                0.42052482                0.52846434               -1.61681897               -0.07269616                1.21996275               -0.77419316
              10.54638483                2.46755237               59.70989858                1.00000000                0.83862968                1.03689585               -3.27047552               -0.09699225                2.19854192               -0.16784475
              11.55730055                2.05471304               59.41889849                1.00000000                1.33884673                1.50758071               -4.86302383               -0.17057429                2.05033598               -0.58565891
              12.57316176                1.63754180               59.12797461                1.00000000               -0.16564070                1.93617808               -6.32174926              -14.66291367               13.09346303               -0.91811201
              13.55398773                0.92740179               59.05881430                0.00010000               -8.66951040               -1.02658820               -2.64570909              -35.29235994               20.66190135               -0.50364737
              14.39977156               -0.07970162               59.00125034                0.00010000              -13.51831291                7.56622928               -6.85726984              -38.62901232               10.63219862                6.91875129
              15.28362147               -1.01289124               58.68070028                1.00000000               -1.64078554                5.64346408              -24.40283584              -22.18689882                1.06088614               28.13163822
              16.36695585               -1.47423130               58.37095853                1.00000000                8.33343711                5.94848979              -27.70712805               -0.71277684                1.12225156               22.12994960
               6.94644569                5.08483534               60.83054421                1.00000000               -0.44465127               -0.66437248                2.18477910               -0.04487553                0.14873637                1.10811905
               7.94199918                4.68491539               60.51521240                1.00000000               -0.24232963               -0.25423862                0.81733700                0.00523283                0.30868489                0.10690616
               8.94159910                4.28410812               60.20281264                1.00000000                0.15624675                0.16743942               -0.53449776                0.01356384                0.58820315               -0.55433118
               9.94512412                3.88240709               59.89293778                1.00000000                0.61574718                0.60314863               -1.85026078               -0.09280095                2.42749536               -0.96928873
              10.95391404                3.47783663               59.61739217                1.00000000                1.14305568               -0.44682047               -3.64772552               -1.18401171                3.42355337                2.36023835
              11.96798523                3.06994244               59.32693269                1.00000000                1.62273467               -1.61679330               -5.22861938               -1.75206694                2.75134165                5.85095271
              12.98636874                2.65612367               59.03817946                1.00000000               -0.89376355               -5.98531886               -6.58142600              -20.28275936               21.77858488               12.58416154
              13.95010996                1.85556206               59.12789062                0.00010000               -5.29070051               -4.49280245               -5.08385766              -40.34865688               37.38239539                4.52647611
              14.88055473                0.99665668               59.12318830                0.00010000               -8.38873848                6.33426441               -6.95282853              -43.03469033               41.81031730                5.03225336
              15.78233519                0.03818765               59.28461404                1.00000000               -4.35321730                3.65859293               -3.00854120              -23.71649117               25.66239215               28.31337005
              16.79349038               -0.42838590               58.91649197                1.00000000                1.11551930                3.77111521               -5.92509922               -1.67562739               -1.38863831               21.73960993
               7.34378890                6.07870518               60.72783246                1.00000000               -0.35467951               -0.55391925                1.86825386               -0.05511477                0.26670112                0.91921493
               8.34024210                5.68281998               60.40781226                1.00000000               -0.15174967               -0.16320751                0.49978392                0.00432475                0.60112509               -0.30263233
               9.34075391                5.28630072               60.09432203                1.00000000                0.23506589                0.27624835               -0.85448357                0.00970396                1.24531104               -1.13002068
              10.34494342                4.88886325               59.78715083                1.00000000               -0.27923311                0.13454743               -2.12043464               -1.87099839                6.41289761                0.95705820
              11.33516924                4.45861596               59.57737948                0.00010000               -0.04856278               -1.96564058               -3.04401119               -3.84235454               11.27671990                4.79408142
              12.34397217                4.02237717               59.36753096                0.00010000                2.33588593               -5.11783831               -4.24469065               -6.93460705               14.91371252               10.31147077
              13.38188696                3.51783542               59.22480904                0.00010000                3.12547123              -11.16140501               -4.87576276              -17.80946001               23.39105678               16.13852968
              14.40648159                2.83754574               59.16173358                0.00010000               -1.27173988               -2.61335944               -5.59277767              -28.15442493               32.59356047                3.11793999
              15.35645216                2.04698367               59.18665462                0.00010000               -8.60736800                4.03284285               -5.71704233              -38.77216974               45.81644315               -3.60995540
              16.23433423                1.06028062               59.37366121                1.00000000               -4.49308874               11.13107354               -9.41357782              -19.03720135               29.72429719              -17.25615816
              17.26659039                0.60119101               59.00233615                1.00000000                3.22561588                3.79150511              -11.94978680                4.34064941                2.45147403              -17.31731103
               7.73711379                7.07375695               60.62230762                1.00000000               -0.26236604               -0.43442520                1.56051731               -0.04548090                0.11011963                0.74618288
               8.73449013                6.68165124               60.29457977                1.00000000               -0.06819409               -0.08330960                0.15756886                0.05221598                0.64178912               -0.62821727
               9.73574991                6.28963309               59.97738797                0.00010000                0.04493863                0.32202741               -1.18355162               -0.46348170                4.19346868               -1.80419912
              10.73538891                5.88509804               59.72073709                0.00010000                0.39015582               -1.07883329               -0.99339887               -2.93658071               11.14732641                2.94430619
              11.74355303                5.43852382               59.54543211                0.00010000                1.73423621               -2.26794408               -3.00337235               -4.64853248               16.22727974                4.13767420
              12.77007363                4.96758568               59.38532489                0.00010000                3.57289705               -5.03643624               -4.08005311               -7.66396127               19.30734918                6.20619345
              13.81501097                4.43289557               59.26131749                0.00010000                4.38997930               -6.96176580               -5.07934405              -14.96893217               24.08148780                5.30288586
              14.85787322                3.80329487               59.18204082                0.00010000                3.36827447               -3.31227140               -6.10602298              -22.96721698               28.78794529                0.32802186
              15.88237646                3.07731354               59.13801776                0.00010000               -0.52446972                2.85744192               -7.53357010              -27.53138458               29.43725745               -9.63562651
              16.84738382                2.26080912               59.06533751                1.00000000               -4.19469323               17.72300019               -6.40986530              -15.18050392               17.35627245              -34.59569156
              17.79848259                1.64744420               58.77222505                1.00000000               -4.89012276               11.87408969              -11.28563034               -7.54102967                9.17737288              -30.29708728
               8.12709071                8.07001667               60.51564042                1.00000000               -0.16804234               -0.32361917                1.27391543               -0.03654289                0.04997255                0.76342951
               9.12541029                7.68115379               60.18075034                0.00010000                0.04733771               -0.01550849               -0.15446990                0.07860505                0.54337697               -0.64478629
              10.12803747                7.29274127               59.85567426                0.00010000                0.59553916                0.27098696               -1.56710146               -1.59850722                7.97387975               -2.18940060
              11.13732107                6.86728658               59.66904038                0.00010000                1.58367443               -1.38818876               -2.30523862               -3.80348378               15.98369297                1.60341244
              12.15971096                6.41325708               59.50422243                0.00010000                2.95000569               -2.37174878               -3.30806203               -5.90532820               18.69210347                2.19245211
              13.19632119                5.92164845               59.36890137                0.00010000                4.35440848               -3.92705013               -4.50716626               -9.51037322               21.76730695                2.63699439
              14.24679913                5.37860010               59.25791378                0.00010000                5.31990511               -4.42256518               -5.74979453              -14.94205412               24.52611104                1.51505167
              15.30271929                4.77130032               59.16650800                0.00010000                5.07555507               -2.32615116               -7.29393402              -20.58123804               25.94077193               -2.07669084
              16.34831023                4.10413250               59.07016825                0.00010000                2.89370985                3.15334925               -9.07784841              -23.52939192               23.98421532               -9.00526026
              17.36059349                3.41474062               58.92069157                0.00010000               -0.29053013               13.80143117              -11.29802990              -15.55308718               14.50773719              -18.82934069
              18.34249962                2.83867280               58.62991394                0.00010000               -1.80938618               18.69851514              -13.59479200               -6.64158225                6.58946696              -20.38914479
               8.51410871                9.06728457               60.40990918                1.00000000               -0.07710676               -0.23529113                0.99422782               -0.04278249                0.02104938                0.86215111
               9.51333764                8.68134107               60.06763692                0.00010000                0.17691330                0.06751973               -0.46708174                0.03112303                0.38894951               -0.63177868
              10.51764697                8.29505283               59.73269869                0.00010000                1.27328891                0.24070082               -1.97967395               -2.39744571                9.99454387               -2.43133199
              11.53880342                7.85733427               59.58185668                0.00010000                2.67188123               -0.76885763               -2.97039018               -5.19387960               19.99617648               -1.04471065
              12.57108460                7.39108885               59.44751872                0.00010000                3.78598621               -1.79802200               -4.04019007               -7.41618115               21.88635688                0.15644249
              13.61452314                6.88904468               59.33348561                0.00010000                4.77167119               -2.56930044               -5.22581407              -10.75738501               23.95223964                0.47805888
              14.66651802                6.34444427               59.23733738                0.00010000                5.30964575               -2.46656903               -6.66563371              -15.03682786               25.58412786               -0.13532062
              15.72071606                5.75677185               59.14947408                0.00010000                5.09151464               -0.51101521               -8.61459664              -18.99128102               25.92837904               -2.03869271
              16.76834831                5.14038052               59.04784886                0.00010000                4.05328627                4.18953715              -11.71451808              -20.04601702               23.06454907               -4.43393414
              17.80178178                4.53683774               58.88561107                0.00010000                2.47191394               11.52206332              -15.92147526              -13.48819935               13.82745199               -6.48466841
              18.81778659                4.02141450               58.59441492                0.00010000                1.60048107               17.38549031              -18.63031908               -5.74084423                7.23495496               -7.88286278
               8.89812207               10.06531085               60.30470621                0.00010000                0.01424259               -0.16472219                0.71582789               -0.04967089                0.00885758                0.92299070
               9.89826450                9.68250418               59.95467457                0.00010000                0.29866432                0.17536880               -0.79035782               -0.06527626                0.23490419               -0.67076771
              10.90409536                9.29755528               59.60916427                0.00010000                1.95714836                0.33952053               -2.47038884               -3.07073494               11.47811085               -2.77194350
              11.93740746                8.85190943               59.48326717                0.00010000                3.77907840               -0.27413327               -3.78890719               -6.17006053               23.28329703               -2.24576520
              12.97967692                8.37729664               59.37593519                0.00010000                4.52052999               -0.98011032               -4.93001622               -8.05325203               25.03949116               -1.32162372
              14.02781806                7.87026244               59.28729818                0.00010000                4.93292365               -1.23717315               -6.12195741              -10.76426435               26.69120149               -0.73166352
              15.07833540                7.32926872               59.21577781                0.00010000                4.95696784               -0.67385431               -7.69398050              -13.98828326               27.80796400               -0.55759842
              16.12695742                6.76108001               59.15083746                0.00010000                4.44942994                1.10854171               -9.94483304              -16.16065287               28.22403935                0.20268709
              17.16732400                6.18792325               59.08420102                0.00010000                4.14190486                4.92275729              -13.65727706              -15.28883895               26.44713682                0.48143754
              18.20979552                5.64518189               58.96879638                0.00010000                4.56026074               10.95402521              -22.09759640               -9.68618261               17.55179161                6.78846084
              19.25852921                5.18638261               58.70075730                0.00010000                4.87336941               15.20027116              -25.75973028               -4.10247015               10.78900154                5.80672835
               9.27872862               11.06399013               60.19973681                0.00010000                0.10590546               -0.10498769                0.43954736               -0.05723597               -0.00357336                0.94948924
              10.27978768               10.68484844               59.84141743                0.00010000                0.40492005                0.30406069               -1.13161711               -0.15876860               -0.01786786               -0.73517138
              11.28682702               10.30184324               59.48283656                0.00010000                2.79365852                0.64726544               -3.19579962               -3.57662820               12.69799289               -3.02414631
              12.33566085                9.85185160               59.37860033                0.00010000                5.24197599                0.08026981               -5.06541783               -6.48442882               26.38060433               -2.69816862
              13.39166654                9.37148664               59.29646658                0.00010000                5.58024605               -0.42520224               -6.08344906               -7.34379616               28.33467537               -1.87251480
              14.44726577                8.86430121               59.23558540                0.00010000                5.21341197               -0.12708650               -7.08448777               -9.01863136               30.00140729               -1.16785973
              15.49593478                8.33096718               59.19705455                0.00010000                4.57913528                0.85975962               -8.67875292              -11.28866785               32.07369935               -0.49672378
              16.53884848                7.77894268               59.19210156                0.00010000                4.12674362                2.46147147              -11.38375443              -12.37413153               32.36641869                1.92421597
              17.57846966                7.23883567               59.16965020                0.00010000                3.53751470                4.67177494              -14.70996722               -9.33717727               34.76124347               14.26020946
              18.60959877                6.75591824               59.21107770                0.00010000                3.74330480                8.82768018              -23.01031977               -3.97752578               24.30710586               12.45751848
              19.65333575                6.32541993               58.95527341                0.00010000                4.37369830                9.21586401              -22.65136154               -2.75944800               12.58094551               10.14669389
               9.65526072               12.06321109               60.09463981                0.00010000                0.19752974               -0.05175105                0.17553885               -0.05564569                0.00735635                0.85788245
              10.65723601               11.68858539               59.72779018                1.00000000                0.51494597                0.44139716               -1.49257352               -0.13537010               -0.17889931               -0.71078496
              11.66555963               11.31050059               59.35726543                0.00010000                4.04197353                1.02897070               -4.13859082               -4.07114168               13.99951725               -2.20815517
              12.73807548               10.85351483               59.27496843                0.00010000                7.73958766               -0.67966865               -6.67763582               -5.15175940               29.48107359               -1.88846629
              13.82035139               10.36879260               59.21523120                0.00010000                7.49447029               -0.26969199               -7.45732075               -4.75994013               31.82708845               -1.33579708
              14.88796489                9.86772071               59.18129621                0.00010000                5.87845912                0.52764497               -7.96299410               -5.22424904               33.79645610               -0.87310259
              15.93792057                9.34646392               59.17827446                0.00010000                4.18207083                1.86084781               -9.50166430               -6.53989342               36.68298841               -0.37730554
              16.97160631                8.81030944               59.23129967                0.00010000                3.28421589                3.78488600              -12.30394430               -7.09502577               47.51134228                1.98108815
              18.00360489                8.28135875               59.48895816                0.00010000                3.60272168                4.00845890              -17.59138072               -4.54524616               38.39944852               16.25099848
              19.04366074                7.82173549               59.38336160                1.00000000                3.03659969                4.06602522               -7.92140857               -1.15714227               11.87095785                5.89921477
              20.06433688                7.37069989               59.07572885                1.00000000                2.06761426                3.17366223               -8.69788221               -2.23382183                3.79920264                3.49135396
              10.02686711               13.06295511               59.98752227                1.00000000                0.29236685               -0.02559897               -0.09000621                0.23276768                0.38134371                0.76059633
              11.02979078               12.69367639               59.61545697                1.00000000                0.68038250                0.50909922               -1.83007677                0.22885389                0.58668278               -0.65494479
              12.04047476               12.32242265               59.24758002                0.00010000                7.22714391                1.19220582               -4.37009557               -5.27939539               15.84792853               -1.34752980
              13.17433366               11.83825823               59.18108310                0.00010000               12.08935482               -1.52565979               -8.04467978               -4.19067518               32.30631750               -0.55363559
              14.28226186               11.36609280               59.13933746                0.00010000                9.53879053               -0.26997966               -8.45889301               -1.97915885               35.42742951               -0.42704994
              15.36510947               10.87485411               59.12803635                0.00010000                7.01431641                0.71334020               -8.62836130               -2.18097506               37.69068266               -0.14240666
              16.42254819               10.36818414               59.15067317                0.00010000                4.84718314                2.17202239              -10.00834431               -2.54792403               41.54542038                0.31813373
              17.46205313                9.85464040               59.25296564                0.00010000                2.67952481                4.43309615              -13.35497434               -3.41428231               53.97294737                3.36603815
              18.47613868                9.31900484               59.58216469                1.00000000                1.75308262                3.76460986              -14.20478857               -3.61670339               39.16059133                8.92748204
              19.49711478                8.83723875               59.41926403                1.00000000                1.72959224                1.55032558               -4.85892620               -1.16017926                8.84950084                0.61254297
              20.51073053                8.38889317               59.10956919                1.00000000                1.36157431                1.81932854               -6.56267916               -0.19519315                2.79964580                0.88656168
               6.45150497                3.21406334               62.06512448                1.00000000               -0.61730180               -0.78031082                2.70215454               -0.25170058               -0.58621428                0.66316911
               7.44533195                2.80016903               61.74005279                1.00000000               -0.43228405               -0.36619186                1.37444801               -0.19458933               -0.73491737                0.10322500
               8.44285929                2.38556713               61.41153729                1.00000000               -0.06476687                0.03448223                0.05907296               -0.19499106               -0.69346157               -0.11484158
               9.44403661                1.96940528               61.08702851                1.00000000                0.19489936                0.48019451               -1.28822556               -0.33102559                0.01284824               -0.59600942
              10.44675728                1.54937538               60.77258864                1.00000000                0.51655259                1.00847897               -2.82363766               -0.33968169                0.81223451               -0.11478925
              11.45436767                1.12662324               60.46389463                1.00000000                0.93680494                1.45088551               -4.34153269               -0.39569784                1.14315351               -0.45710580
              12.46549337                0.69918873               60.15634346                1.00000000              -15.33627813                1.91309528               -5.70293208              -23.58021805                9.66002534               -0.74947434
              13.14764210               -0.19552778               60.01849340                0.00010000              -22.98385757                7.66687162               -1.41413804              -25.25731690                9.58381923               -1.92030426
              14.00581622               -1.15602657               59.83192105                0.00010000                0.03669649                5.28533748               -6.21873898              -23.74037191                3.77588882               12.15099670
              15.14837603               -2.08250485               59.45635138                1.00000000                9.23957248                4.90262909              -12.98682992              -23.03345347               -2.44097812                1.57853587
              16.19060767               -2.58167973               59.11424421                1.00000000                4.22316394                5.86461789              -15.87710152                0.70051168               -2.01680809               -0.59060046
               6.86288228                4.20626024               61.95636564                1.00000000               -0.52481128               -0.73458679                2.41369528               -0.04173974               -0.04283298                0.91599115
               7.85763416                3.79650711               61.63117538                1.00000000               -0.32955140               -0.32725462                1.08438586                0.00967431               -0.02508559                0.16289143
               8.85629125                3.38591195               61.30594028                1.00000000                0.05940338                0.07313386               -0.22909372                0.01873787                0.04510123               -0.26106409
               9.85882223                2.97420723               60.98197962                1.00000000                0.42301162                0.51225844               -1.57374134               -0.07444673                1.08150789               -0.72940228
              10.86475148                2.55946017               60.67756798                1.00000000                0.83408891                0.99577597               -3.17532585               -0.09591739                1.94074033               -0.21005019
              11.87550401                2.14113209               60.37080081                1.00000000                1.30076110                1.45902240               -4.72842260               -0.18785926                1.87863058               -0.61889384
              12.89076670                1.71831969               60.06564275                1.00000000               -2.64137127                1.80677090               -6.12028318              -20.76322702               14.99295317               -0.92518874
              13.82267659                0.88114093               60.02241671                0.00010000               -8.94328336                2.71181707               -4.51307579              -33.83678234               22.78602016                1.75214167
              14.71190104               -0.10317319               59.92884373                0.00010000               -9.59042539                6.28259580               -7.28843096              -34.39393606                4.60969739               11.47120489
              15.63086808               -1.03347856               59.44607750                1.00000000               -0.75566840                4.55978508              -20.07342715              -20.59655419               -5.14562597               41.36980816
              16.69678767               -1.52303355               59.10370689                1.00000000                6.59195911                4.61711103              -22.96072015               -0.39457276               -0.19246425               36.62354396
               7.27017642                5.19937161               61.85208178                1.00000000               -0.43027032               -0.63637745                2.11527767               -0.04873835                0.15936284                1.09356559
               8.26587372                4.79362394               61.52323048                1.00000000               -0.23212488               -0.24569745                0.78536032               -0.00173495                0.32927029                0.09175429
               9.26553393                4.38702981               61.19747039                1.00000000                0.15628702                0.16406321               -0.52885172                0.00950836                0.63604171               -0.57218404
              10.26899946                3.97965045               60.87464825                1.00000000                0.61900692                0.59140042               -1.79743142               -0.10774839                2.25759210               -0.91946992
              11.27791406                3.56929090               60.58148559                1.00000000                1.13757517               -0.75702658               -3.51736997               -1.16592580                3.10009627                2.79989385
              12.29175096                3.15580369               60.27546208                1.00000000                1.61529642               -2.12397276               -5.04127012               -1.60978647                2.61964188                6.48488346
              13.31021999                2.73532415               59.97329941                1.00000000                0.03241862               -7.36638593               -6.36763230              -23.04969116               22.82932409               13.58715640
              14.29239934                1.85870856               60.07145179                0.00010000               -3.88314999               -1.60875917               -5.85260009              -41.43135414               38.76146131                6.06612952
              15.23255699                0.96962535               60.04904891                0.00010000               -6.80470164                5.96108862               -7.32988127              -42.20307240               45.83846113                9.78809950
              16.15630530                0.00869085               60.26148187                1.00000000               -3.53653963                3.16283179               -2.01542922              -22.65772660               29.37667788               42.21422305
              17.16182620               -0.48933751               59.87196592                1.00000000                0.55208965                2.89760272               -3.44261694               -1.02209076               -1.10623611               37.32362095
               7.67340285                6.19353269               61.74627693                1.00000000               -0.34615858               -0.52465708                1.81264790               -0.05547488                0.27875578                0.91481208
               8.66994127                5.79159316               61.41271089                1.00000000               -0.14739763               -0.16250021                0.47973579                0.00838764                0.61857204               -0.33394683
               9.67045490                5.38919322               61.08575978                1.00000000                0.22324524                0.26572605               -0.85232093                0.02566322                1.31705858               -1.16093899
              10.67440617                4.98603524               60.76619156                0.00010000               -0.25875831               -0.28783101               -2.06035907               -2.19682095                6.70671396                1.74100842
              11.66527973                4.54431964               60.54763731                0.00010000                0.14344291               -2.52718050               -2.92662442               -4.20095662               11.71705614                5.50287510
              12.67727503                4.09865264               60.32572255                0.00010000                3.07941369               -6.19144823               -4.12218770               -7.59520451               15.48443153               11.37666260
              13.72686801                3.57099197               60.17580929                0.00010000                4.12366387              -13.07438501               -4.88455205              -19.72994152               24.09533134               17.70748630
              14.75974831                2.84896575               60.10406589                0.00010000               -0.45053565               -2.37296313               -5.78104664              -31.62131567               33.56579956                4.77639096
              15.71785729                2.01604858               60.12655395                0.00010000               -6.15359537                4.11508391               -6.04280099              -40.57002766               45.14149408               -0.17081111
              16.63667640                1.02977808               60.26711962                1.00000000               -2.27273600                7.05453642              -10.68447734              -21.36496356               28.17308307              -12.20527793
              17.67240257                0.53491851               59.87610575                1.00000000                3.57261747                2.41225735              -12.03230777                2.49381888                1.52545624              -13.00273913
               8.07294598                7.18887847               61.63775685                1.00000000               -0.25650320               -0.40352947                1.52040860               -0.03962309                0.10228195                0.76557269
               9.07038094                6.79037393               61.29612399                1.00000000               -0.06704310               -0.09766031                0.15256211                0.07480856                0.66493748               -0.65853101
              10.07160511                6.39234433               60.96561132                0.00010000               -0.02221621                0.26399461               -1.16484336               -0.80711875                5.07297598               -1.88098970
              11.06993662                5.97389383               60.71223053                0.00010000                0.48362096               -1.58264795               -0.88895408               -3.38168959               11.66884754                3.02459808
              12.08127753                5.51874729               60.51582250                0.00010000                2.16189629               -2.87924544               -2.96113253               -5.14028763               16.17820676                4.52498571
              13.11317454                5.03197472               60.34483919                0.00010000                4.20152585               -6.04967057               -4.02670095               -8.85317006               19.77547764                6.79432242
              14.16530805                4.47383645               60.21039198                0.00010000                5.08709338               -8.00894452               -5.07371376              -17.31724738               24.49266080                6.01103813
              15.21491641                3.81124930               60.12030584                0.00010000                3.75180311               -3.74357614               -6.12170840              -25.90402188               28.85372658                1.43017442
              16.24034411                3.05192703               60.06087509                0.00010000               -0.23901537                2.62345137               -7.43032494              -33.00454935               30.26241321               -8.09523610
              17.21013611                2.14978158               59.99826385                1.00000000               -1.94611938               14.76771008               -7.36292746              -19.76497418               16.59826097              -29.56563076
              18.20142172                1.55890764               59.64991584                1.00000000               -0.87143812               10.11115014              -11.75382041               -7.38747900                5.50655656              -22.65099493
               8.46961946                8.18546210               61.52829004                1.00000000               -0.16478818               -0.29285240                1.24701513               -0.03383734                0.04352038                0.80459636
               9.46797158                7.78963996               61.17923221                0.00010000                0.05865830               -0.04321688               -0.14531100                0.08913928                0.53744024               -0.66414774
              10.47079262                7.39447311               60.83998380                0.00010000                0.61989208                0.13658859               -1.56578043               -1.95285798                8.32129576               -2.35310821
              11.48036942                6.95438228               60.64616739                0.00010000                1.68002347               -1.60187926               -2.30425383               -4.43236592               16.62240822                1.00196318
              12.50439309                6.48673473               60.47150590                0.00010000                3.23765249               -2.94605042               -3.27388062               -6.79305913               19.11192047                2.32728186
              13.54512247                5.97765923               60.32396773                0.00010000                4.84276959               -4.66005991               -4.49501654              -11.08242162               22.07066773                3.00314726
              14.60124848                5.41081308               60.20017590                0.00010000                5.92274141               -5.21986550               -5.76047807              -17.29129367               24.61139909                2.04789676
              15.66357730                4.77409423               60.09284611                0.00010000                5.89927688               -3.03652027               -7.27914895              -23.65803529               25.67808781               -1.45747076
              16.71923402                4.06851761               59.97900527                0.00010000                3.54095030                2.19637257               -8.93431726              -27.47205007               23.35162312               -8.29785341
              17.73439630                3.32513228               59.80800349                0.00010000               -0.64165722               15.30733342              -10.54978927              -18.37714930               13.75008283              -20.69528369
              18.70640088                2.73714151               59.49140530                0.00010000               -2.79954235               18.11954036              -13.52855563               -9.48347223                6.38307154              -19.82079787
               8.86391351                9.18302142               61.41980596                1.00000000               -0.07607940               -0.20772617                0.97603498               -0.04225330                0.01652167                0.91307073
               9.86315272                8.78950959               61.06301852                0.00010000                0.19460590                0.03391580               -0.44809525                0.00080322                0.33956896               -0.66024466
              10.86780563                8.39507610               60.71268172                0.00010000                1.29374809                0.05959246               -2.00833214               -2.81849730               10.18905650               -2.69332666
              11.88902768                7.94185625               60.55231137                0.00010000                2.71668868               -1.08546706               -2.96896933               -6.05075913               20.48842539               -1.29096501
              12.92213940                7.45982628               60.40727703                0.00010000                3.92100431               -2.20139591               -4.03379521               -8.55750402               22.32281091                0.12781647
              13.96744777                6.93877352               60.28115676                0.00010000                5.04538858               -3.07208470               -5.25547812              -12.58927462               24.25587265                0.76044944
              15.02304717                6.36943914               60.17012807                0.00010000                5.83017066               -3.09948727               -6.74581033              -17.75871705               25.53322018                0.30675755
              16.08405118                5.75051889               60.06165149                0.00010000                5.84089416               -1.38343885               -8.73963888              -22.56544086               25.14217230               -1.59050350
              17.13986506                5.09585448               59.92960416                0.00010000                4.49590190                3.31197720              -11.52412843              -23.87420306               21.38238714               -5.03919481
              18.17396922                4.45592825               59.73028911                0.00010000                2.39343825               11.43581119              -14.85193641              -16.04783740               12.22939836               -9.31806002
              19.18773382                3.92129845               59.41462714                0.00010000                1.37646066               16.24712525              -17.24421420               -6.96475613                5.96747705              -10.86660535
               9.25579804               10.18130757               61.31184233                0.00010000                0.01349207               -0.13874597                0.70255813               -0.05014769                0.00470872                0.98191201
              10.25593296                9.79031827               60.94683898                0.00010000                0.31389931                0.13834922               -0.76292672               -0.14363558                0.10373172               -0.72093548
              11.26207602                9.39566496               60.58385577                0.00010000                1.93355470                0.16037041               -2.55012629               -3.63337359               11.42515059               -3.23123729
              12.29460405                8.93267294               60.44518795                0.00010000                3.71248568               -0.62885135               -3.77786656               -7.06788877               23.60199075               -2.85139688
              13.33632574                8.44270681               60.32636462                0.00010000                4.45600313               -1.18823177               -5.00495426               -9.16359995               25.51575383               -1.52671683
              14.38372412                7.91621753               60.22563589                0.00010000                4.90015190               -1.44795246               -6.23933492              -12.74059431               27.06459100               -0.47086458
              15.43432878                7.34882333               60.13740208                0.00010000                5.10645137               -1.02015789               -7.92732066              -17.17880887               27.84059354               -0.12475574
              16.48585314                6.74642545               60.04881457                0.00010000                5.10059133                0.53089393              -10.38392449              -20.49340859               27.10362992                0.17082762
              17.53634060                6.13475715               59.93730322                0.00010000                5.10712201                3.91733559              -14.72144762              -19.99676088               23.30991797                0.28589364
              18.58799558                5.55384850               59.75565061                0.00010000                5.00123796               10.04107836              -20.54998312              -12.98802274               13.70296402                1.51191896
              19.63636536                5.06208401               59.44078856                0.00010000                4.83697785               14.38837850              -24.51355339               -5.13466575                7.19728928                0.05627088
               9.64488916               11.18024650               61.20413236                0.00010000                0.10334602               -0.08075736                0.42893206               -0.06045503               -0.01296358                1.02755017
              10.64592262               10.79227658               60.83015718                0.00010000                0.39471646                0.26898106               -1.09865273               -0.27185143               -0.35082412               -0.82313064
              11.65278349               10.39828351               60.44952020                0.00010000                2.73527139                0.53663333               -3.30267513               -4.28759683               12.02295918               -3.73326901
              12.70062805                9.92927922               60.32500754                0.00010000                5.12696597                0.06304545               -5.43839476               -7.23700046               26.30567655               -4.35782540
              13.75532281                9.43606165               60.23395786                0.00010000                5.29456548               -0.26950654               -6.53001082               -7.99839315               29.04130806               -2.31005044
              14.80651936                8.90981447               60.16376096                0.00010000                4.69701345                0.01559128               -7.29664732              -10.80118000               30.64878630               -0.88864641
              15.84926308                8.34903598               60.10834419                0.00010000                4.08649150                0.99555727               -9.08084465              -14.58243481               32.03702898               -0.06522179
              16.88824919                7.76113677               60.06928796                0.00010000                4.16218542                2.77288956              -12.80599032              -17.79109585               32.12932320                2.07474476
              17.93250679                7.17420119               60.01610133                0.00010000                4.93163544                4.74940631              -16.74752523              -15.72885125               29.52750706               10.60778766
              18.98688190                6.65674982               59.91429100                0.00010000                6.80313510               10.38570438              -29.24063118               -8.49926303               20.21017741               16.03939198
              20.06856949                6.20906602               59.63193025                0.00010000                8.16875914               12.70417041              -33.92727508               -4.83414244               13.59148573               12.60674361
              10.03052878               12.17969243               61.09644815                0.00010000                0.19301449               -0.03570682                0.17253504               -0.05659594               -0.01329761                0.96064986
              11.03245892               11.79569789               60.71285142                1.00000000                0.43963347                0.41649583               -1.46712201               -0.23041999               -0.79376981               -0.82142385
              12.03932145               11.40639762               60.31384302                0.00010000                3.98134921                0.99155153               -4.02359109               -4.50659987               12.43288263               -2.66763151
              13.11208590               10.93393385               60.19970805                0.00010000                7.82505883                0.05541960              -10.17166900               -5.49607705               29.18911881               -3.60394207
              14.19582262               10.43731668               60.13583669                0.00010000                7.13201365                0.26427335               -8.20595410               -4.88871583               33.26626654               -1.61487176
              15.25472618                9.91652936               60.10042399                0.00010000                4.77675808                0.98716820               -8.17346027               -6.39606771               34.82310553               -0.63685625
              16.29135778                9.36873448               60.08037926                0.00010000                2.50699211                2.60179420              -10.14319187               -8.77661921               37.05856198               -0.05230320
              17.30486602                8.80188324               60.09977290                0.00010000                1.73963730                5.23442353              -14.17810016              -11.56822379               44.95982337                1.85551657
              18.32615053                8.22974528               60.24731395                0.00010000                3.91397368                7.61149769              -28.22011349               -8.81367368               45.44696973               14.40805447
              19.38314549                7.76156259               60.27271369                1.00000000                5.44497917                7.30804252              -22.65060825               -3.23356826               23.45229394               13.85749465
              20.43505011                7.31616742               59.95333692                1.00000000                5.19046193                7.56455654              -23.48895564               -4.50472437               11.18004104               10.15653197
              10.41174631               13.17953236               60.98675349                1.00000000                0.28627144               -0.01600636               -0.08193027                0.22916671                0.43101818                0.88194173
              11.41460902               12.80060650               60.59713799                1.00000000                0.63346144                0.49086035               -1.79272481                0.14411909                0.20638768               -0.78180673
              12.42441554               12.41811454               60.20320780                0.00010000                7.25892138                1.17169144               -4.03867024               -5.00153487               13.73727844               -1.59532568
              13.55978745               11.93038761               60.08627252                0.00010000               12.52687224               -0.35462340              -13.33219477               -4.06821663               31.15982029               -0.46505739
              14.67495298               11.44134711               60.04761821                0.00010000                9.36963786                0.40304322               -9.28364801               -2.12845269               37.30693478               -0.80693471
              15.74718021               10.92955784               60.03953192                0.00010000                5.67119139                1.30284801               -9.03054914               -2.76835924               39.13987361               -0.13025390
              16.78837681               10.40107187               60.04737120                0.00010000                2.43468530                3.23373902              -10.93505112               -3.48472719               41.81814832                0.36394707
              17.79587391                9.86582524               60.10462773                0.00010000                0.40885767                6.39419985              -15.47537832               -4.63124683               53.62749744                1.60149256
              18.79655396                9.32643114               60.37392178                0.00010000                1.99572361                9.66858665              -30.24387240               -6.10538522               50.51368420               13.67210223
              19.83578839                8.80291067               60.35519573                1.00000000                3.63556889                4.13480759              -16.30858685               -3.03941044               21.21083168                6.08889026
              20.86926534                8.36035715               60.01752677                1.00000000                3.34769551                4.41897261              -18.04596016               -0.83382912                9.28197697                2.90185800
               6.77747504                3.33084208               63.09165699                1.00000000               -0.59240716               -0.74869293                2.59666197               -0.24359136               -0.56538924                0.65245277
               7.77155096                2.91151084               62.75354311                1.00000000               -0.41343155               -0.35259488                1.32169805               -0.18922520               -0.70547987                0.09921192
               8.76920641                2.49149175               62.41210384                1.00000000               -0.05834346                0.03057971                0.05859676               -0.18820023               -0.67437380               -0.10811023
               9.77038410                2.07001540               62.07436753                1.00000000                0.19694100                0.45770928               -1.23373809               -0.31774309               -0.08145114               -0.57813748
              10.77314523                1.64484425               61.74483467                1.00000000                0.50551465                0.96101622               -2.70753520               -0.33563008                0.61959665               -0.14518510
              11.78049439                1.21683636               61.42113519                1.00000000                0.88861390                1.39313549               -4.17695617               -0.42121150                1.01660120               -0.50010651
              12.79091750                0.78381204               61.10028342                1.00000000              -16.28409308                1.82700421               -5.47103640              -26.30101940               12.11537976               -0.87097307
              13.45481253               -0.17015888               61.00069482                0.00010000              -22.02078824                7.96451142               -2.46198155              -25.29580486               16.89059258                2.48580001
              14.35050174               -1.10549333               60.77253254                0.00010000                2.27941251                3.80879512               -5.48538347              -20.83991622                3.30872496               15.52218481
              15.50040078               -2.02256316               60.34643988                1.00000000                8.92211241                3.19375931               -9.02260989              -21.08548511               -3.27712813                1.08905177
              16.52894399               -2.53809307               59.97917428                1.00000000                2.85432101                3.86109377              -11.10809278                0.33738786               -1.57627186               -0.18790388
               7.19437037                4.32335516               62.98006040                1.00000000               -0.50364876               -0.70233594                2.31816635               -0.04400069               -0.03022714                0.90573740
               8.18933388                3.90798489               62.64181042                1.00000000               -0.31491235               -0.31479363                1.04135728                0.00436994               -0.00233383                0.15543863
               9.18807212                3.49179754               62.30367422                1.00000000                0.05982661                0.06765939               -0.21963473                0.01516813                0.05948407               -0.26364546
              10.19053041                3.07459249               61.96651173                1.00000000                0.41531621                0.48951771               -1.50956178               -0.07332365                0.95072483               -0.68699553
              11.19637845                2.65445441               61.64639207                1.00000000                0.81339831                0.94604629               -3.04240887               -0.09339358                1.69130235               -0.24268740
              12.20679838                2.23076771               61.32433004                1.00000000                1.25132412                1.39410083               -4.53932417               -0.21512337                1.71758753               -0.63635937
              13.22140493                1.80208208               61.00556894                1.00000000               -3.01456102                1.69441167               -5.87817218              -23.26167361               15.89649968               -0.95134451
              14.14650716                0.90948623               60.96855278                0.00010000               -7.65501069                3.26971760               -5.43278790              -33.73551477               26.75457196                5.92733737
              15.06830471               -0.06740538               60.85548172                0.00010000               -7.03306808                5.01008898               -6.81120610              -32.16598304                2.63192410               16.34159643
              16.00584580               -0.99062557               60.27923173                1.00000000               -1.02284683                4.19965693              -13.39119223              -19.27629018               -8.97799897               51.18929136
              17.04784778               -1.49948213               59.91174413                1.00000000                4.20019804                4.18903661              -15.47064459                0.18702134               -0.63093847               48.19003856
               7.60733555                5.31679537               62.87284977                1.00000000               -0.41395795               -0.60144055                2.03108770               -0.05175400                0.16806227                1.08287782
               8.60319597                4.90521497               62.53091961                1.00000000               -0.22166949               -0.23686817                0.75181305               -0.00768117                0.34759094                0.07809522
               9.60290216                4.49284493               62.19223560                1.00000000                0.15323905                0.15717321               -0.51286162                0.00665380                0.68554029               -0.59873550
              10.60626076                4.07980575               61.85698916                1.00000000                0.60999854                0.57543200               -1.72499041               -0.12050007                2.10953381               -0.87270071
              11.61510214                3.66376517               61.54704477                1.00000000                1.11517492               -1.00589255               -3.35648239               -1.07432262                2.80956024                3.21412199
              12.62856425                3.24471837               61.22610728                1.00000000                1.59316876               -2.51171959               -4.81159105               -1.36872327                2.49843833                7.07413824
              13.64696551                2.81770027               60.91082681                0.00010000                1.05127154               -8.35947542               -6.10450288              -24.27187909               23.53122920               14.46788257
              14.64958968                1.89523547               61.01083862                0.00010000               -1.98358173               -1.26333567               -5.95764099              -42.12230269               39.66417172                9.18593327
              15.60729388                0.99470845               60.97659068                0.00010000               -5.13189770                4.95733200               -6.78010973              -40.29409475               49.90408397               15.48373397
              16.54695173                0.06142998               61.24430545                1.00000000               -2.84481629                3.50093208               -1.67143347              -20.33112479               32.96572559               52.99127730
              17.55039755               -0.45431234               60.84763963                1.00000000                0.34458191                3.13342205               -1.98754870               -0.01025738               -0.35557658               50.32127782
               8.01649609                6.31132634               62.76408542                1.00000000               -0.33654002               -0.48700353                1.74153067               -0.05340202                0.28905284                0.91511806
               9.01313069                5.90324753               62.41740697                1.00000000               -0.14408400               -0.16278321                0.45961380                0.01765506                0.62664869               -0.35986814
              10.01361441                5.49494101               62.07727561                1.00000000                0.20347418                0.24721733               -0.83764028                0.05271674                1.38967699               -1.19498619
              11.01720017                5.08610113               61.74594365                0.00010000               -0.18175171               -0.70957899               -1.97976836               -2.41552622                6.99828950                2.44442522
              12.00997938                4.63433656               61.51884699                0.00010000                0.41443236               -2.93051125               -2.86715013               -4.30807220               12.09252604                6.20384308
              13.02548882                4.18053332               61.28508720                0.00010000                3.77354374               -6.97457135               -4.02975138               -7.84972746               15.90008908               12.43270304
              14.08545025                3.63489257               61.12711800                0.00010000                5.07820511              -14.44752694               -4.84269687              -20.69408869               24.46448083               19.45852047
              15.12705292                2.88421952               61.04611265                0.00010000                0.53890301               -2.60586657               -5.70437147              -33.41381725               34.19762285                7.33598996
              16.09622831                2.03174126               61.06579860                0.00010000               -3.94044143                3.41245176               -5.85722691              -40.12268058               44.17708841                4.85070661
              17.04824409                1.07939308               61.15997166                1.00000000               -0.85505206                3.35913299               -9.58981420              -21.25992002               25.81249747               -7.76518810
              18.07912727                0.56318631               60.76169000                1.00000000                3.08831754                1.67185429               -9.88883229                1.12493307                0.42126126               -8.34989784
               8.42242515                7.30705530               62.65271580                1.00000000               -0.24907383               -0.36334286                1.46257427               -0.03056441                0.09383393                0.78825325
               9.41993441                6.90195930               62.29763101                0.00010000               -0.06611289               -0.11356115                0.15114334                0.10343184                0.67903794               -0.68094848
              10.42110289                6.49778928               61.95409110                0.00010000               -0.06898661                0.18338490               -1.13234832               -1.12156666                5.87072725               -1.96999690
              11.41855468                6.06561417               61.70295801                0.00010000                0.67028059               -1.94280641               -1.26599282               -3.57936846               12.30388672                3.42809067
              12.43450850                5.60515495               61.48620946                0.00010000                2.62295077               -3.29941869               -2.96106620               -5.31087905               16.10884514                4.98020049
              13.47101370                5.10522695               61.30479087                0.00010000                4.74445165               -6.75697503               -4.02191498               -9.64147474               20.09717848                7.55507065
              14.52939754                4.52874973               61.15984322                0.00010000                5.67254749               -8.75353087               -5.03786202              -18.87051645               24.70822851                7.12367225
              15.58446465                3.84311814               61.05960665                0.00010000                4.01345848               -4.17071363               -5.92457002              -27.76967492               28.92714485                3.38080696
              16.60966671                3.06295749               60.98941126                0.00010000                0.29218210                1.88525504               -6.69863268              -35.52742477               30.44670377               -5.43850292
              17.59030829                2.12861264               60.91807896                1.00000000               -0.21784792                9.47083082               -7.30209166              -20.44408602               16.18666635              -18.99732784
              18.60530975                1.57912475               60.53714864                1.00000000                1.50014614                5.71796153               -9.28680366               -3.73728183                1.74973860              -13.51517205
               8.82607679                8.30405949               62.54058072                1.00000000               -0.16114490               -0.25307987                1.20039346               -0.02887476                0.03714489                0.84511938
               9.82446534                7.90097630               62.17784412                0.00010000                0.07257070               -0.07149494               -0.12709959                0.09340345                0.50318994               -0.67473555
              10.82752820                7.49860871               61.82435865                0.00010000                0.68908977               -0.02374829               -1.54758113               -2.13494701                8.59435324               -2.54583011
              11.83824714                7.04724500               61.62295531                0.00010000                1.83104096               -1.65598859               -2.33612691               -4.74192937               17.16882565                0.62499964
              12.86414902                6.56834819               61.43874481                0.00010000                3.54087043               -3.31842489               -3.33270104               -7.38321343               19.46792470                2.71657168
              13.90906454                6.04539382               61.27900104                0.00010000                5.29998531               -5.13207208               -4.53774479              -12.13751897               22.24475147                3.67199272
              14.97014873                5.45982195               61.14270422                0.00010000                6.41935611               -5.76982483               -5.73285888              -18.86492062               24.58523153                3.08733897
              16.03745167                4.80080525               61.02092502                0.00010000                6.50182925               -3.70624108               -7.00154466              -25.53784077               25.33511518               -0.06612704
              17.10018531                4.06944636               60.89148190                0.00010000                4.28717240                0.91705978               -8.24131156              -30.71519115               22.77419273               -6.12428753
              18.12319511                3.26880969               60.70969579                0.00010000                0.15860527               13.71083877               -8.49755561              -21.04311765               12.46182093              -19.21980340
              19.10335742                2.67754554               60.35934283                0.00010000               -1.98376953               13.77871968              -11.33574298              -10.96889999                5.50677074              -15.53236439
               9.22801402                9.30199370               62.42942988                1.00000000               -0.07607614               -0.17183995                0.93691958               -0.03912191                0.01294338                0.95994788
              10.22725326                8.90052940               62.05867502                0.00010000                0.20606137               -0.00147477               -0.41095951               -0.04095194                0.24275123               -0.67763776
              11.23213525                8.49731432               61.69253205                0.00010000                1.33616755               -0.12583233               -1.98134658               -3.06569035               10.28041789               -2.95195924
              12.25397661                8.03249440               61.52247729                0.00010000                2.82800852               -1.25298399               -2.93860835               -6.49182853               20.88340794               -1.26527800
              13.28869542                7.53878645               61.36684282                0.00010000                4.14064686               -2.41333580               -4.11461417               -9.22569303               22.63760677                0.39278003
              14.33678955                7.00258550               61.22837605                0.00010000                5.39961381               -3.35764338               -5.35892677              -13.82126713               24.42909189                1.45060320
              15.39668770                6.41335323               61.10242118                0.00010000                6.36469334               -3.56322304               -6.79512996              -19.58861644               25.42174149                1.33087409
              16.46408342                5.76899332               60.97468130                0.00010000                6.53353702               -2.19725783               -8.52842618              -25.01886664               24.45552769               -0.35099367
              17.52735844                5.08129868               60.81736629                0.00010000                4.86316720                1.88487924              -10.54314255              -26.98314500               20.17624901               -4.45036263
              18.56134676                4.40282942               60.58857234                0.00010000                2.05508099               11.13043418              -13.16243104              -18.47126026               10.99680652              -10.32378831
              19.56846006                3.85469914               60.24953063                0.00010000                0.71132969               14.63296916              -15.52473424               -8.37094387                4.88548801              -11.59044744
               9.62822294               10.30062269               62.31875737                0.00010000                0.01027425               -0.10291952                0.66718168               -0.04730364                0.00245012                1.03416355
              10.62832568                9.90094681               61.93941604                0.00010000                0.30132273                0.09219953               -0.70469279               -0.22002635               -0.09822849               -0.75460589
              11.63424940                9.49609206               61.55816175                0.00010000                1.93063724               -0.00618526               -2.45802430               -3.92304396               11.27733530               -3.55801934
              12.66693843                9.02218532               61.40770984                0.00010000                3.76473318               -1.11597055               -4.01982217               -7.63252453               23.72097218               -3.29975214
              13.70954406                8.52008147               61.27583611                0.00010000                4.55669953               -1.14864456               -5.18707967               -9.94502563               25.75880726               -1.45781496
              14.75807242                7.97824095               61.16251149                0.00010000                5.12122638               -1.54226620               -6.46136585              -14.12291807               27.31112401                0.28589798
              15.81196859                7.38855749               61.05723139                0.00010000                5.55282323               -1.33338302               -8.12087052              -19.34600993               27.78927569                0.93572288
              16.86912888                6.75686009               60.94315897                0.00010000                5.73588641                0.02429651              -10.55910635              -23.59095778               26.13036883                0.84885992
              17.92668632                6.10714395               60.78977207                0.00010000                5.56202840                2.98410004              -14.19401238              -23.43916948               20.82964989                0.22033446
              18.98036945                5.49141838               60.55779672                0.00010000                5.27563881                7.84067939              -18.57600061              -15.01561961               11.24526264               -2.38061565
              20.03219909                4.97020492               60.21048623                0.00010000                5.18296398               10.51536486              -21.68010675               -6.04999996                5.76339012               -5.73449520
              10.02641971               11.29993531               62.20831545                0.00010000                0.09636521               -0.04098601                0.39230140               -0.05792695               -0.02007508                1.09832067
              11.02738336               10.90237339               61.81944437                0.00010000                0.30080716                0.21146503               -1.01461754               -0.35523171               -0.71991588               -0.89510731
              12.03243585               10.49719061               61.41678306                0.00010000                2.49766743                0.36841463               -2.88440995               -4.95435725               11.16810303               -3.94322968
              13.07733671               10.01017499               61.26983243                0.00010000                5.06517138               -0.10071624               -5.46561809               -7.42256454               26.09459112               -7.14745628
              14.13373928                9.51581356               61.16586637                0.00010000                5.42592276                0.13766718               -7.29479224               -8.15090478               29.44434183               -2.08545750
              15.18585517                8.97174018               61.08965245                0.00010000                4.87045393                0.04858386               -7.57782709              -12.36579874               31.20467042                0.01454495
              16.23114836                8.38668557               61.01543766                0.00010000                4.39113176                0.89166761               -9.58920512              -16.72433085               31.81916265                0.94074349
              17.27367780                7.76947925               60.93598176                0.00010000                4.64342006                2.76099602              -13.43664909              -20.54828472               31.31105526                2.62141238
              18.32401676                7.14098068               60.83469969                0.00010000                6.21477973                5.22777148              -19.09924695              -19.84595330               25.59924481                5.63789979
              19.39797340                6.55964300               60.62626507                0.00010000                8.29351033                8.32811405              -27.46467553              -12.48300255               14.29336269               11.48721470
              20.48988697                6.06500644               60.27672790                0.00010000                9.19135714               10.90145422              -32.97963733               -4.73904946                7.94830979                7.50614149
              10.42218823               12.29980297               62.09809051                0.00010000                0.17775163                0.00239785                0.13190264               -0.04774835               -0.05077091                1.05918868
              11.42396575               11.90517611               61.69844774                1.00000000                0.25862109                0.35468527               -1.35821792               -0.31308820               -1.17528754               -0.91260098
              12.42736065               11.50346035               61.27679361                0.80113836                3.79492203                0.72979774               -2.93895178               -4.56775809                8.28545104               -2.59062681
              13.49986419               11.02017100               61.07153505                0.00010000                7.88000613                2.28265736              -17.02186160               -5.24212965               25.25456622               -6.31099262
              14.58496078               10.52283481               61.05111212                0.00010000                7.00101219                0.52887534               -8.10110951               -4.97782487               35.41197136               -1.14264886
              15.63988443                9.97921263               61.01782700                0.00010000                4.73910641                1.11465036               -8.73389638               -7.70725942               35.50474520                0.06616484
              16.67974290                9.40639084               60.97541062                0.00010000                3.19918237                2.73968128              -10.96430644              -10.22328177               37.04015515                0.66415569
              17.70386808                8.81208001               60.94773767                0.00010000                2.99302951                5.37406783              -16.22274163              -13.01583854               39.71564380                2.49852275
              18.73960349                8.21169938               60.92455589                0.00010000                5.14077842                9.91252718              -29.97265366              -12.11358759               42.52290428                6.48282518
              19.80668365                7.65798066               60.93034944                1.00000000                9.35438702               11.72047375              -41.56995405               -7.18561697               29.26115776               15.46693621
              20.92669123                7.18823401               60.60594973                1.00000000               12.00075866               12.67721023              -45.74073352               -2.88361452               18.33763817               10.46887321
              10.81471846               13.29998326               61.98588366                1.00000000                0.27457515                0.01802967               -0.13824538                0.20140667                0.47280556                1.00566684
              11.81746421               12.90946710               61.57960248                1.00000000                0.56836689                0.42909902               -1.62647324               -0.05998819                0.14196968               -0.89696404
              12.82608580               12.51178656               61.16680662                0.00010000                6.78277216                0.83262126               -3.04015095               -2.80943314                7.71428267               -1.46165048
              13.95311966               12.05582814               60.91443921                0.00010000               12.45276775                3.56571387              -18.02025245               -3.94422785               24.82546520               -3.50764548
              15.07514116               11.52639107               60.95366450                0.00010000                9.75171455                0.35562535               -9.48701153               -4.07170945               40.39210483               -0.93311362
              16.14815395               10.99403319               60.94742536                0.00010000                5.93370937                1.48205592               -9.73544796               -3.41864165               39.63068886               -0.08336311
              17.19381534               10.44147920               60.93197215                0.00010000                2.99492733                3.50883557              -12.20610639               -4.44638519               42.19017918                0.32408475
              18.20805250                9.87696060               60.94345807                0.00010000                2.10145098                6.48805936              -17.89251165               -4.69395689               46.70247554                1.54971662
              19.23584436                9.33923123               60.97728724                0.00010000                3.48369678               12.75318484              -35.67255121               -4.52131931               53.32759176                4.69578099
              20.27772643                8.79405248               61.09309229                1.00000000                6.79318091               13.60718211              -41.48090212               -3.92975087               36.82203122               14.65128519
              21.37170798                8.31855064               60.74864999                1.00000000                9.39815500               13.03166366              -44.32831357               -3.04850887               21.44887739                8.31755597
               7.11642494                3.45030559               64.11705772                1.00000000               -0.56494440               -0.71233836                2.47636683               -0.23342145               -0.54512725                0.64169231
               8.11077550                3.02561864               63.76648675                1.00000000               -0.39387749               -0.33792559                1.26526247               -0.18225498               -0.67686099                0.09498696
               9.10854739                2.60026417               63.41270922                1.00000000               -0.05493674                0.02431146                0.06640438               -0.18000270               -0.65506996               -0.10180127
              10.10967677                2.17355413               63.06235375                1.00000000                0.19170739                0.42915618               -1.15955378               -0.30115228               -0.16910047               -0.56119786
              11.11238154                1.74335688               62.71843793                1.00000000                0.47870866                0.90394392               -2.55309909               -0.32836827                0.43489810               -0.17351623
              12.11925094                1.31023141               62.38035551                1.00000000                0.79299001                1.32014030               -3.95246097               -0.46513889                0.90589323               -0.53925742
              13.12824134                0.87119822               62.04692273                1.00000000              -15.30230544                1.75511839               -5.17545845              -25.96469494               13.77174453               -0.98568183
              13.81320483               -0.08152771               61.96925377                0.00010000              -20.09978430                7.10715888               -3.75550568              -24.66892992               20.43956152                4.41682508
              14.72624566               -1.01148122               61.72221338                0.00010000                3.14934537                3.10818196               -4.81199713              -19.47749918                3.51836922               17.68271406
              15.87619174               -1.92630751               61.27589918                1.00000000                8.36838983                1.87492149               -5.60094627              -20.06942025               -3.21980817                0.69837083
              16.89361345               -2.45057752               60.89208235                1.00000000                1.74217154                2.28793836               -6.92365067                0.12606490               -1.03948818                0.03624939
               7.53877768                4.44318221               64.00272897                1.00000000               -0.48040169               -0.66507242                2.20906993               -0.04562984               -0.01824175                0.89525607
               8.53397366                4.02223939               63.65200253                1.00000000               -0.29990273               -0.30146749                0.99607024               -0.00053600                0.01948112                0.14756224
               9.53277962                3.60050728               63.30154758                1.00000000                0.05726118                0.05947701               -0.20149350                0.01170474                0.07385168               -0.26767149
              10.53511889                3.17784569               62.95178838                1.00000000                0.39897973                0.46051937               -1.42544577               -0.07033762                0.82905447               -0.64622893
              11.54075922                2.75239632               62.61671980                1.00000000                0.77799985                0.88807639               -2.87458486               -0.09036384                1.45539214               -0.26741754
              12.55067888                2.32343282               62.28001433                1.00000000                1.18573682                1.31489375               -4.29816542               -0.24800854                1.55473435               -0.64185694
              13.56447395                1.88874940               61.94807931                1.00000000               -2.14118152                1.59672657               -5.59228939              -23.30085207               16.58243574               -0.96322967
              14.50785525                0.98954388               61.91376095                0.00010000               -5.53066939                2.31975343               -5.44044754              -33.12173667               28.96413728                8.21332692
              15.45386057                0.01960060               61.79261961                0.00010000               -5.64047841                4.02321796               -5.78101357              -31.30879968                2.35629012               19.80754315
              16.39504568               -0.90755830               61.17825365                1.00000000               -1.73582305                5.70419935               -7.86562086              -18.94598039              -10.61220077               56.98030370
              17.41914411               -1.42769813               60.79429400                1.00000000                2.40984224                5.88598511               -9.18128713                0.70765942               -0.55496091               55.51180071
               7.95739799                5.43700414               63.89270353                1.00000000               -0.39582852               -0.56065933                1.93310935               -0.05332888                0.17502600                1.07196214
               8.95343970                5.01958929               63.53826674                1.00000000               -0.21114025               -0.22774956                0.71740870               -0.01200229                0.36313709                0.06582640
               9.95317518                4.60145371               63.18721316                1.00000000                0.14706346                0.14653555               -0.48596247                0.00536802                0.73360201               -0.63133907
              10.95638097                4.18276452               62.84014844                1.00000000                0.59059788                0.55545976               -1.63440869               -0.13268018                1.97912569               -0.82800032
              11.96498714                3.76111841               62.51435594                1.00000000                1.07783573               -1.15822601               -3.16651839               -0.95038721                2.54462644                3.55346377
              12.97793769                3.33652929               62.17923026                1.00000000                1.55630482               -2.74048545               -4.54415937               -1.08293668                2.37393045                7.57944425
              13.99611324                2.90313275               61.85120935                0.00010000                2.09906075               -8.88017165               -5.79316878              -24.05018525               24.15000445               15.24434564
              15.01991890                1.96486736               61.95229897                0.00010000                0.05293016               -2.13131796               -5.73082412              -41.84923556               40.58687789               11.95532155
              15.99717184                1.06898314               61.91344671                0.00010000               -3.76740199                4.03207626               -5.85465046              -37.17057009               53.11299381               19.94559927
              16.94457086                0.18777647               62.22805320                1.00000000               -2.45627646                5.41295557               -1.68748935              -16.99258395               35.68939072               59.86905392
              17.94804631               -0.33285781               61.83221495                1.00000000                0.34754490                5.30548374               -1.48305595                0.84892233                0.19784429               59.06237382
               8.37254080                6.43196902               63.78110754                1.00000000               -0.32567514               -0.44279553                1.65582850               -0.04875092                0.29732533                0.91338046
               9.36928405                6.01768439               63.42190317                1.00000000               -0.14145203               -0.16357359                0.44032123                0.03078334                0.62454593               -0.37898325
              10.36971176                5.60343799               63.06900698                1.00000000                0.17582648                0.22038202               -0.80781005                0.08939834                1.45772878               -1.23074772
              11.37280058                5.18895489               62.72659619                0.00010000               -0.08625279               -0.86602623               -1.87799185               -2.33455862                7.22921271                2.75929921
              12.36798670                4.72923180               62.49029431                0.00010000                0.71026154               -3.13324666               -2.87094653               -4.18486747               12.31394243                6.85629660
              13.38700581                4.26862311               62.24512752                0.00010000                4.35727376               -7.36834938               -4.00087785               -7.72695786               16.13757274               13.38255789
              14.45513218                3.71114597               62.07895535                0.00010000                5.90071727              -15.12045412               -4.83207903              -20.65809911               24.62349173               21.13840995
              15.50502015                2.94691752               61.98997846                0.00010000                1.62039361               -3.04071490               -5.52668390              -33.34657447               34.64969167               10.02080476
              16.48754005                2.10024212               62.00940941                0.00010000               -2.39925980                2.42452651               -5.34266552              -37.62913333               43.54062175                9.58173625
              17.45703496                1.20070081               62.07532334                1.00000000               -0.50744604                1.61672129               -6.78378576              -19.01346937               23.95505519               -4.25461554
              18.47739113                0.67841154               61.67832910                1.00000000                2.03561716                1.19045918               -6.49438805                0.28261385               -0.24476542               -4.05669587
               8.78499222                7.42814823               63.66700834                1.00000000               -0.24058247               -0.31593111                1.38838875               -0.01830301                0.08629246                0.80420746
               9.78258640                7.01631782               63.29914686                0.00010000               -0.06497812               -0.12915767                0.15518414                0.13432562                0.67943036               -0.69127599
              10.78369266                6.60586135               62.94296435                0.00010000                0.06547974                0.08387837               -1.08781780               -1.15085453                6.26719301               -2.06915553
              11.78389599                6.16544399               62.68691067                0.00010000                0.89644568               -2.07959460               -1.78450794               -3.54243407               12.75315698                3.93160968
              12.80162157                5.69845348               62.45660117                0.00010000                2.87941857               -3.43994980               -3.01935578               -5.32812696               16.12087445                5.41984145
              13.84148436                5.18916230               62.26440089                0.00010000                5.15176353               -7.05546004               -4.10589727               -9.93387649               20.19107280                8.34028346
              14.90465684                4.60072367               62.10963474                0.00010000                6.12034491               -9.05820382               -5.04641198              -19.46061444               24.79453645                8.40453105
              15.96389126                3.90405306               62.00181444                0.00010000                4.30745195               -4.46102423               -5.64902230              -28.33841189               29.10658263                5.63046003
              16.99080588                3.11747367               61.92690243                0.00010000                1.11203990                0.89173512               -5.75175523              -34.27675489               31.02315156               -2.01902263
              17.98613206                2.22011090               61.85222202                0.00010000                0.37356251                3.47710093               -5.10118249              -18.38927305               16.36484726               -9.41336722
              18.99827713                1.69095137               61.46417977                1.00000000                1.21450735                1.78503423               -5.41411268               -0.92339888                0.24934601               -6.80864627
               9.19583556                8.42565040               63.55229791                1.00000000               -0.15781186               -0.20522561                1.13367065               -0.02042098                0.03333256                0.87289446
              10.19425744                8.01510124               63.17669021                0.00010000                0.08664676               -0.09664519               -0.09876311                0.08921731                0.43395018               -0.66851579
              11.19756850                7.60511556               62.80903217                0.00010000                0.75511622               -0.18137650               -1.48787104               -2.09095960                8.75037475               -2.71435480
              12.20935977                7.14736299               62.59944485                0.00010000                2.00686801               -1.68239184               -2.37445224               -4.80968405               17.49773673                0.68534848
              13.23770586                6.66043281               62.40485188                0.00010000                3.83491608               -3.39314450               -3.49025485               -7.62389415               19.59010016                3.14541683
              14.28605809                6.12751391               62.23321283                0.00010000                5.66616363               -5.24435801               -4.67356150              -12.57420148               22.22463581                4.43171509
              15.35102913                5.52998190               62.08551872                0.00010000                6.77219146               -5.95971097               -5.74532274              -19.46484812               24.49223195                4.32800117
              16.42150192                4.85769704               61.95281522                0.00010000                6.74589926               -4.13939924               -6.59520716              -25.87898565               25.17006820                1.79840641
              17.48594711                4.11807683               61.81417904                0.00010000                4.71349399               -0.44583051               -6.99037526              -32.43805411               22.83779231               -3.42987567
              18.51577180                3.27024283               61.63805237                1.00000000                1.56475497                9.06203278               -5.35738043              -21.41778263               11.35095437              -13.45637905
              19.51724221                2.71411223               61.26469044                0.00010000                0.14704165                7.36973628               -6.84473529               -7.35056763                2.77063539               -8.83508477
               9.60568211                9.42404372               63.43854435                0.00010000               -0.07765354               -0.12725616                0.87251940               -0.03117263                0.01158818                0.98829385
              10.60490558                9.01438492               63.05479933                0.00010000                0.19647997               -0.03222223               -0.35509064               -0.07516618                0.10930654               -0.66971235
              11.60961171                8.60223382               62.67305479                0.00010000                1.37397429               -0.24310020               -1.82698393               -3.04141640               10.27475551               -3.03889979
              12.63238506                8.13179616               62.49353920                0.00010000                2.96905324               -1.40201224               -2.95869833               -6.48269311               20.98954970               -1.33268926
              13.66899278                7.63059059               62.32498475                0.00010000                4.40330906               -2.29529218               -4.27494926               -9.42633173               22.59663627                0.74393139
              14.72045125                7.08427514               62.17397823                0.00010000                5.80919866               -3.34274095               -5.58624475              -14.32839597               24.35129118                2.23053463
              15.78517675                6.48152945               62.03422547                0.00010000                6.88826855               -3.77302921               -6.86874100              -20.22861920               25.23407087                2.55723216
              16.85821662                5.82126508               61.89108297                0.00010000                7.21611264               -2.77974204               -8.15403350              -25.92772323               24.13245344                1.24598386
              17.92949900                5.10855706               61.71874131                0.00010000                5.17621952                0.18768069               -9.11248236              -28.37823926               19.41327864               -2.47240566
              18.96174101                4.40135156               61.46704049                0.00010000                1.70139936                9.91503126              -10.09126914              -19.68980433               10.69594221              -11.36969742
              19.96352699                3.83834609               61.10413246                0.00010000                0.17859843               10.30423065              -12.25550934               -9.84995004                5.04059115              -11.54313533
              10.01452971               10.42310527               63.32518596                0.00010000                0.00343054               -0.05819704                0.60152402               -0.03746240                0.00445539                1.06065067
              11.01456402               10.01445680               62.93274512                0.00010000                0.23996080                0.04789064               -0.61278792               -0.23502987               -0.28444646               -0.74530381
              12.01932893                9.60025356               62.53469529                0.00010000                1.83925583               -0.07233854               -2.06746261               -3.94941357               10.70775157               -3.39095441
              13.05134913                9.11932275               62.36479151                0.00010000                3.86856543               -0.46456339               -3.95689386               -7.23375476               23.42094361               -3.51896470
              14.09670024                8.61452696               62.22262303                0.00010000                4.86010864               -0.57570543               -5.68934482              -10.16334071               25.75774689               -1.57992665
              15.14855131                8.06065909               62.09640857                0.00010000                5.63832857               -1.47426432               -6.75576073              -14.97077095               27.25845065                1.11331626
              16.20946681                7.45452131               61.97498467                0.00010000                6.36842686               -1.59289115               -8.35879472              -20.22083073               27.53256641                2.06078854
              17.27591984                6.80210219               61.83763244                0.00010000                6.44145208               -0.61393809              -10.39619051              -24.78496142               25.47136745                1.92396107
              18.33829585                6.12183044               61.65342297                0.00010000                5.81334150                2.18091519              -12.74838482              -25.44246863               19.79431594               -0.34843266
              19.39218667                5.46854346               61.38413060                0.00010000                5.39791420                5.62949168              -16.00505632              -16.63268348               10.17599772               -5.09538834
              20.44625413                4.92019684               61.00718643                0.00010000                5.40674596                6.26896241              -18.71366682               -6.68051034                4.49040139               -8.77891577
              10.42222982               11.42287978               63.21197839                0.00010000                0.08268766                0.01013585                0.32116421               -0.04024592               -0.01927540                1.12818525
              11.42305670               11.01534273               62.80986483                0.00010000                0.17638338                0.14154861               -0.87129033               -0.32033397               -0.83292105               -0.89170381
              12.42575749               10.60078705               62.39183200                0.00010000                2.51899325                0.21539857               -1.97517215               -4.01118044               10.30701377               -3.31814267
              13.47343656               10.12250489               62.21569517                0.00010000                4.93160691                2.18922373               -9.22406991               -9.51004922               24.40988248              -13.26696018
              14.52438963                9.61907648               62.08806202                0.00010000                5.38024585                0.60693030               -7.23856616              -10.33225899               29.43059462               -1.56689720
              15.58104148                9.05478985               62.01220442                0.00010000                5.74637011               -0.02896704               -8.09353186              -13.87167885               31.61129005                0.71534751
              16.63931703                8.44967163               61.91656009                0.00010000                5.70833894                0.54808948              -10.14579266              -17.65100628               31.17361495                1.90423204
              17.69520826                7.80898631               61.80055498                0.00010000                5.74456702                2.11375954              -13.44471504              -21.16912421               29.39100496                2.60371511
              18.75420837                7.15217536               61.63411639                0.00010000                6.77563403                4.74918960              -18.92061323              -21.96719651               22.84624344                2.70440635
              19.83072094                6.51394139               61.36499749                0.00010000                8.62008254                6.77653191              -25.26685339              -14.68309443               11.62030181                1.26916949
              20.92661002                5.96372534               60.97233750                0.00010000                9.58890811                6.67129824              -29.31945383               -4.80419714                5.82638275               -4.15598071
              10.82879889               12.42330799               63.09908620                0.00010000                0.14511767                0.05898092                0.03420941               -0.02527375               -0.09444057                1.07839203
              11.83025007               12.01728777               62.68568706                1.00000000                0.15721349                0.25075095               -1.11839938               -0.26388494               -0.98449824               -0.87260113
              12.83194316               11.60456153               62.25506398                0.00010000                0.63043251                0.40342338               -1.59391694               -1.80367852               -0.19004385               -2.00890868
              13.84285872               11.16310722               61.85927082                0.00010000                6.29134655                2.59607501              -12.75793118               -9.09468251               23.44925560              -11.27904120
              14.95777009               10.62666557               61.97381450                0.00010000                9.88319328               -0.07481991               -8.76541624               -8.88040916               41.35039554               -0.66227236
              16.04052258               10.06007975               61.92574607                0.00010000                7.22400651                0.69520023               -9.50542895               -9.03688042               35.18639807                0.51537571
              17.10225022                9.46548310               61.86109313                0.00010000                5.47555209                2.23794415              -11.98854307              -10.94358510               35.82119936                1.35881770
              18.15003363                8.84437739               61.77531807                0.00010000                4.58733117                4.81962283              -17.05871094              -12.96343966               35.37401064                2.01591457
              19.19399685                8.21681423               61.64786088                0.00010000                6.84705902                8.13543523              -26.15830252              -14.05200423               31.17446095                2.90151358
              20.28697481                7.60407409               61.44131461                1.00000000               12.83027190               12.82546361              -46.52222378               -9.65230523               19.09288421                4.12193503
              21.45060228                7.05362280               61.03852225                1.00000000               16.36274778               13.87912097              -54.16057499               -2.01925501                9.93132624               -2.08255664
              11.23376479               13.42405940               62.98398858                0.00010000                0.27606704                0.07514049               -0.28248431                0.12642510                0.48637752                1.01463000
              12.23652546               13.02035775               62.56460853                1.00000000                0.50498360                0.30699793               -1.28785670               -0.13265475                0.34255490               -0.83450787
              13.24386446               12.60885552               62.14240479                0.00010000                1.64567053                0.42939870               -1.95629271               -1.10443788                0.27860270               -1.10402850
              14.26943887               12.17442639               61.72586747                0.00010000               10.29722296                1.13191639              -10.74807111               -6.90575640               21.98066893               -1.74937198
              15.44980892               11.61758008               61.85787798                0.00010000               14.60237348               -0.90854879              -10.09075034               -6.08274360               44.34273088               -2.02927327
              16.56148634               11.06869386               61.84482296                0.00010000                9.31693832                0.86141119              -10.78018727               -4.06110290               39.24366258               -0.00755679
              17.63614769               10.49443051               61.80324907                0.00010000                6.15609961                2.89474099              -13.71374822               -4.77600784               40.40726560                0.41579451
              18.68460833                9.90537877               61.74677749                0.00010000                3.86619438                6.10013855              -19.68416989               -5.51985142               41.90880045                0.80440951
              19.71347158                9.31488407               61.66047076                0.00010000                5.81289649                9.80698346              -30.54229524               -4.79893256               40.04341933                0.09066544
              20.80086626                8.77045066               61.52557768                1.00000000               13.68279634               16.63765661              -56.55890004               -2.28966955               27.90278471                3.84618489
              21.98712750                8.24130776               61.13096050                1.00000000               18.62612392               18.76849584              -63.75117371                0.73823194               18.35500812               -1.92391475
               7.46771445                3.57233344               65.14118433                1.00000000               -0.53521969               -0.67189691                2.34269999               -0.22104516               -0.52434669                0.62931783
               8.46236225                3.14237901               64.77884836                1.00000000               -0.37382205               -0.32228698                1.20552133               -0.17345810               -0.64772787                0.09048089
               9.46023800                2.71177899               64.41343193                0.00010000               -0.05444367                0.01611834                0.08144505               -0.17031241               -0.63397664               -0.09569625
              10.46127338                2.27992217               64.05117645                1.00000000                0.18017123                0.39510508               -1.06796148               -0.28184898               -0.24472663               -0.54375647
              11.46384143                1.84481019               63.69377269                1.00000000                0.44270387                0.83778582               -2.36604797               -0.31753842                0.26666631               -0.19944452
              12.47012745                1.40673357               63.34208597                1.00000000                0.68063524                1.23222482               -3.68077678               -0.51063727                0.81010725               -0.56956184
              13.47745413                0.96178524               62.99677425                1.00000000              -14.09071744                1.67456283               -4.82906213              -24.69322739               14.65762373               -1.08614947
              14.18831310                0.02916325               62.92558471                0.00010000              -18.16152120                6.15443130               -4.73483533              -23.42818644               21.90976163                4.78469769
              15.11422371               -0.89265150               62.67629260                0.00010000                3.89112721                3.01636562               -4.67061360              -18.45198663                4.46151317               18.64843548
              16.26613565               -1.81330469               62.23442096                1.00000000                8.07820866                1.01311795               -3.28369855              -19.87781944               -2.45996406                0.35470368
              17.27578788               -2.34179138               61.84070126                1.00000000                0.96522351                1.24126607               -4.06676117                0.03932993               -0.55713061                0.02279340
               7.89545842                4.56561447               65.02424179                1.00000000               -0.45535280               -0.62387005                2.08794549               -0.04607156               -0.00681364                0.88194622
               8.89090489                4.13915614               64.66173183                1.00000000               -0.28475585               -0.28740796                0.94910536               -0.00437251                0.04009624                0.13914864
               9.88976330                3.71194018               64.29964435                1.00000000                0.05171992                0.04898829               -0.17528889                0.00857890                0.08792188               -0.27158706
              10.89193929                3.28387322               63.93800281                1.00000000                0.37485229                0.42578831               -1.32298053               -0.06625119                0.71883479               -0.60651217
              11.89726035                2.85318805               63.58890037                1.00000000                0.72971331                0.82248755               -2.67531496               -0.08729967                1.23790588               -0.28500425
              12.90653355                2.41905582               63.23836673                1.00000000                1.10233361                1.22302457               -4.00954523               -0.27975859                1.38986105               -0.63499522
              13.91930702                1.97853087               62.89372316                1.00000000               -1.26419738                1.49629511               -5.24641239              -22.44527491               17.10464449               -0.95427996
              14.88124961                1.09070757               62.85974383                0.00010000               -3.41846023                1.44805697               -5.45318639              -31.51209656               29.96871398                9.05558296
              15.85093781                0.13751216               62.73986145                0.00010000               -4.46611060                3.47410663               -5.16034268              -30.71526291                2.92523239               21.57414944
              16.79192739               -0.80317351               62.12191932                1.00000000               -2.31349713                8.75230299               -4.40711105              -19.55276084              -10.77399588               59.85992028
              17.80466787               -1.32937872               61.72811839                1.00000000                1.27404770                9.23457055               -5.18591001                0.89163178               -0.29251442               59.47515141
               8.31970966                5.55985604               64.91151195                1.00000000               -0.37605734               -0.51626601                1.82307686               -0.05287182                0.18036835                1.05632300
               9.31594909                5.13663086               64.54526778                1.00000000               -0.20085805               -0.21842025                0.68311056               -0.01399982                0.37558005                0.05492000
              10.31569250                4.71275876               64.18251635                1.00000000                0.13756959                0.13173398               -0.44771582                0.00598720                0.77665985               -0.66573575
              11.31870048                4.28843794               63.82430098                1.00000000                0.56101694                0.53258288               -1.52727145               -0.14705065                1.86309538               -0.78188197
              12.32691284                3.86125994               63.48371440                1.00000000                1.02444887               -1.19853915               -2.94908370               -0.83886659                2.30339640                3.77657926
              13.33918946                3.43119406               63.13522410                1.00000000                1.49920233               -2.80209845               -4.23967592               -0.82515597                2.24406410                7.94306420
              14.35689689                2.99171114               62.79496343                0.00010000                2.99502099               -8.96477474               -5.43032710              -22.96537703               24.66835313               15.85517468
              15.39908988                2.05812439               62.89622214                0.00010000                1.84513191               -2.77937077               -5.66365481              -40.32687074               41.36100438               13.82856582
              16.39379953                1.17683064               62.85949767                0.00010000               -2.85592853                3.62040537               -5.23742955              -33.28124857               55.37084052               22.66926276
              17.34197131                0.36174137               63.21055567                1.00000000               -2.38842957                8.66527269               -1.85769792              -13.37162461               37.48187624               63.42306239
              18.34603094               -0.15709997               62.81797851                1.00000000                0.40596262                8.97331444               -1.52511014                1.29349454                0.37434759               63.72865470
               8.74085135                6.55528915               64.79720199                1.00000000               -0.31291744               -0.39534806                1.55744169               -0.04192639                0.30350553                0.90323545
               9.73772217                6.13478774               64.42621340                1.00000000               -0.13876927               -0.16420610                0.42269491                0.04518089                0.61229672               -0.38947948
              10.73807596                5.71457486               64.06111941                0.00010000                0.13874621                0.18111081               -0.75971371                0.13637885                1.51722536               -1.26784231
              11.74049710                5.29452488               63.70838382                0.00010000               -0.01745337               -0.85201147               -1.75683977               -2.20385374                7.35176287                2.83603893
              12.73772689                4.82921726               63.46142806                0.00010000                0.95410685               -3.11328643               -2.90512776               -3.94940479               12.32565441                7.32190087
              13.75957923                4.36301385               63.20506965                0.00010000                4.76711274               -7.36233794               -4.03544160               -7.36848847               16.14684947               14.09425516
              14.83306915                3.79923537               63.03047641                0.00010000                6.50067320              -15.07170786               -4.92825394              -19.84579339               24.56869910               22.51935260
              15.88959270                3.03512015               62.93557897                0.00010000                2.43133581               -3.26169051               -5.46117571              -31.95381876               34.97865410               12.32659977
              16.88169586                2.20992027               62.95894529                0.00010000               -1.55835950                2.04883821               -4.86157248              -33.95327881               43.71336504               13.00803929
              17.85842551                1.37013194               63.02429595                1.00000000               -0.67377126                0.79374455               -3.70194114              -16.07380533               23.41496801               -1.80866938
              18.86822044                0.85008757               62.63180223                1.00000000                0.97949323                0.68452224               -3.27395315                0.01307455               -0.30997877               -1.24572090
               9.15987396                7.55194908               64.68048357                1.00000000               -0.23069544               -0.26538954                1.29986514               -0.00486008                0.07971772                0.80385932
              10.15756700                7.13334673               64.30073469                0.00010000               -0.05955088               -0.14171120                0.16498434                0.15599045                0.65769236               -0.68598250
              11.15868294                6.71638098               63.93233475                0.00010000                0.12070002               -0.01718392               -1.02278219               -1.01219594                6.39267278               -2.14857295
              12.15998100                6.27139771               63.66726785                0.00010000                1.03764204               -2.01007189               -2.01963077               -3.27508474               12.80632859                4.15421460
              13.17943578                5.79899421               63.42582235                0.00010000                3.09102899               -3.31721568               -3.16758111               -5.14971304               15.98581661                5.75044648
              14.22180158                5.28394730               63.22267293                0.00010000                5.42194707               -6.92815342               -4.28345751               -9.77030199               20.02731644                8.97862357
              15.28787472                4.69027698               63.05891498                0.00010000                6.37635140               -8.87220638               -5.16278802              -19.18674414               24.74290769                9.57889256
              16.34932861                3.99289058               62.94662621                0.00010000                4.59237182               -4.38076533               -5.48261118              -27.49347876               29.44293090                7.74130996
              17.37972216                3.21780740               62.87437616                0.00010000                1.54996448               -0.04551454               -4.83816965              -31.26330905               32.37726949                1.40507622
              18.38032790                2.37761626               62.81605531                0.00010000                0.33295083                0.73658489               -2.60405717              -15.99698143               16.86112652               -4.04693588
              19.38638117                1.85659048               62.42886639                0.00010000                0.60532737                0.54017885               -2.49351850               -0.23890111               -0.01888257               -2.79744109
               9.57795883                8.54998136               64.56325413                1.00000000               -0.15487492               -0.15387763                1.04865316               -0.00969029                0.03021041                0.87153050
              10.57641008                8.13195352               64.17586885                0.00010000                0.09111172               -0.11332428               -0.06219791                0.08058899                0.33946115               -0.63965139
              11.57978106                7.71423118               63.79460123                0.00010000                0.79860426               -0.27538852               -1.34905021               -1.87112609                8.73978220               -2.74450348
              12.59238217                7.25432344               63.57546626                0.00010000                2.12009877               -1.54518755               -2.43656521               -4.47507913               17.49819483                0.79960306
              13.62218304                6.76287295               63.36893972                0.00010000                4.02541266               -3.15501411               -3.70305642               -7.45596595               19.35280210                3.46035678
              14.67289042                6.22445078               63.18552981                0.00010000                5.91039730               -4.99734223               -4.90767735              -12.41543200               21.93601597                5.02935179
              15.74039099                5.62179125               63.02779777                0.00010000                6.96511426               -5.76225315               -5.85342716              -19.02781399               24.33030350                5.43416459
              16.81219270                4.94750484               62.88902088                0.00010000                6.56565084               -4.18974074               -6.24151406              -24.99466123               25.37132383                3.60981147
              17.87170400                4.20900998               62.75167440                0.00010000                4.37550485               -1.26003784               -5.52836618              -30.13484334               24.34351414               -0.87351884
              18.89970280                3.38486364               62.60254818                0.00010000                1.68949912                2.58704903               -2.51232369              -16.92861379               11.93755969               -6.98180469
              19.90549398                2.86089115               62.22244812                0.00010000                0.57911837                1.23749866               -2.94592336               -1.96191134                0.54500128               -4.73398845
               9.99573583                9.54887152               64.44688027                0.00010000               -0.08068744               -0.07898473                0.78401683               -0.01738276                0.01265192                0.97445595
              10.99492896                9.13108025               64.05157320                0.00010000                0.15773261               -0.04891436               -0.28516098               -0.06404850               -0.00382746               -0.62467431
              11.99889049                8.71087321               63.65599237                0.00010000                1.34543435               -0.23677088               -1.51294866               -2.70046545               10.04269731               -2.80007417
              13.02183765                8.24049396               63.46330332                0.00010000                3.06493176               -1.23366926               -3.02415319               -5.99659415               20.66184736               -1.09351364
              14.06018912                7.73589393               63.28134383                0.00010000                4.63684991               -1.87336430               -4.50737829               -9.27973052               22.15229375                0.76336830
              15.11457465                7.18400046               63.11665115                0.00010000                6.20376275               -3.10848478               -5.87713504              -14.14363197               23.89947272                2.81415401
              16.18426438                6.57503192               62.96504636                0.00010000                7.38210035               -3.71762996               -7.00464308              -19.69498158               24.89146366                3.54780834
              17.26221665                5.90909577               62.81160063                0.00010000                7.77010565               -3.08187743               -7.75699493              -24.72500222               24.06246587                2.72989470
              18.33966649                5.19260664               62.63511665                0.00010000                6.38288995               -1.21048818               -7.70545306              -28.76840235               19.54475612               -0.17086199
              19.38987445                4.42935724               62.38674695                0.29706278                2.77107218                5.33449822               -5.27687755              -19.04215227               10.08442463              -10.51947367
              20.39508793                3.88134045               62.00442045                0.00010000                0.52134825                3.27652076               -6.21029930               -6.28160535                3.54649513               -9.25136210
              10.41319373               10.54840166               64.33078786                0.00010000               -0.00662973               -0.01363764                0.50588063               -0.01636927                0.01108937                1.03091370
              11.41312743               10.13097523               63.92716028                0.00010000                0.15821588                0.02585670               -0.49554167               -0.14817631               -0.33508413               -0.67130693
              12.41635804                9.70949576               63.51681249                0.00010000                1.71510655               -0.02070728               -1.48147864               -3.37349346               10.31323896               -2.74683754
              13.44742956                9.22965006               63.32857196                0.00010000                3.83619435                0.49312581               -3.98856116               -6.83117022               22.40333759               -6.97047283
              14.49308193                8.72540566               63.16204921                0.00010000                5.17251135               -0.13048926               -6.06487096              -10.08580823               24.89844328               -1.34768033
              15.55087979                8.16228109               63.02739627                0.00010000                6.41570575               -1.36454106               -7.05301647              -15.14793830               26.92169407                1.49628797
              16.62139605                7.54743865               62.89005550                0.00010000                7.46190750               -1.81850822               -8.59616008              -19.72040354               26.87810552                2.83033798
              17.70011794                6.88586730               62.73523516                0.00010000                7.73392173               -1.26139214              -10.06597299              -24.04567416               24.93418245                2.88831205
              18.77607448                6.18480021               62.53480437                0.00010000                6.50040062                0.40121277              -10.95233440              -25.87405274               19.24819345                0.40670126
              19.83012595                5.49155361               62.23769559                0.00010000                4.99104905                4.92425693              -12.08723808              -17.80473904               10.25700614               -8.74869807
              20.87589546                4.92642156               61.83621289                0.00010000                4.57695120                3.46052722              -12.94633504               -6.68087117                2.70668174               -9.90588588
              10.83026132               11.54859877               64.21473874                0.00010000                0.06100168                0.04794779                0.21830408               -0.00493974               -0.01564609                1.06444930
              11.83087134               11.13159738               63.80201857                0.00010000                0.12422335                0.10025810               -0.68265980               -0.14845693               -0.63556104               -0.75105502
              12.83274579               10.71045906               63.37727962                0.00010000                1.92165014                0.16068139               -1.12973381               -2.38114675                5.35685658               -2.34673856
              13.86930434               10.25035648               63.08535104                0.00010000                4.65480718                2.73839100              -11.60970130               -8.72528469               21.54430317              -12.40206853
              14.92584193                9.73328414               63.02109505                0.00010000                6.01392787                0.71838704               -6.64712517              -12.06176656               32.28494777               -2.64244000
              15.98958290                9.15670964               62.92778182                0.00010000                7.02140830               -0.26897411               -8.55290714              -14.45842049               30.88766249                0.89109219
              17.06627010                8.53866176               62.81252180                0.00010000                7.71793521               -0.02802165              -10.55027122              -17.38214346               30.01252197                2.35626802
              18.14394160                7.88386792               62.66708746                0.00010000                7.51145134                1.01542478              -13.14417018              -20.67841259               27.38117128                2.77894022
              19.21649912                7.20063090               62.45628743                0.00010000                7.41083594                2.92875328              -16.10038180              -21.75019256               20.16158509                0.99920607
              20.29215832                6.52784238               62.12092800                0.00010000                8.76177367                4.41427770              -21.70345127              -14.11629477               10.53467826               -9.08118323
              21.39173460                5.95055100               61.69033883                0.00010000                9.95762767                3.07691561              -22.42460083               -4.97878819                1.51159874              -12.03716540
              11.24709771               12.54936062               64.09877470                0.00010000                0.12002919                0.09361696               -0.10130202                0.00921693               -0.09470525                0.94845406
              12.24829800               12.13298039               63.67607975                0.00010000                0.14391527                0.16683093               -0.78760440               -0.08117306               -0.53433503               -0.63292982
              13.24997601               11.71270939               63.24491527                0.00010000                0.09003907                0.22826651               -0.77655379               -0.54546938               -0.83168777               -1.33280245
              14.25009878               11.28441788               62.81637642                0.00010000                4.77587116                1.86454581               -2.51213719               -8.24902404               23.21139245               -7.46796485
              15.34549344               10.73977340               62.87580380                0.00010000               10.31174903               -0.78027496               -8.76790499              -10.51589595               40.96729861               -2.08330273
              16.45633376               10.15690160               62.82771843                0.00010000               10.05507256               -0.04906844              -10.04336116               -9.74109911               35.13281404                0.50986262
              17.54659489                9.54687821               62.73563976                0.00010000                8.41233894                1.34107234              -12.73495744              -10.84948942               33.67111737                1.52460433
              18.62458054                8.90617579               62.60656345                0.00010000                7.52506414                3.31310102              -16.62839495              -12.92188589               31.03726194                1.96186242
              19.69709617                8.24337528               62.40138984                0.00010000                8.66497079                5.75969381              -22.56613084              -14.24615981               20.67125050                0.39442545
              20.79787996                7.57983916               61.99990496                0.15173757               11.69031484                8.73038210              -36.10105373               -9.11406680                8.53793732               -8.83703084
              21.93090247                6.98795988               61.52273823                1.00000000               13.30225108                7.23224313              -36.28802129               -2.37253247               -2.74764273              -11.53454062
              11.66320612               13.55047111               63.98023397                0.00010000                0.26929891                0.11104904               -0.43147828                0.05712986                0.48162489                0.83366159
              12.66589911               13.13493400               63.55384534                0.00010000                0.35963967                0.19536100               -0.89186789               -0.01222546                0.45975893               -0.52449923
              13.67039891               12.71502439               63.12768076                0.00010000                0.56803684                0.23150010               -1.17885915               -0.32204078                0.12866130               -0.71246658
              14.67725984               12.28764739               62.69947778                0.00010000                8.63206883                0.32295129               -1.75031512               -7.15118122               22.96367890               -0.37063612
              15.84304029               11.71767864               62.75184949                0.00010000               15.51981318               -2.20947607               -9.19177873               -6.84127121               42.72795418               -2.05735271
              16.98765611               11.15572827               62.73182162                0.00010000               12.84829169               -0.11733349              -11.57622351               -4.47753764               38.42792033               -0.17992498
              18.10000612               10.56548320               62.65769718                0.00010000               10.06753553                1.86049907              -14.86729028               -4.93879296               37.29775770                0.34109841
              19.18900682                9.95012994               62.54977467                0.00010000                7.89532180                4.39541542              -19.84564503               -6.04029381               35.86583150                0.26007358
              20.25791256                9.31582478               62.36644133                0.00010000                8.81427850                7.24494968              -27.60013554               -6.30235752               25.55468036               -1.34173066
              21.36529239                8.70245002               61.96191429                1.00000000               13.50649801               12.26108625              -49.31448985               -4.29020289                9.46138945              -11.50820307
              22.52804252                8.09519586               61.47362651                1.00000000               16.27501299               10.72359824              -49.96190418               -1.01141160               -2.79823337              -14.35989446
               7.83060995                3.69677701               66.16391172                1.00000000               -0.50366063               -0.62835101                2.19777533               -0.20642992               -0.50257113                0.61423658
               8.82557334                3.26166132               65.79059717                1.00000000               -0.35350878               -0.30583862                1.14309708               -0.16261163               -0.61759423                0.08567049
               9.82353977                2.82592540               65.41433812                0.00010000               -0.05659308                0.00657171                0.10228072               -0.15902197               -0.61065768               -0.08966551
              10.82444148                2.38902627               65.04099452                1.00000000                0.16327885                0.35646439               -0.96223943               -0.26082991               -0.30667286               -0.52457424
              11.82680535                1.94911263               64.67111697                1.00000000                0.40050216                0.76418952               -2.15366413               -0.30257362                0.11804523               -0.22257036
              12.83245152                1.50627866               64.30673997                1.00000000                0.55448690                1.13161306               -3.37373239               -0.55658132                0.72581871               -0.59062942
              13.83789509                1.05557742               63.95034149                0.00010000              -13.02849042                1.58972034               -4.44323600              -23.29206747               14.95170819               -1.19310042
              14.57188171                0.14584799               63.87455706                0.00010000              -16.56277089                5.41701139               -5.29209234              -22.14042792               22.51499269                4.56220612
              15.50663967               -0.76565020               63.62880111                0.00010000                4.53510413                3.35287202               -4.91584549              -17.64790120                6.21599788               18.60859886
              16.66258380               -1.69421016               63.21022521                1.00000000                8.16352839                0.77155575               -2.31157777              -20.09278228               -1.01739049                0.18173996
              17.66991024               -2.22495590               62.81074713                1.00000000                0.73264400                0.94835468               -2.87609617                0.02396955               -0.18593755               -0.04088103
               8.26366134                4.69049350               66.04448788                1.00000000               -0.42883084               -0.58033029                1.95695725               -0.04486885                0.00385883                0.86377195
               9.25937303                4.25860294               65.67098464                1.00000000               -0.26971311               -0.27275999                0.90111928               -0.00644087                0.05897558                0.13022833
              10.25826707                3.82599112               65.29804181                0.00010000                0.04332678                0.03692673               -0.14191086                0.00616961                0.10120026               -0.27388235
              11.26023956                3.39259092               64.92532877                1.00000000                0.34431719                0.38598013               -1.20448869               -0.06166180                0.62042034               -0.56757320
              12.26515342                2.95675453               64.56321350                1.00000000                0.67068752                0.75048362               -2.44981344               -0.08347601                1.04222783               -0.29548694
              13.27365331                2.51759479               64.19982342                1.00000000                1.00181628                1.12044994               -3.68135542               -0.30807463                1.23215291               -0.61956591
              14.28518974                2.07147462               63.84315106                1.00000000               -0.62810361                1.39527853               -4.84633392              -21.34947563               17.34563181               -0.94152616
              15.26109124                1.20001811               63.80469722                0.00010000               -1.75000073                0.98777728               -5.63600527              -29.64365294               30.43378759                9.19162738
              16.25018973                0.26787852               63.68941276                0.00010000               -3.48912097                3.44673730               -5.33214661              -30.14486238                4.08210963               21.91141067
              17.19130882               -0.68649460               63.09011143                1.00000000               -2.46470269               12.40356255               -3.08552506              -20.51035625               -9.82184094               61.11548008
              18.20089568               -1.21547236               62.69057580                1.00000000                0.95868528               13.14936678               -3.64841563                0.64109119                0.02931395               61.39144038
               8.69349370                5.68517041               65.92916507                1.00000000               -0.35467960               -0.47156952                1.70372048               -0.05009072                0.18422656                1.03262843
               9.68994691                5.25620612               65.55192895                1.00000000               -0.19092605               -0.20875224                0.64971548               -0.01334687                0.38464446                0.04517714
              10.68967518                4.82666394               65.17825884                1.00000000                0.12489646                0.11358183               -0.39867003                0.00792634                0.81111274               -0.69624606
              11.69244483                4.39674588               64.80960301                1.00000000                0.52283874                0.50589380               -1.40463869               -0.16270079                1.75764247               -0.73472240
              12.70013196                3.96412230               64.45537427                1.00000000                0.95625495               -1.15963271               -2.70722675               -0.76988385                2.08593459                3.86775874
              13.71156993                3.52868766               64.09443674                1.00000000                1.41751506               -2.72677066               -3.89996933               -0.66990923                2.11473378                8.11767795
              14.72848226                3.08348299               63.74260281                0.00010000                3.55174107               -8.69465694               -5.01831247              -21.61385147               24.88880187               16.19265738
              15.78260476                2.16560354               63.83902588                0.00010000                3.08864340               -2.84863281               -6.00673842              -38.25826646               41.50707988               14.89736362
              16.79025512                1.30328454               63.80869812                0.00010000               -2.34386052                3.88229501               -5.60934101              -29.44208980               57.05443641               24.11076026
              17.73572754                0.55386109               64.19089924                1.00000000               -2.47837770               12.27611921               -2.43367685              -10.20422783               38.88197853               64.52668571
              18.74068757                0.03803143               63.80171274                1.00000000                0.49600259               12.90408030               -2.02060221                1.18119895                0.33775152               65.36033115
               9.12058809                6.68106211               65.81225637                1.00000000               -0.29755298               -0.34985666                1.44988636               -0.03389085                0.30688254                0.87942487
              10.11761256                6.25442789               65.43035706                1.00000000               -0.13511219               -0.16317044                0.40682135                0.05714029                0.59144586               -0.39072511
              11.11788585                5.82826276               65.05381270                0.00010000                0.09573101                0.13720664               -0.69134064                0.18093387                1.56086880               -1.29543824
              12.11952718                5.40270879               64.69145940                0.00010000               -0.00359435               -0.76500196               -1.61183269               -2.03053796                7.33998313                2.78730214
              13.11781396                4.93356187               64.43219175                0.00010000                1.06836319               -2.90857747               -2.91220229               -3.69242729               12.10127269                7.50181489
              14.14089445                4.46305938               64.16441869                0.00010000                4.90914376               -7.02065237               -4.08946379               -6.93061307               15.86680422               14.43922733
              15.21599684                3.89758148               63.98039027                0.00010000                6.76149553              -14.42514097               -5.11100244              -18.64672320               24.23560460               23.41774542
              16.27612436                3.14304545               63.88075494                0.00010000                2.85467705               -3.00830931               -5.67522376              -29.86865618               35.15258332               14.08306254
              17.27309038                2.34552442               63.91217796                0.00010000               -1.18234891                2.47807724               -4.87233729              -30.26753097               44.95632484               15.32252618
              18.25247738                1.55902778               64.00128452                0.00010000               -0.84557004                0.35294280               -1.53220936              -13.48891748               24.21490328               -0.39671418
              19.25617898                1.04260925               63.61285004                0.00010000                0.37015979                0.31626143               -1.20780359               -0.06236573               -0.14203673                0.08488797
               9.54608433                7.67817327               65.69300564                1.00000000               -0.21952583               -0.21889028                1.20174818                0.00805567                0.07525029                0.77876037
              10.54388907                7.25294271               65.30244654                0.00010000               -0.05356853               -0.14790931                0.17787272                0.16609003                0.61817730               -0.66391262
              11.54501296                6.82940807               64.92250871                0.00010000                0.13229458               -0.08474430               -0.92635869               -0.83079969                6.34344746               -2.15413391
              12.54653496                6.38144584               64.64651806                0.00010000                1.04599359               -1.76946040               -2.08281718               -2.89996608               12.63262559                4.13626429
              13.56593283                5.90595075               64.39324955                0.00010000                3.12015515               -2.97217075               -3.31366321               -4.81434174               15.60224196                5.85665085
              14.60893806                5.38827461               64.17873174                0.00010000                5.48144462               -6.44683299               -4.51047300               -9.29723371               19.57707088                9.31482330
              15.67556172                4.79498017               64.00637898                0.00010000                6.41753158               -8.25238379               -5.40952566              -18.23449848               24.51371718               10.42539427
              16.73728869                4.10543735               63.89216221                0.00010000                4.66802250               -3.90633058               -5.56676841              -25.66033361               29.97544336                9.45192152
              17.76892217                3.35284609               63.83013904                0.00010000                1.57878348               -0.28292276               -4.28919547              -27.91588390               34.23309261                4.10063176
              18.76886436                2.56091995               63.80014087                0.00010000                0.16775769                0.04436528               -1.20280047              -13.86087687               17.93852693               -1.79741921
              19.77227732                2.04435666               63.41430940                0.00010000                0.34129601                0.06345724               -1.08578938               -0.04815988               -0.06993176               -1.11409100
               9.97121032                8.67668431               65.57327097                1.00000000               -0.15107579               -0.10870805                0.95186513                0.00178792                0.02873738                0.82872261
              10.96969957                8.25146971               65.17544626                0.00010000                0.07782029               -0.11713556               -0.02312245                0.08557133                0.25509836               -0.58784369
              11.97276673                7.82656787               64.78205117                0.00010000                0.76428045               -0.26934989               -1.12862694               -1.52137682                8.53684564               -2.57049683
              12.98498518                7.36731959               64.55071354                0.00010000                2.09658113               -1.23128274               -2.49894380               -3.93569146               17.09344979                0.84523103
              14.01469835                6.87411846               64.33079075                0.00010000                4.04675907               -2.66011465               -3.90155364               -7.02194385               18.75138286                3.50958604
              15.06592036                6.33412272               64.13505929                0.00010000                5.97228865               -4.47914265               -5.18262384              -11.78922687               21.33280174                5.29646618
              16.13414413                5.73253381               63.96845017                0.00010000                6.95657030               -5.23761423               -6.06717889              -17.83545270               24.04091313                6.13071040
              17.20505176                5.06491884               63.82798493                0.00010000                6.25729869               -3.78943274               -6.10024381              -23.02804461               25.98947185                4.89715390
              18.25929010                4.33986596               63.70361172                0.00010000                3.93487528               -1.54181228               -4.51798907              -26.43390567               26.79609791                1.22194791
              19.28374927                3.55991509               63.58780590                0.00010000                1.45261274               -0.25526394               -1.10405304              -13.53631171               13.51846052               -3.36462967
              20.28834235                3.04387839               63.20577198                0.00010000                0.45930858               -0.24012912               -1.18941080               -0.26204025                0.02171649               -2.61875604
              10.39654929                9.67599911               65.45422469                0.00010000               -0.08323560               -0.04096128                0.68387977               -0.00009473                0.01423589                0.90034484
              11.39571693                9.25060000               65.04909611                0.00010000                0.10931255               -0.04422055               -0.21321609                0.00800446               -0.04531294               -0.54291551
              12.39873554                8.82402107               64.64279581                0.00010000                1.22768059               -0.12691560               -1.14326880               -2.11822626                9.64148341               -2.32790040
              13.42027054                8.35682018               64.43305614                0.00010000                2.99776408               -0.47270035               -2.96139702               -5.10393086               19.83034261               -1.31615283
              14.45869082                7.85274846               64.23483718                0.00010000                4.72338163               -1.31481551               -4.73524533               -8.84909918               21.24621218                0.55429624
              15.51473818                7.29869176               64.05643553                0.00010000                6.46828625               -2.73342665               -6.11562014              -13.47310176               23.08105516                2.98085949
              16.58805655                6.69022788               63.89413261                0.00010000                7.73287340               -3.44405904               -7.17568098              -18.19985766               24.28987829                4.02011744
              17.66939564                6.02964870               63.73594307                0.00010000                7.85956296               -3.02686127               -7.46636258              -22.17075910               23.98366311                3.58376085
              18.74524780                5.32200984               63.56463224                0.00010000                6.23650270               -1.55361394               -6.32306068              -25.61624195               21.40583607                1.07391105
              19.79412570                4.55581467               63.36150294                0.00010000                2.69310523               -0.02633221               -1.53910917              -13.51433785               10.29039232               -5.97287069
              20.79910991                4.03955408               62.97992647                0.00010000                0.49842104               -0.38588274               -1.42121863               -0.87551892                1.20411494               -4.87624382
              10.82200665               10.67586508               65.33530357                0.00010000               -0.01689530                0.00914040                0.40247658                0.01241899                0.01702190                0.92223240
              11.82183770               10.25058529               64.92283429                0.00010000                0.10876876                0.04010755               -0.37880138                0.01260707               -0.25547624               -0.53790344
              12.82418203                9.82402956               64.50506571                0.00010000                1.61707359                0.08642130               -0.99272997               -2.09465530                9.30099283               -2.02455011
              13.85417917                9.35786558               64.28502028                0.00010000                3.58313847                1.49194366               -4.65457615               -6.79853793               20.69054848               -9.52602800
              14.89584479                8.84782215               64.10132561                0.00010000                5.23998651               -0.01376840               -5.75881044              -10.47222078               24.02233382               -1.51518548
              15.95897890                8.27945418               63.95534824                0.00010000                7.16726198               -1.32011074               -7.26161788              -14.57698635               25.97022777                1.47312457
              17.03919003                7.66365263               63.80306147                0.00010000                8.54378610               -1.95075776               -8.72022191              -18.14336442               25.65749721                3.04881056
              18.12985462                7.00438161               63.63631298                0.00010000                9.08046256               -1.82059357               -9.61550689              -21.25942627               23.99848647                3.24520386
              19.22079929                6.30879369               63.43437628                0.00010000                8.30318277               -0.82179142               -9.26505427              -24.33207236               18.52012511                1.53075530
              20.29591828                5.55938845               63.14238584                0.00010000                4.12769370                0.71468399               -5.49696407              -12.96977703                8.97656308               -8.18991732
              21.30335316                5.03616074               62.74825973                0.00010000                0.74348831               -0.15486927               -4.46259341               -1.37724867                1.59619492               -7.14252867
              11.24735724               11.67618192               65.21634447                0.00010000                0.04473555                0.04583763                0.11612970                0.03642435               -0.01837130                0.89629965
              12.24780460               11.25140215               64.79621164                0.00010000                0.11024535                0.11085504               -0.49840677                0.05763359               -0.37009648               -0.51022465
              13.24956215               10.82574950               64.36923732                0.00010000                0.63512997                0.17373873               -0.68253442               -0.69561934                1.34209594               -1.55135964
              14.26050720               10.38665906               63.98350115                0.00010000                3.90478260                2.08778009               -6.44232242               -7.56287658               19.71506356              -10.62704978
              15.32765780                9.85247309               63.95511951                0.00010000                7.34303875                0.32114594               -6.50908842              -12.22201228               33.55105801               -2.98846401
              16.40736797                9.27228954               63.84114628                0.00010000                8.63020140               -0.66084925               -8.56446483              -13.84481805               29.35891849                0.55315217
              17.50026183                8.65121273               63.70555466                0.00010000                9.58490439               -0.64264089              -10.62952460              -16.07076036               27.92299644                2.35208394
              18.59906606                7.99323682               63.53767158                0.00010000               10.16688475               -0.17270964              -12.41155761              -18.52322759               24.98642672                2.77201821
              19.70359952                7.30557402               63.31210875                0.00010000               10.41485218                0.28775746              -13.28465534              -21.49237083               16.22560687                0.82458081
              20.80736310                6.57010835               62.93092846                0.00010000                5.72104117                1.34793720              -10.82972179              -11.43252200                6.84031123               -9.32862077
              21.81802035                6.03645669               62.52384548                0.00010000                1.06572441                0.17417832               -8.32046457               -1.03367945                0.56795407               -7.31991926
              11.67229467               12.67678183               65.09706016                0.00010000                0.11281208                0.08160760               -0.19781965                0.04292173               -0.03989331                0.73142281
              12.67342279               12.25280240               64.66993497                0.00010000                0.13590325                0.14672176               -0.51857747                0.05958760               -0.21022053               -0.33012277
              13.67501274               11.82750433               64.23953291                0.00010000                0.13876248                0.16628524               -0.47377089               -0.09690579               -0.38851061               -0.82073999
              14.67619804               11.39962118               63.80902807                0.00010000                4.53806631                0.70759458               -0.52829557               -6.46113731               20.69052696               -2.98631441
              15.76577406               10.85424507               63.79845640                0.00010000               10.35724305               -1.40657299               -6.92997170               -9.45088065               38.13990318               -2.39163244
              16.88334290               10.26623720               63.72487884                0.00010000               11.55267413               -0.77002843              -10.01566287               -9.33080850               33.21622497                0.11906179
              17.99682755                9.65079981               63.60639398                0.00010000               11.08429398                0.29624517              -12.77565905              -10.07109102               30.39268110                1.43492924
              19.10502878                9.00092742               63.44275017                0.00010000               10.86263988                1.54604871              -15.62819737              -12.10681107               26.20982647                1.74828793
              20.21408034                8.31454883               63.19653826                0.00010000               11.56781880                2.61862259              -18.31634336              -15.28770957               12.63096240               -0.05506201
              21.33638516                7.58634719               62.71929353                0.00010000                6.79512709                2.30797944              -15.77239501               -9.96793788                3.13283675              -10.12411381
              22.34998288                7.03964431               62.31276183                1.00000000                1.35977262                0.79383113              -10.79888587               -0.18438598                0.05347053               -7.00931071
              12.09617455               13.67781407               64.97535901                0.00010000                0.20992973                0.10322390               -0.47478954                0.04023977                0.44670245                0.59373344
              13.09827385               13.25433659               64.54677117                0.00010000                0.23153470                0.15341936               -0.62612839                0.04816230                0.42339764               -0.19843344
              14.10080525               12.82907520               64.11882760                0.00010000                0.31349333                0.15708700               -0.75872569               -0.09703101                0.32093576               -0.41392896
              15.10454372               12.40081095               63.69086117                0.00010000                8.56094614                0.11897667               -0.69093374               -7.40211093               20.65549458               -0.30360422
              16.27202417               11.82434163               63.67404240                0.00010000               15.98266712               -2.99034322               -7.09670191               -6.57108797               39.14761033               -1.40496451
              17.42419706               11.25688897               63.61329849                0.00010000               14.60628088               -0.93482247              -11.43802325               -4.27478438               35.13524974               -0.38591546
              18.56414979               10.65713763               63.50590327                0.00010000               13.44918757                0.63378248              -15.02288071               -4.90433454               32.30334117                0.26490502
              19.69318081               10.02415780               63.34986459                0.00010000               12.41378869                2.32303794              -19.17373683               -6.14435540               28.39442760                0.05685542
              20.81242556                9.35794647               63.10846805                0.00010000                9.48640310                4.33976330              -23.80561106              -10.55997110               10.27028671               -1.27139532
              21.88290887                8.61626794               62.53928789                1.00000000                4.76564162                2.99207496              -24.60961257              -10.62828610               -3.37744471              -14.46425335
              22.90773839                8.05233332               62.13172241                1.00000000                2.48295209                1.26890097              -18.98641345               -0.61791139               -3.29541765              -10.80422780
               8.20429212                3.82346586               67.18513983                1.00000000               -0.47081572               -0.58292939                2.04437356               -0.18983974               -0.48011192                0.59630467
               9.19958397                3.38331750               66.80171030                1.00000000               -0.33323090               -0.28885632                1.07892406               -0.14972631               -0.58708004                0.08061775
              10.19762751                2.94257831               66.41547755                0.00010000               -0.06114493               -0.00365030                0.12748022               -0.14619957               -0.58585254               -0.08385045
              11.19836107                2.50076218               66.03193166                1.00000000                0.14146882                0.31510884               -0.84594437               -0.23913603               -0.35409171               -0.50348461
              12.20045688                2.05616573               65.65069940                1.00000000                0.35291209                0.68552835               -1.92400487               -0.28506766               -0.01089610               -0.24359723
              13.20541931                1.60875408               65.27461133                1.00000000                0.41071633                1.02136469               -3.03953186               -0.61110821                0.64551699               -0.60120081
              14.20867121                1.15230408               64.90790953                0.00010000              -12.26329879                1.51349455               -4.02604663              -22.16388705               14.80134903               -1.30651667
              14.96015333                0.26012705               64.81974286                0.00010000              -15.28978448                4.99442474               -5.47653000              -21.34931108               22.48831745                3.84553303
              15.90287552               -0.64170280               64.57797569                0.00010000                5.18442454                3.75461714               -5.10344416              -17.04944150                8.46582680               17.58109406
              17.06384182               -1.56944234               64.18818940                1.00000000                8.40748889                0.79043984               -2.14736139              -19.97960566                0.68260061                0.10536266
              18.07102530               -2.10226634               63.78317934                1.00000000                0.71834723                0.97508116               -2.70556206                0.04761212               -0.11017115               -0.09025466
               8.64254208                4.81763656               67.06338094                1.00000000               -0.40116083               -0.53628733                1.81878057               -0.04204699                0.01343757                0.84026720
               9.63853048                4.38042894               66.67975421                1.00000000               -0.25494572               -0.25777656                0.85276446               -0.00652559                0.07546782                0.12088644
              10.63744317                3.94254181               66.29680613                0.00010000                0.03227633                0.02423137               -0.10255065                0.00487616                0.11328714               -0.27386449
              11.63917600                3.50391327               65.91391304                1.00000000                0.30835429                0.34253436               -1.07368070               -0.05719840                0.53481140               -0.52971035
              12.64361025                3.06302101               65.53990410                1.00000000                0.60315236                0.67355673               -2.20414653               -0.08023111                0.87057203               -0.30065683
              13.65123905                2.61896773               65.16473962                1.00000000                0.88677993                1.00991348               -3.32311924               -0.33728453                1.08355725               -0.59698748
              14.66134585                2.16743903               64.79679648                0.00010000               -0.37876914                1.30104991               -4.40544611              -20.37419233               17.20237255               -0.92882000
              15.64366367                1.31007130               64.74702373                0.00010000               -0.70900282                0.99434456               -5.78690330              -28.43064157               30.14672425                8.67878985
              16.64716580                0.39584337               64.63321851                0.00010000               -2.46680655                3.89917210               -6.48756099              -29.57349316                4.79825431               20.51471428
              17.59432753               -0.56153794               64.06020882                1.00000000               -2.14201879               15.52721680               -3.07054582              -21.28022320               -8.33637585               61.59390967
              18.60432542               -1.09251553               63.65515008                1.00000000                0.99978863               16.50493770               -3.62791056               -0.09107616                0.11654376               62.44318488
               9.07786644                5.81274011               66.94558636                1.00000000               -0.33182292               -0.42997435                1.57873220               -0.04553751                0.18653912                1.00014362
              10.07454821                5.37816197               66.55826209                1.00000000               -0.18128704               -0.19866483                0.61764989               -0.01064426                0.39006392                0.03600147
              11.07424070                4.94306294               66.17454295                1.00000000                0.10948472                0.09372059               -0.34073233                0.00993679                0.83515039               -0.71778602
              12.07673790                4.50761287               65.79620821                1.00000000                0.47785523                0.47213033               -1.26679092               -0.18421876                1.66035321               -0.67751153
              13.08379780                4.06963686               65.42956986                1.00000000                0.87588491               -1.08213637               -2.44448629               -0.77388597                1.89412582                3.84274127
              14.09425560                3.62895235               65.05722471                1.00000000                1.31429960               -2.57321644               -3.53152202               -0.69170150                1.99292963                8.08704326
              15.11008379                3.17832508               64.69459719                0.00010000                3.44402814               -8.18124617               -4.56853416              -20.44196392               24.56579384               16.19867147
              16.16313616                2.28001394               64.77608737                0.00010000                3.64655493               -2.32131166               -6.21799743              -36.24257172               40.77439370               15.33219218
              17.18301489                1.43628064               64.74731085                0.00010000               -1.82699540                4.95432529               -7.98492998              -26.28924754               56.60093302               24.68507815
              18.12659625                0.74110200               65.16188213                1.00000000               -2.59279685               15.72469816               -5.94898809               -8.03621315               40.74549045               62.65243832
              19.13115895                0.22783241               64.77756647                1.00000000                0.45626993               16.58521037               -4.79590755                0.56920355               -0.00127249               63.95429839
               9.51078762                6.80903708               66.82619971                1.00000000               -0.27928572               -0.31152126                1.33808034               -0.02660804                0.30708035                0.84219245
              10.50799476                6.37645564               66.43434982                1.00000000               -0.12983060               -0.15913399                0.39235488                0.06292067                0.56577028               -0.38465878
              11.50819101                5.94441622               66.04729260                0.00010000                0.04614740                0.09984460               -0.60661196                0.20699568                1.59264399               -1.30251235
              12.50891771                5.51335588               65.67614716                0.00010000               -0.06989763               -0.63720104               -1.40076349               -1.89415852                7.22563253                2.65671730
              13.50679305                5.04137828               65.40318402                0.00010000                0.98995454               -2.60543133               -2.79757220               -3.51916698               11.57248668                7.40444899
              14.52871680                4.56750340               65.12328037                0.00010000                4.73259661               -6.46745900               -4.10597994               -6.58031056               15.27898592               14.35287885
              15.60144498                4.00381410               64.92825637                0.00010000                6.60699380              -13.38000564               -5.34384723              -17.46117690               23.55488292               23.65197703
              16.66085667                3.26364507               64.82207450                0.00010000                2.94239017               -2.26574600               -6.16116294              -27.34714872               35.02793488               15.41858039
              17.66029279                2.49492987               64.86149855                0.00010000               -0.94025900                3.60528197               -6.00353605              -26.86492923               47.29698113               17.08714818
              18.64205149                1.75295603               64.99365176                0.00010000               -0.90220626                0.70222478               -0.51383539              -11.37046835               26.13591168                1.24242694
              19.64224866                1.23918868               64.60764616                0.00010000                0.01971683                0.67771520               -0.33014417               -0.10240761               -0.02494067                1.46028031
               9.94249715                7.80650969               66.70451853                1.00000000               -0.20696734               -0.18501587                1.10165971                0.01672999                0.07162427                0.72981539
              10.94042747                7.37497929               66.30429215                0.00010000               -0.05083874               -0.14542818                0.18907922                0.16436199                0.57212870               -0.62931762
              11.94148037                6.94505983               65.91380757                0.00010000                0.07325990               -0.09410414               -0.80231885               -0.65253786                6.15859907               -2.06077005
              12.94189267                6.49486885               65.62561151                0.00010000                0.88932817               -1.43329468               -2.03273787               -2.54688631               12.17361405                3.91733128
              13.95926694                6.01752823               65.35954908                0.00010000                2.91604466               -2.49506198               -3.35782629               -4.45968875               14.93679839                5.66882991
              15.00021357                5.49960317               65.13246347                0.00010000                5.27258264               -5.74135421               -4.70118636               -8.68165183               18.80139913                9.25201561
              16.06471859                4.91072497               64.95072446                0.00010000                6.24319270               -7.35811398               -5.75714374              -16.90327666               24.01888134               10.79481475
              17.12507742                4.23469902               64.83529084                0.00010000                4.58433779               -3.09889993               -6.03892786              -23.31873847               30.58934981               10.57669998
              18.15640535                3.50838628               64.78859225                0.00010000                1.49253302                0.20129284               -4.37543403              -24.60201591               36.49193743                6.02633461
              19.15492808                2.75514650               64.79199930                0.00010000                0.01200742                0.16264812               -0.70801950              -12.05696488               19.46125222               -0.83565839
              20.15664549                2.24138672               64.40715060                0.00010000                0.17174135                0.18551350               -0.61523615                0.01139713               -0.08471349               -0.37568218
              10.37418301                8.80533676               66.58229143                0.00010000               -0.14511577               -0.08319331                0.85770753                0.01005999                0.02813166                0.74741162
              11.37273185                8.37354708               66.17540640                0.00010000                0.05338396               -0.10726920                0.00960058                0.11107423                0.21104447               -0.52200005
              12.37525069                7.94253414               65.77202869                0.00010000                0.63898646               -0.18795906               -0.89117935               -1.12886711                8.17195949               -2.26784155
              13.38551158                7.48468998               65.52548739                0.00010000                1.88071323               -0.75023418               -2.49468381               -3.32733190               16.34169387                0.75304286
              14.41286495                6.99147704               65.29090864                0.00010000                3.81877230               -2.05416199               -4.00721468               -6.47733127               17.85401198                3.21887896
              15.46188703                6.45267632               65.08187733                0.00010000                5.77093235               -3.81372400               -5.38649559              -10.90692334               20.41759837                5.17067122
              16.52828360                5.85665182               64.90645419                0.00010000                6.74667840               -4.49509971               -6.36619274              -16.25867182               23.53649786                6.31034878
              17.59682060                5.20166707               64.76701600                0.00010000                5.97606977               -3.11280432               -6.30438343              -20.56916170               26.71268052                5.54763816
              18.64780500                4.49895573               64.66131462                0.00010000                3.55455797               -1.25329862               -4.37587199              -22.98200401               29.38375686                2.58462313
              19.66791175                3.75620899               64.58046712                0.00010000                1.10955816                0.00866983               -0.64445095              -11.52983955               15.21854458               -1.70902397
              20.66999616                3.24289895               64.19865990                0.00010000                0.20844046               -0.00294465               -0.57965597               -0.04712076               -0.06219441               -1.22300058
              10.80627771                9.80484582               66.46055787                0.00010000               -0.08261339               -0.03051150                0.59663655                0.01329473                0.01449107                0.77720375
              11.80545158                9.37283391               66.04730888                0.00010000                0.07412063               -0.02227220               -0.15655345                0.09893717               -0.02911091               -0.44513208
              12.80776013                8.94130065               65.63312699                0.00010000                1.04757769                0.00145558               -0.85924716               -1.40142620                9.12470558               -1.86629277
              13.82640313                8.47986416               65.40407538                0.00010000                2.69869265                0.19972533               -2.89202205               -4.26933026               18.63189058               -2.04996790
              14.86173398                7.97644499               65.18663893                0.00010000                4.52485918               -0.83287113               -4.73360064               -8.30998902               19.98862972                0.27768353
              15.91690032                7.42332869               64.99433875                0.00010000                6.44102124               -2.28217439               -6.21455853              -12.44802844               21.94229527                2.71474921
              16.99055440                6.82082297               64.82153274                0.00010000                7.72449824               -2.98295101               -7.32038254              -16.27940533               23.36865938                3.94410839
              18.07139028                6.17244294               64.66227338                0.00010000                7.58344702               -2.63121024               -7.37344285              -19.27752039               24.08645272                3.69566406
              19.14222334                5.48332030               64.50865543                0.00010000                5.44988939               -1.55084589               -5.36493355              -21.22619548               23.90677035                1.44225634
              20.18038807                4.75531989               64.35596477                0.00010000                2.00499061                0.10603723               -0.51749351              -10.70652335               11.74713338               -2.01597215
              21.18232316                4.24132783               63.97599607                0.00010000                0.19350865               -0.16234854               -0.31330775               -0.09543568                0.10343774               -1.78535799
              11.23847273               10.80472653               66.33883739                0.00010000               -0.02169697               -0.00388222                0.32926494                0.03160303                0.01191382                0.75974061
              12.23825576               10.37310163               65.91958425                0.00010000                0.08595864                0.07291515               -0.29596344                0.14808516               -0.15755691               -0.39034242
              13.24019191                9.94256325               65.49695789                0.00010000                1.33624356                0.18320107               -0.74270966               -0.99395377                7.70259366               -1.49049377
              14.26498063                9.48868449               65.23548044                0.00010000                3.15043701                1.69717621               -3.96421858               -5.82116743               18.65502456               -9.23883362
              15.30320065                8.97481962               65.04687300                0.00010000                5.17839220               -0.00304613               -5.19652287              -10.20838376               23.20702320               -2.06689167
              16.36854848                8.40703283               64.88216391                0.00010000                7.51903019               -1.25433053               -7.19369671              -13.42005070               24.33814385                1.13160885
              17.45358125                7.79699280               64.71565106                0.00010000                9.01121888               -1.92260237               -8.63762099              -16.01698229               24.02403886                2.77716655
              18.54877286                7.14904286               64.54292502                0.00010000                9.34114399               -1.97859165               -9.06279815              -18.16641132               22.70133341                3.07067682
              19.64040413                6.46793881               64.34950329                0.00010000                7.35004549               -1.41798853               -7.42546429              -19.25910481               19.76781050                1.25864401
              20.69577377                5.75832973               64.12775631                0.00010000                2.78337248                0.45211874               -0.98377174               -9.57235444                8.86440823               -1.74400629
              21.69607158                5.23965198               63.74696103                0.00010000                0.02978129               -0.08386588               -0.06657545               -0.12095143                0.51428700               -1.51188881
              11.67015957               11.80476818               66.21706133                0.00010000                0.04169938                0.01240025                0.06585511                0.05627804               -0.02585093                0.69647609
              12.67057656               11.37429221               65.79205043                0.00010000                0.10693135                0.13583843               -0.38563986                0.17807895               -0.19645400               -0.29386077
              13.67229819               10.94496467               65.36362893                0.00010000                0.35734282                0.20705273               -0.55247256                0.12181357                0.70223594               -1.03751799
              14.67772342               10.51380769               64.95650459                0.00010000                3.34598854                1.43235406               -1.58941124               -6.42877045               18.51061546               -8.94868425
              15.73921796                9.97638407               64.89091328                0.00010000                7.43013504               -0.09008768               -5.71150061              -11.31627605               31.53146824               -2.99373435
              16.82632612                9.39824208               64.75649252                0.00010000                9.44933798               -0.99511005               -8.21223525              -12.49204708               27.18422409                0.18594806
              17.92820472                8.78237093               64.59993131                0.00010000               10.53949652               -1.08823048              -10.24117523              -14.11875215               25.24825077                2.00604387
              19.03711605                8.13287110               64.41885630                0.00010000               10.97748261               -1.00471632              -11.22167831              -15.87752294               21.98187085                2.57561071
              20.14775438                7.45496053               64.19059432                0.00010000                9.00558826               -1.10120345              -10.02941718              -16.78704551               16.21903331                0.98445556
              21.21722781                6.76436227               63.90433357                0.00010000                3.47526292                0.53338634               -1.56454169               -8.33853319                6.09663897               -1.58990211
              22.21725963                6.23965051               63.52392954                0.00010000                0.00318216                0.01223767                0.06279272               -0.02299032                0.84987803               -0.92901667
              12.10055023               12.80497453               66.09481830                0.00010000                0.10706167                0.04899498               -0.20163608                0.04220116                0.01681815                0.54225043
              13.10162084               12.37581840               65.66570821                0.00010000                0.12812346                0.15003613               -0.41628982                0.10258411               -0.04735416               -0.12537616
              14.10311270               11.94670431               65.23543985                0.00010000                0.16824919                0.15958736               -0.42952333                0.09713010               -0.07230799               -0.49910399
              15.10498583               11.51733157               64.80581051                0.00010000                4.46640177                0.20507146               -0.26440379               -5.81274620               18.03636187               -1.66662499
              16.19244073               10.97301787               64.73720436                0.00010000               10.38674267               -1.89883623               -5.53698983               -8.29318659               33.72604120               -1.98147696
              17.31272068               10.38713063               64.62740517                0.00010000               12.20682264               -1.35357055               -9.28956785               -8.28077744               29.72530173               -0.14117753
              18.43657719                9.77522819               64.48012658                0.00010000               12.29560538               -0.53040968              -12.07293867               -8.84399876               26.35384629                1.15929076
              19.55863279                9.12894854               64.29399950                0.00010000               11.82974347                0.20835524              -13.78310205              -10.60494561               21.23312795                1.58935232
              20.67317205                8.44591474               64.03506297                0.00010000                9.28401692                0.57883819              -12.95008107              -11.69052281               12.29634315                0.63806274
              21.74431313                7.76899746               63.68445706                0.00010000                3.59316183                0.44069906               -1.97285414               -7.43783472                2.81686342               -1.84257134
              22.74503529                7.23989673               63.30676052                0.00010000                0.07221633                0.07698106               -0.29540114                0.09020114                0.79162517               -0.59934352
              12.52931585               13.80574807               65.97073818                0.00010000                0.15826156                0.07735405               -0.41977716                0.03104829                0.39103368                0.42193016
              13.53089847               13.37729293               65.54132277                0.00010000                0.17058858                0.14745292               -0.55169839                0.04817986                0.38921803               -0.01727488
              14.53272763               12.94815642               65.11250625                0.00010000                0.21282312                0.14521143               -0.62042234               -0.00769773                0.48337016               -0.22338778
              15.53515493               12.51790912               64.68565911                0.00010000                8.54137747                0.05775470               -0.44550472               -7.47054328               18.02623245               -0.18420067
              16.70355518               11.93840735               64.60991546                0.00010000               16.16726532               -3.46105197               -5.84603169               -6.22547805               33.77783271               -1.00915490
              17.85850024               11.37117067               64.50306115                0.00010000               15.29758324               -1.59599571              -10.43352599               -3.75427494               30.11122339               -0.41793449
              19.00950684               10.77176273               64.35723957                0.00010000               14.79151742               -0.34654624              -14.09457893               -4.41365760               26.29088476                0.23162293
              20.15433059               10.13703821               64.16629994                0.00010000               13.21940774                0.80896724              -16.85810335               -5.69149192               20.20573812                0.30827121
              21.27389500                9.46653730               63.89032911                0.00010000                6.00792704                2.06225551              -17.37507857               -8.12080389                7.40198308               -0.56265696
              22.27448913                8.77317625               63.46972204                0.00010000                0.16850582                0.41787890               -3.88743843               -8.24975837               -1.56172010               -3.01518303
              23.27726511                8.24119013               63.09389824                0.00010000                0.27759832                0.12933969               -2.11738501                0.02437012               -0.53002555               -1.01367365
               8.58786677                3.95222090               68.20479920                1.00000000               -0.43727450               -0.53685798                1.88551098               -0.17182761               -0.45795059                0.57660562
               9.58349403                3.50718585               67.81217565                1.00000000               -0.31327071               -0.27169780                1.01408537               -0.13516780               -0.55755775                0.07555134
              10.58160136                3.06159122               67.41688773                0.00010000               -0.06781209               -0.01427934                0.15604451               -0.13233808               -0.56125730               -0.07859041
              11.58213779                2.61499383               67.02407563                0.00010000                0.11532026                0.27263398               -0.72175173               -0.21799176               -0.38950557               -0.48197140
              12.58390776                2.16583130               66.63263687                1.00000000                0.30069751                0.60396336               -1.68306602               -0.26673764               -0.11803261               -0.26101866
              13.58815174                1.71399805               66.24594933                1.00000000                0.24413848                0.90436101               -2.68634225               -0.67987088                0.57443824               -0.60450988
              14.58879053                1.25167319               65.86982056                0.00010000              -11.82849173                1.45373785               -3.57312560              -21.47380058               14.38549714               -1.42099748
              15.35158190                0.36819692               65.76502646                0.00010000              -14.06404367                4.90524748               -5.32341268              -21.20717842               22.30545223                3.15608290
              16.30750966               -0.52451397               65.52673223                0.00010000                5.97251295                3.33516115               -4.86565641              -17.67092554               11.11421327               15.14491162
              17.47103216               -1.43614173               65.16727798                1.00000000                8.51086417                0.78325985               -2.00535472              -19.14766690                2.50734134                0.07426844
              18.47772694               -1.97070247               64.75663589                1.00000000                0.66947828                0.97066831               -2.56888092                0.10563488               -0.10785915               -0.09069816
               9.03118354                4.94685232               68.08086349                1.00000000               -0.37263494               -0.49331964                1.67615098               -0.03803121                0.02156814                0.81320547
              10.02745719                4.50446888               67.68803992                1.00000000               -0.24047742               -0.24276558                0.80456510               -0.00531630                0.08910121                0.11157698
              11.02637399                4.06144842               67.29599079                0.00010000                0.01903190                0.01152697               -0.05843276                0.00410028                0.12337487               -0.27194811
              12.02783783                3.61772017               66.90385516                1.00000000                0.26821431                0.29838494               -0.93421857               -0.05451449                0.46178734               -0.49413678
              13.03173828                3.17187093               66.51913057                1.00000000                0.52971268                0.59329581               -1.94456661               -0.07941508                0.72536645               -0.30091250
              14.03843208                2.72304166               66.13336104                1.00000000                0.76074077                0.89448649               -2.94649721               -0.37054469                0.95003623               -0.57204402
              15.04695309                2.26621057               65.75504214                0.00010000               -0.54141942                1.21616714               -3.93402756              -19.68236633               16.77008726               -0.92220683
              16.02760369                1.41724939               65.68895916                0.00010000               -0.69916827                1.44998480               -5.67426933              -28.17879273               29.08519873                8.26196318
              17.03296973                0.50883765               65.55966154                0.00010000               -1.24769746                4.66100190               -8.23647549              -30.82945770                5.45245587               17.19801279
              18.00264974               -0.42830913               65.02870052                1.00000000               -0.98128473               15.48043242               -3.24981476              -21.02419292               -5.97512177               59.15987183
              19.01334403               -0.96099579               64.61801759                1.00000000                1.06942887               16.76618925               -3.81334723               -1.69034063                0.11382784               61.22545780
               9.47187303                5.94235450               67.96073971                1.00000000               -0.30814346               -0.39392623                1.45156352               -0.04009913                0.18738746                0.96211585
              10.46879160                5.50233054               67.56428195                1.00000000               -0.17204789               -0.18821085                0.58732506               -0.00774260                0.39243611                0.02700043
              11.46843207                5.06182176               67.17144419                0.00010000                0.09166963                0.07497341               -0.27726200                0.00991914                0.85025399               -0.72957530
              12.47062499                4.62096153               66.78426719                1.00000000                0.42829495                0.43598361               -1.11675396               -0.19069792                1.57311613               -0.57343901
              13.47699797                4.17769721               66.40648454                1.00000000                0.78881088               -1.00996487               -2.16794561               -0.93407701                1.72850008                3.78211108
              14.48640121                3.73188778               66.02380630                1.00000000                1.19687503               -2.40817320               -3.14655069               -0.93654744                1.88046730                7.86682244
              15.50093547                3.27599653               65.65123212                0.00010000                2.94888799               -7.58584104               -4.09365103              -19.66719437               24.05224669               15.82107624
              16.54537897                2.39719661               65.71466593                0.00010000                1.77717778               -1.25179002               -6.69914460              -34.57266393               38.35772209               14.91416925
              17.53647903                1.56870607               65.64899952                0.00010000               -1.24986152                6.85741676               -8.06524305              -25.46233415               54.38996163               25.92338697
              18.52038174                0.87346692               66.07191948                1.00000000               -1.35927925               19.10341430              -31.90032429               -8.88432520               41.83011016               53.52667214
              19.50929344                0.36462131               65.70579459                1.00000000               -1.10882926               20.16132574              -29.44574110               -0.16719435                6.88693434               49.00702889
               9.91042948                6.93897379               67.83901798                1.00000000               -0.25943938               -0.28383202                1.22654865               -0.02208578                0.30444008                0.79727275
              10.90783509                6.50070466               67.43820416                1.00000000               -0.12440451               -0.15153800                0.37972193                0.06125537                0.53948814               -0.37543778
              11.90794139                6.06294789               67.04168046                0.00010000                0.01566629                0.08174096               -0.51346161                0.20843427                1.65464220               -1.28278914
              12.90814841                5.62643984               66.66344413                0.00010000               -0.29054521               -0.52546433               -0.81141820               -1.88177590                6.57029081                2.59550351
              13.90213049                5.15167163               66.37624031                0.00010000                0.66267013               -2.30472436               -2.61937324               -3.53713910               10.71388393                7.03049973
              14.92140181                4.67487819               66.08229909                0.00010000                4.30849417               -5.85849070               -4.02991926               -6.48942135               14.38191216               13.87972841
              15.98830037                4.11449374               65.87351333                0.00010000                6.10195283              -12.16589447               -5.54259632              -16.52440476               22.53528355               23.12603500
              17.04344087                3.39221359               65.75753169                0.00010000                2.95761840               -1.25833851               -6.93832330              -25.13394129               34.14985394               15.67294639
              18.04745274                2.64598598               65.79210724                0.00010000               -0.71964368                5.24253208               -8.67010674              -21.64405021               50.97024428               19.24274072
              19.02904800                1.95375915               65.99100781                0.00010000               -0.98806919                4.19622523               -0.34331869               -9.23029637               29.27685043                6.15669507
              20.02769135                1.44223073               65.60624715                1.00000000               -0.13566443                4.06039814               -0.19556445                0.39650783                0.16188504                5.51869867
              10.34796958                7.93667786               67.71503883                1.00000000               -0.19269771               -0.16902921                1.00606503                0.01786870                0.06750400                0.66942897
              11.34604260                7.49929978               67.30622813                0.00010000               -0.05520023               -0.13458425                0.19426261                0.15634119                0.53472262               -0.59131318
              12.34686558                7.06345657               66.90646233                0.00010000               -0.08884381               -0.05281354               -0.66863619               -0.53319975                5.91797022               -1.90563580
              13.34426573                6.61045224               66.60586330                0.00010000                0.54756291               -1.12616340               -1.81777012               -2.35315808               11.61495039                3.39593560
              14.35781684                6.13160272               66.32609302                0.00010000                2.47624689               -2.01327197               -3.24774585               -4.12380571               14.04918152                5.13167152
              15.39379067                5.61471796               66.08470801                0.00010000                4.76475718               -4.96086670               -4.74410037               -8.07995600               17.73058690                8.81707306
              16.45311198                5.03267864               65.89123611                0.00010000                5.87086183               -6.32806187               -6.12287041              -15.56265399               23.07507037               10.64714098
              17.51120790                4.37202984               65.77138365                0.00010000                4.44702399               -2.16622668               -7.00981086              -20.90589255               30.96453914               10.92746808
              18.54205246                3.67355671               65.74263036                0.00010000                1.41615793                1.27546318               -5.30817062              -21.42885156               39.00329945                7.72452855
              19.53953106                2.95739142               65.78598048                0.00010000               -0.08860024                0.40049911               -0.57644547              -10.30002811               21.34893177               -0.33081777
              20.54028045                2.44582928               65.40200467                0.00010000                0.07493924                0.41710899               -0.47242509               -0.00513766               -0.06926347                0.09994967
              10.78554302                8.93559321               67.59042512                0.00010000               -0.13598175               -0.08403144                0.77858991                0.01035146                0.02564766                0.65424382
              11.78418320                8.49801297               67.17563827                0.00010000                0.02909606               -0.08901346                0.02880251                0.14106977                0.20515798               -0.45929799
              12.78612494                8.06189162               66.76422758                0.00010000                0.43779502               -0.08452807               -0.71090389               -0.82494154                7.72085645               -1.97894617
              13.79293910                7.60391657               66.50081987                0.00010000                1.46318551               -0.23122336               -2.38900488               -2.76773683               15.38126468                0.38408584
              14.81538865                7.11140619               66.25064645                0.00010000                3.28938398               -1.46324754               -3.93119659               -5.89362513               16.79661215                2.66485877
              15.85872678                6.57566086               66.02732938                0.00010000                5.21733809               -3.10089012               -5.40165315               -9.92870400               19.25665414                4.69705200
              16.91973541                5.98793251               65.84112632                0.00010000                6.28590835               -3.63827306               -6.64829470              -14.61943391               22.66593367                6.03129904
              17.98444495                5.34888906               65.70189727                0.00010000                5.68893573               -2.21884388               -6.99931239              -18.18215807               27.05895825                5.72230018
              19.03351412                4.67149524               65.61609428                0.00010000                3.31649632               -0.54452070               -5.17276238              -19.97402785               31.95076494                3.15972020
              20.05077487                3.96176914               65.57491688                0.00010000                0.85993840                0.54073072               -0.60714260               -9.93628375               17.08306505               -1.00526291
              21.05071289                3.45057291               65.19417886                0.00010000               -0.00619803                0.48582607               -0.44955068               -0.07784279               -0.05398957               -0.46647287
              11.22333708                9.93499723               67.46615742                0.00010000               -0.07714914               -0.05183896                0.54198226                0.01263675                0.00948418                0.65133398
              12.22256559                9.49751951               67.04596504                0.00010000                0.05630346                0.00119617               -0.12780687                0.15758156                0.00883466               -0.36208707
              13.22446315                9.06176601               66.62561087                0.00010000                0.84154152                0.09130633               -0.70715696               -0.77394837                8.46636324               -1.54682044
              14.23939642                8.60582777               66.37521570                0.00010000                2.18684480                0.83715651               -2.79701000               -3.75013931               17.30355043               -2.36700063
              15.26820005                8.10233777               66.14016517                0.00010000                3.96469266               -0.45981140               -4.44287138               -7.76072372               18.74413114               -0.20144782
              16.31869027                7.55270016               65.93214436                0.00010000                5.96475291               -1.78641336               -6.08239163              -11.20938293               20.56277292                2.15861414
              17.38749510                6.95991318               65.74772496                0.00010000                7.26558660               -2.35675619               -7.35083588              -14.29364491               22.18298257                3.49990815
              18.46400200                6.32765296               65.58847421                0.00010000                7.10983593               -1.98384157               -7.64802445              -16.58313805               24.09101179                3.43745629
              19.52969182                5.66266630               65.45733357                0.00010000                4.88628604               -0.97337834               -5.60640229              -18.08184228               26.45203508                1.69870732
              20.56172772                4.96820604               65.35115306                0.00010000                1.57121181                0.71851931               -0.61618297               -9.10733356               13.75072480               -1.16492668
              21.56111606                4.45554580               64.97366032                0.00010000               -0.06116667                0.37082974               -0.30059009               -0.04019532               -0.00842563               -0.76845011
              11.66075120               10.93455643               67.34188887                0.00010000               -0.01851433               -0.04333547                0.30954961                0.02429405               -0.00065043                0.61531329
              12.66056605               10.49803690               66.91691502                0.00010000                0.07932582                0.09407364               -0.26697832                0.19518246               -0.08163171               -0.28146461
              13.66233771               10.06371775               66.49021152                0.00010000                0.83992502                0.23755822               -0.67028195               -0.13438178                6.93716048               -1.17033145
              14.67736455                9.62065970               66.20573591                0.00010000                2.54820369                1.57637633               -2.09958915               -4.87345218               17.28391017               -8.44108445
              15.71330179                9.10220996               65.99739515                0.00010000                4.97995817               -0.00353649               -4.62603637               -9.53139611               21.64376479               -2.33244617
              16.77696372                8.53993259               65.81147431                0.00010000                7.28039609               -1.09664555               -6.79198034              -11.90342171               22.44760315                0.56424624
              17.85890971                7.94079738               65.63030905                0.00010000                8.65326742               -1.65275444               -8.31326010              -13.76762045               22.24288753                2.25488000
              18.95002906                7.30921223               65.45505702                0.00010000                8.62072491               -1.69892052               -8.66493426              -15.23656213               22.02449005                2.66817860
              20.03132421                6.65202768               65.28586700                0.00010000                6.28598195               -1.14814299               -6.32876884              -16.01307990               21.85070943                1.55965287
              21.07574870                5.97613952               65.12271040                0.00010000                2.19526294                0.67017582               -0.50688235               -7.99026177               10.75392857               -0.70094066
              22.07522946                5.45798950               64.74692822                0.00010000               -0.05192390                0.12655350               -0.04228268               -0.07950646                0.09845750               -0.49993638
              12.09686202               11.93413053               67.21766157                0.00010000                0.04458957               -0.03032196                0.08923610                0.03204792               -0.02834048                0.55189604
              13.09730792               11.49940099               66.78849884                0.00010000                0.11453424                0.14928156               -0.37706090                0.18373796               -0.08203313               -0.16474601
              14.09915271               11.06651718               66.35818787                0.00010000                0.30636182                0.24635924               -0.60028768                0.45404354                1.06830051               -0.73305301
              15.10343516               10.63735530               65.95171292                0.00010000                2.95732615                0.82372301                0.45697209               -5.32269575               16.77908433               -7.73859501
              16.15829923               10.10226704               65.84088950                0.00010000                6.92996312               -0.32983091               -4.47479046              -10.05948018               28.25364559               -3.01990423
              17.24203442                9.53076725               65.67690157                0.00010000                9.22819140               -1.15437876               -7.53647042              -10.87229735               24.49277800               -0.23491451
              18.34286306                8.92685809               65.50073116                0.00010000               10.30030238               -1.20600091               -9.46598039              -11.93461328               22.63504597                1.56044255
              19.44804047                8.29367455               65.31323801                0.00010000                9.98199329               -1.19706950               -9.94457504              -13.12143840               20.52210607                2.32797105
              20.54250293                7.63970344               65.11152041                0.00010000                7.39600995               -1.22261908               -7.22398356              -13.69197798               17.99913282                1.73130773
              21.59596067                6.98160955               64.89963763                0.00010000                2.66615227                0.39838837               -0.37228048               -6.81751959                8.26075921               -0.31773835
              22.59582597                6.45807687               64.52510134                0.00010000               -0.01346943               -0.01503864                0.08589708               -0.05431783                0.13705816               -0.10149851
              12.53085123               12.93394999               67.09302744                0.00010000                0.10029263                0.01411962               -0.12484056                0.00545496                0.06764642                0.42521756
              13.53185416               12.50102253               66.66160917                0.00010000                0.13065185                0.16804842               -0.47693979                0.08385835                0.09894413               -0.02253484
              14.53346427               12.06864493               66.23094244                0.00010000                0.16533056                0.19787401               -0.54248940                0.15476200                0.31574321               -0.30012737
              15.53516077               11.63713416               65.80374000                0.00010000                4.26179807                0.00372221               -0.05167392               -5.44037911               15.82872504               -1.44995233
              16.61870023               11.09561335               65.68771660                0.00010000                9.98829764               -2.17653475               -4.34228978               -7.42047988               29.35225352               -2.07663293
              17.73492672               10.51684502               65.53908749                0.00010000               11.93049527               -1.67744673               -8.29827483               -7.09364922               25.85228485               -0.36717151
              18.85731014                9.91667737               65.36493521                0.00010000               11.99141115               -0.96569897              -10.78104894               -7.38542704               22.59291297                0.90233592
              19.97475495                9.28527084               65.16708813                0.00010000               10.61197546               -0.39760983              -11.56066530               -8.64682534               18.89160837                1.54966459
              21.06954965                8.62757530               64.93753664                0.00010000                7.31349687               -0.17711954               -8.46518396               -9.33116768               14.34727346                1.56920990
              22.12102488                7.98410729               64.67983645                0.00010000                2.58294162                0.19123838               -0.32484676               -5.88709465                5.90893798               -0.21930674
              23.12120848                7.45768873               64.30685381                0.00010000                0.01835948               -0.01462393                0.01493811                0.00611913                0.11940457                0.06083938
              12.96282605               13.93441292               66.96696347                0.00010000                0.14640994                0.04629279               -0.31572797                0.03238501                0.36648480                0.32137559
              13.96429015               13.50276195               66.53573720                0.00010000                0.16551350                0.17394258               -0.65029316                0.04668566                0.45682721                0.07556097
              14.96613632               13.07047466               66.10641916                0.00010000                0.16845066                0.18297265               -0.68785961                0.00059407                0.80446482               -0.09145178
              15.96765916               12.63742974               65.68195107                0.00010000                8.20212317                0.02955813               -0.21844903               -7.33707654               15.79123648               -0.14132898
              17.13017878               12.05873635               65.55712177                0.00010000               15.57191285               -3.68769970               -4.70692265               -5.86271658               28.65806131               -1.22566807
              18.27909742               11.49721831               65.40462797                0.00010000               14.82749604               -1.96267020               -9.15980431               -3.14254264               24.87527184               -0.36231921
              19.42672870               10.90754411               65.22401169                0.00010000               14.25543063               -0.91332543              -12.28991229               -3.63294148               20.92319760                0.30004772
              20.56420603               10.28572236               65.01270252                0.00010000               11.51572084                0.04515220              -13.67541701               -4.62404481               16.18663072                0.62503617
              21.65704312                9.63616105               64.76096648                0.00010000                4.19496557                0.85857532              -10.77808738               -6.26505467                9.88910697                0.62305630
              22.64810534                8.98543432               64.46153912                0.00010000               -0.41288200                0.13270309               -0.53428568               -6.21078733                3.67472696               -0.30890363
              23.64878548                8.45778439               64.08937471                0.00010000                0.06801370                0.00956608               -0.27959223               -0.00729328               -0.08038950                0.02624174
               8.98038019                4.08286938               69.22285005                1.00000000               -0.40359118               -0.49092216                1.72385855               -0.15290025               -0.43732097                0.55694698
               9.97634428                3.63309999               68.82199201                1.00000000               -0.29389049               -0.25458014                0.94941781               -0.11935867               -0.53047828                0.07082394
              10.97450238                3.18280037               68.41859844                0.00010000               -0.07612364               -0.02539902                0.18710002               -0.11750940               -0.53803101               -0.07384130
              11.97482181                2.73156370               68.01749663                0.00010000                0.08600724                0.22752757               -0.59239120               -0.19710389               -0.41348905               -0.46141101
              12.97622253                2.27795796               67.61703808                0.00010000                0.24512921                0.51971256               -1.43399440               -0.24724308               -0.20438116               -0.27527100
              13.97972439                1.82184048               67.22088448                0.00010000                0.05407486                0.78294006               -2.32118545               -0.76546904                0.52298485               -0.60115823
              14.97730402                1.35344096               66.83644702                0.00010000              -11.51868437                1.41423618               -3.09322248              -20.93831282               13.84423820               -1.54746273
              15.74935070                0.47538332               66.71327461                0.00010000              -12.71978808                5.02877789               -4.88920084              -20.76545330               22.70328929                3.18102245
              16.72290826               -0.40466319               66.48066256                0.00010000                6.73671454                2.21995171               -4.41217161              -18.95273842               13.46604823               11.45998262
              17.88408500               -1.29080204               66.14808231                1.00000000                8.36220210                0.78200394               -1.83040359              -17.87062043                4.14638792                0.05327102
              18.89015231               -1.82684370               65.73180172                1.00000000                0.60673097                0.96786234               -2.38946528                0.17738660               -0.09749070               -0.08900535
               9.42862058                5.07796016               69.09690396                1.00000000               -0.34353825               -0.45207197                1.53124688               -0.03312059                0.02797144                0.78566432
              10.42518520                4.63055419               68.69584552                1.00000000               -0.22625737               -0.22811235                0.75680212               -0.00328039                0.09972931                0.10341812
              11.42409543                4.18254638               68.29563748                0.00010000                0.00433878               -0.00093031               -0.01106122                0.00214685                0.13106416               -0.26858513
              12.42527197                3.73383898               67.89522867                1.00000000                0.22581369                0.24957111               -0.78726060               -0.05266131                0.40111246               -0.46148658
              13.42861171                3.28315509               67.50101277                1.00000000                0.45281143                0.51056890               -1.67534617               -0.07814654                0.60515153               -0.29880231
              14.43432820                2.82966988               67.10580968                1.00000000                0.62688860                0.77551328               -2.55830442               -0.40893936                0.83277602               -0.54590402
              15.44114948                2.36758332               66.71811593                0.00010000               -0.67899779                1.14172278               -3.44594259              -19.05168542               16.19190996               -0.92440012
              16.42074825                1.52567110               66.63353834                0.00010000               -1.23379616                1.71707407               -5.48074689              -28.34372452               27.32376333                7.27025951
              17.41647356                0.61753633               66.46848900                0.00010000               -0.21395978                6.34829293               -9.46082082              -30.90003908                8.13369261               17.28315105
              18.41646905               -0.28298200               65.99521252                1.00000000                0.57471415                7.00650927               -3.45360644              -20.61915112               -2.81476780               34.13111210
              19.42796784               -0.81716508               65.57888313                1.00000000                1.14987881                2.32935635               -4.01120079                2.13144682                0.10118745               38.04244638
               9.87452972                6.07382794               68.97461763                1.00000000               -0.28372719               -0.36383719                1.32410877               -0.03484587                0.18752086                0.92386365
              10.87169245                5.62853774               68.57000859                1.00000000               -0.16345949               -0.17767423                0.55829489               -0.00546656                0.39264960                0.01978183
              11.87126053                5.18278176               68.16899771                0.00010000                0.07337129                0.05979602               -0.21109280               -0.00170829                0.86125411               -0.73275392
              12.87315987                4.73655512               67.77387313                0.00010000                0.37840804                0.49154311               -0.96294748               -0.70603590                1.50124809               -0.09997952
              13.87882869                4.28816934               67.38621095                0.00010000                0.69787472               -1.03876459               -1.88096392               -1.28001582                1.58659834                3.65024324
              14.88711737                3.83735075               66.99429370                0.00010000                1.07202052               -2.27368106               -2.75059731               -1.35700498                1.77832924                7.51023718
              15.90026910                3.37627542               66.61272416                0.00010000                2.27029193               -7.06262529               -3.60890223              -19.59286826               22.70574585               15.11263975
              16.93252321                2.50972480               66.64210448                0.00010000                0.66457359               -0.26424151               -7.02523888              -32.47305747               37.82023364               13.80498995
              17.91356057                1.72230267               66.58600599                0.00010000               -1.30599110                8.43087585               -9.71799963              -31.53243267               33.57781483               23.74121734
              18.90640338                0.84932815               66.52387564                1.00000000                4.37934172               22.25054584              -45.92754899              -25.27898556               20.82675832               62.06804377
              20.00114741                0.21974342               66.18865165                1.00000000                9.47440231               23.52588268              -46.21294664              -13.60648076                8.98746828               61.81372773
              10.31850406                7.07068341               68.85073069                1.00000000               -0.23820179               -0.26684070                1.11722740               -0.02132527                0.30154450                0.75440827
              11.31612204                6.62700070               68.44194426                0.00010000               -0.12300862               -0.14094101                0.36776926                0.05324337                0.51787302               -0.36800445
              12.31604389                6.18374230               68.03702336                0.00010000               -0.51791807                0.08091182               -0.41628553                0.28066064                2.09275431               -1.25024359
              13.30576368                5.74366984               67.65991880                0.00010000               -0.69140598               -0.55716519                0.26462461               -1.99806943                6.20795522                1.53145361
              14.30221577                5.26237980               67.35079655                0.00010000                0.66591726               -2.12069108               -2.49322348               -3.84482063                9.66936126                6.70820677
              15.31908202                4.78419626               67.04268199                0.00010000                3.73511475               -5.32181985               -3.77453833               -6.67420626               13.42743522               13.13017620
              16.37691806                4.22633082               66.81740444                0.00010000                5.30889087              -11.01103118               -5.52615794              -16.22673708               21.10731859               21.96000989
              17.42525984                3.52038627               66.68330803                0.00010000                3.46517446               -0.04209971               -7.94848667              -23.98631122               31.66565949               14.97650843
              18.44622155                2.78615385               66.68809641                0.00010000               -0.59056265                5.82935668              -12.43689910              -17.50217067               53.61630500               18.35842666
              19.41344859                2.16202892               66.98678538                0.00010000               -1.56069381               15.76464602               -1.37805088               -5.83361291               34.10071940               33.04350403
              20.41500767                1.65335257               66.60373487                0.00010000                0.15590855               21.78552927               -0.86156075               -4.76441265                0.47853395               31.15506831
              10.76146864                8.06849112               68.72463983                1.00000000               -0.17702088               -0.16901820                0.91769908                0.01106041                0.06104251                0.61677412
              11.75969843                7.62571892               68.30817740                0.00010000               -0.06320143               -0.11882479                0.19268882                0.14096955                0.51306374               -0.56137731
              12.76020461                7.18440000               67.90043485                0.00010000               -0.25687186                0.00321900               -0.54895919               -0.59323847                5.74427497               -1.76216594
              13.75456099                6.72541182               67.58925611                0.00010000                0.06006247               -1.03252680               -1.67447581               -1.88450794               11.02965977                2.37896960
              14.76140586                6.24575552               67.29459417                0.00010000                1.75606156               -1.58388605               -2.96211828               -3.72127726               13.06342495                4.49053604
              15.78968222                5.73091435               67.03758146                0.00010000                3.90692488               -4.25076243               -4.55977688               -7.61212513               16.54705902                8.17588103
              16.83954435                5.15605479               66.82826705                0.00010000                5.16458658               -5.27709331               -6.24227224              -14.59576113               21.59177514               10.01851469
              17.89297395                4.50888280               66.69509462                0.00010000                4.11650755               -1.06818753               -8.29184094              -18.96965144               30.26620838               10.65388568
              18.92187450                3.83888981               66.68242884                0.00010000                1.47792246                3.06465345               -7.84700616              -18.83413014               41.72856714                9.52685478
              19.92253240                3.16462107               66.78047039                0.00010000                0.06686711                0.44511145               -0.72416734               -8.26979535               23.91045581               -0.33533763
              20.92321185                2.65545401               66.39770210                0.00010000                0.06794459                0.42806362               -0.46282565               -0.14746906               -0.10818655                0.16948105
              11.20426967                9.06730305               68.59786323                0.00010000               -0.12371196               -0.10411868                0.71624921                0.00129185                0.02060026                0.58423217
              12.20303255                8.62462421               68.17598245                0.00010000                0.01082722               -0.07017540                0.03363292                0.14900150                0.21902809               -0.41554833
              13.20448622                8.18380668               67.75781061                0.00010000                0.18427236               -0.00098485               -0.60230084               -0.69863893                7.26297674               -1.78527729
              14.20671800                7.72301930               67.47770729                0.00010000                0.89007357                0.10981453               -2.16058398               -2.48728751               14.43422155               -0.18229008
              15.22228769                7.23070208               67.21228471                0.00010000                2.49111218               -1.00440891               -3.63073045               -5.27781019               15.79765217                2.00468547
              16.25654025                6.69918101               66.97384427                0.00010000                4.23733468               -2.42791541               -5.14523129               -8.94996813               18.03374491                4.01612344
              17.30703438                6.12078895               66.77348830                0.00010000                5.32457775               -2.72081952               -6.70173136              -13.09093246               21.33204975                5.50088000
              18.36303180                5.49902251               66.62702976                0.00010000                5.33831489               -1.04252480               -7.94923797              -16.13570415               26.52550642                5.53157698
              19.41380068                4.84744692               66.55785937                0.00010000                3.42283394                0.43159644               -7.50273391              -17.06903401               34.04475263                3.15795625
              20.43148848                4.17093115               66.56832427                0.00010000                0.82958664                0.98033843               -1.06554151               -8.44948264               19.41622600               -0.89917671
              21.43039241                3.66191385               66.18966889                0.00010000               -0.10960652                0.88777277               -0.58738140               -0.20531588                0.01752543               -0.25864488
              11.64685216               10.06640875               68.47139751                0.00010000               -0.06773331               -0.08872031                0.51676694               -0.00244604                0.00178497                0.57561718
              12.64617482                9.62431541               68.04475274                0.00010000                0.04922878                0.01571685               -0.12611338                0.16197401                0.05565256               -0.31634121
              13.64783673                9.18438030               67.61898385                0.00010000                0.58725103                0.13864713               -0.65300182               -0.55396487                7.82536480               -1.37539956
              14.65791984                8.72760811               67.34813518                0.00010000                1.59256054                1.01731367               -2.41106929               -3.09778782               16.11840226               -2.25027268
              15.67968794                8.22566734               67.09778150                0.00010000                3.13380682               -0.16278577               -3.95899938               -6.86011067               17.67820863               -0.76940983
              16.72059598                7.68235604               66.87269092                0.00010000                4.90981289               -1.28102361               -5.64324473               -9.79912701               19.18856083                1.45156749
              17.77788420                7.10163840               66.67451602                0.00010000                6.15029616               -1.58523737               -7.15277413              -12.32509131               20.73585967                2.87295452
              18.84360190                6.48803231               66.50931289                0.00010000                6.53504945               -1.06899413               -8.08957392              -14.17218774               23.44997134                3.09092885
              19.90858519                5.84752174               66.39652739                0.00010000                4.77369581               -0.12509421               -7.66088068              -15.39201062               28.17877202                1.79595978
              20.93907582                5.18422784               66.34364111                0.00010000                1.42774727                1.24476031               -1.35798568               -7.80048167               15.97941203               -0.94357709
              21.93714014                4.67320946               65.96998427                0.00010000               -0.19356847                0.81491923               -0.59476080               -0.14120318                0.09322424               -0.44514234
              12.08840743               11.06552864               68.34502838                0.00010000               -0.01069482               -0.08706112                0.32880829               -0.00570637               -0.00986274                0.55284976
              13.08830048               10.62493854               67.91424469                0.00010000                0.08533975                0.09938615               -0.28523150                0.16428808                0.00280782               -0.23577028
              14.09011422               10.18657962               67.48355225                0.00010000                0.75873634                0.25961945               -0.70109592                0.05202092                7.04283939               -1.01988612
              15.10347521                9.74336557               67.19348866                0.00010000                2.01116598                1.67117962               -1.31969322               -4.32248189               16.50826385               -7.48831088
              16.13033754                9.22744636               66.95435227                0.00010000                4.05557166               -0.00014040               -3.77951853               -8.51953750               19.84778734               -2.65664201
              17.18458664                8.67356054               66.74632431                0.00010000                6.22593729               -0.82127133               -6.09499439              -10.13090579               20.66594949               -0.11503398
              18.25485629                8.08908421               66.54938586                0.00010000                7.45590363               -1.13423919               -7.73435470              -11.46164522               20.52211782                1.59378047
              19.33370471                7.47764263               66.36962633                0.00010000                7.74543239               -1.03164458               -8.52443079              -12.54860779               21.31542144                2.44313170
              20.40976494                6.84494503               66.22292791                0.00010000                5.80432015               -0.48023469               -7.44678310              -13.45320258               24.05663689                1.94409930
              21.44979112                6.19582636               66.11761866                0.00010000                1.99200801                0.83268059               -0.80817308               -6.84732778               13.22236399               -0.40938468
              22.44960510                5.67821223               65.74611537                0.00010000               -0.01860189                0.22427424               -0.19995606               -0.16475034                0.08828728               -0.27032949
              12.52791823               12.06466753               68.21884605                0.00010000                0.04913760               -0.06758260                0.15432667               -0.01982620               -0.01762936                0.51269588
              13.52840960               11.62630314               67.78450921                0.00010000                0.12659455                0.15953998               -0.44733165                0.11447050                0.05953031               -0.12750638
              14.53045012               11.18957269               67.35162317                0.00010000                0.10969330                0.29454240               -0.75745863                0.59555385                2.49436658               -0.58266231
              15.53060347               10.76103170               66.96564403                0.00010000                2.43260554                0.73643992                3.43537228               -5.12986009               16.89972315               -8.61247775
              16.57910223               10.22566453               66.80141747                0.00010000                6.28682751               -0.60967111               -3.63227853               -9.06501576               24.95360497               -3.15221273
              17.65634002                9.66593061               66.60576311                0.00010000                8.27334867               -1.07498692               -6.50026628               -8.93748890               22.02981810               -0.79981140
              18.74456920                9.07895362               66.41061170                0.00010000                9.02144500               -0.95449104               -8.43357283               -9.64763425               20.51518390                1.06287139
              19.83676892                8.46739942               66.21996480                0.00010000                8.83841061               -0.85826591               -9.12043712              -10.54388845               19.80436150                2.27150836
              20.92133741                7.83791704               66.04611465                0.00010000                6.60465736               -0.85460809               -7.09199618              -11.44568511               20.99748270                2.24743987
              21.96886207                7.20088145               65.89688796                0.00010000                2.38679812                0.34417396               -0.36427044               -5.84192423               11.05223271               -0.04189882
              22.96907338                6.67769495               65.52564748                0.00010000                0.02113104               -0.06860429                0.02409537               -0.12947123                0.01894629               -0.01478903
              12.96473969               13.06417699               68.09232149                0.00010000                0.09450355               -0.01820011               -0.01222181               -0.04577169                0.10876182                0.40314220
              13.96568473               12.62812934               67.65616941                0.00010000                0.12785223                0.21224786               -0.64858741                0.02316039                0.33896545               -0.00948331
              14.96729674               12.19247047               67.22459007                0.00010000               -0.04492803                0.29006312               -0.81112962                0.10589814                1.16857117               -0.18914845
              15.96478617               11.75809437               66.80477703                0.00010000                3.84207900               -0.11856576                3.40953819               -5.37719775               17.00841141               -3.99968456
              17.04413832               11.21525294               66.65035857                0.00010000                9.38808046               -2.52904408               -3.41787526               -6.55481468               26.66434621               -2.57071184
              18.15254778               10.65206080               66.46143967                0.00010000               10.81482436               -1.65436458               -6.97243973               -5.62414074               22.49956878               -0.60589157
              19.26043480               10.06999438               66.26450560                0.00010000               10.56578739               -0.96714475               -9.21822714               -5.81282266               19.86331755                0.63852171
              20.36386352                9.46047731               66.06278620                0.00010000                9.34671991               -0.45446392               -9.90964612               -6.89010097               18.05585208                1.63120516
              21.44736920                8.82785287               65.86575929                0.00010000                6.46556007               -0.28891451               -7.21455451               -7.81321769               18.00464204                1.90527258
              22.49317472                8.20270983               65.67796013                0.00010000                2.30097368                0.13556946               -0.20931130               -5.01496809                9.13973459                0.03044861
              23.49338867                7.67684015               65.30705928                0.00010000                0.02139502               -0.05109016                0.02078334               -0.04133120               -0.00035555                0.05901354
              13.39909809               14.06430353               67.96442362                0.00010000                0.14812412                0.01265363               -0.17855602                0.06029639                0.37620511                0.30338064
              14.40057933               13.63054809               67.52831691                0.00010000                0.17524808                0.24187503               -0.88738067                0.04298175                0.70825717                0.08266199
              15.40260305               13.19537395               67.09874906                0.00010000               -0.01511410                0.29034837               -0.94668468               -0.06375390                1.66475788               -0.00206185
              16.40027705               12.75866039               66.68129013                0.00010000                7.57182295                0.05660124                3.43146900               -7.46542704               19.29844601               -4.28508210
              17.55403951               12.17508365               66.51577700                0.00010000               14.44193555               -4.01692870               -3.78943778               -5.30073383               25.38340268               -0.95574752
              18.68911576               11.63284332               66.31986507                0.00010000               13.29283635               -1.92174778               -7.51550383               -2.11684795               20.69548037               -0.31110389
              19.81989624               11.05961073               66.11144132                0.00010000               12.59963272               -1.03836590              -10.11321946               -2.78051594               17.27756296                0.39091953
              20.94110841               10.45831014               65.89279159                0.00010000               10.14721522               -0.21671762              -11.05410508               -3.64910970               14.81389482                0.93946579
              22.02284054                9.83213875               65.67476737                0.00010000                3.92335094                0.42858800               -8.29336277               -5.18873098               14.49993589                1.23453165
              23.01957543                9.20359284               65.45903633                0.00010000               -0.14272040                0.08830049               -0.25711675               -5.13320957                7.74809864                0.02509289
              24.01998613                8.67667315               65.08830640                0.00010000                0.04107006               -0.01669991               -0.09001891               -0.03222359               -0.00482467                0.04233572
               9.38083644                4.21525203               70.23927637                1.00000000               -0.37003626               -0.44540044                1.56162343               -0.13332957               -0.41953984                0.53884602
              10.37713608                3.76089532               69.83116401                1.00000000               -0.27501618               -0.23746648                0.88538552               -0.10256860               -0.50717974                0.06662063
              11.37533612                3.30603630               69.42062973                0.00010000               -0.08538613               -0.03588601                0.21938810               -0.10208950               -0.51750084               -0.06981088
              12.37542836                2.85030153               69.01222781                0.00010000                0.05480849                0.18124100               -0.46093544               -0.17734645               -0.42732292               -0.43910700
              13.37643229                2.39237651               68.60395699                0.00010000                0.18870710                0.43455063               -1.18415438               -0.22605107               -0.26884481               -0.28657327
              14.37920250                1.93212448               68.19952562                0.00010000               -0.15735580                0.65898776               -1.95263026               -0.87132542                0.49482072               -0.59292724
              15.37328517                1.45738611               67.80795611                0.00010000              -10.88851781                1.40593024               -2.60128042              -20.06398360               13.31883225               -1.67930295
              16.16143214                0.59128989               67.66724244                0.00010000              -11.56311258                4.25348127               -4.19354418              -20.19029140               23.13637262                3.14135365
              17.14202292               -0.27096720               67.43848880                0.00010000                7.06943091                2.01244366               -3.91756249              -16.83668367               15.82219244                7.33588992
              18.30282076               -1.12933673               67.13066991                1.00000000                8.31576932                0.78565106               -1.65905443              -16.46996035                5.67764477                0.02809511
              19.30833831               -1.66664540               66.70884658                1.00000000                0.55175462                0.96486145               -2.20261627                0.23795879               -0.09366372               -0.09237058
               9.83385985                5.21079802               70.11148843                1.00000000               -0.31415984               -0.41234894                1.38571911               -0.02748225                0.03211860                0.76015114
              10.83071825                4.75852065               69.70317597                1.00000000               -0.21238666               -0.21339437                0.70956539                0.00039256                0.10684841                0.09640702
              11.82961212                4.30567744               69.29576957                0.00010000               -0.01167330               -0.01277552                0.03793514                0.00248907                0.13819579               -0.26491954
              12.83048479                3.85211394               68.88810995                0.00010000                0.18240887                0.19851409               -0.63666293               -0.04735365                0.35392741               -0.43326066
              13.83326030                3.39672201               68.48562365                0.00010000                0.37498265                0.42708919               -1.40290460               -0.07612444                0.50801089               -0.29167599
              14.83798444                2.93871436               68.08219495                0.00010000                0.49011665                0.65478648               -2.16629562               -0.45122596                0.73106335               -0.51969413
              15.84306263                2.47144542               67.68612329                0.00010000               -0.71392795                1.07873493               -2.95372194              -18.54676104               15.39100496               -0.93874821
              16.82370588                1.63382471               67.57934422                0.00010000               -0.45466161                1.61184131               -5.23910935              -27.76092512               25.06377963                6.56308886
              17.83396940                0.74915724               67.37044512                0.00010000                0.61271884                4.74451023               -9.23153783              -28.55318459               10.36654354               13.90267466
              18.83596026               -0.12148022               66.95962839                1.00000000                0.70285815               12.62958325               -3.65927120              -18.73517721                0.57710498               18.28410504
              19.84802656               -0.65699679               66.53779357                1.00000000                1.20663015               12.13447635               -4.19833554               -0.99403149                0.09732940               20.65887381
              10.28484153                6.20700505               69.98722189                1.00000000               -0.25770222               -0.33791320                1.19721231               -0.02909321                0.18631064                0.89024328
              11.28226451                5.75662743               69.57544784                1.00000000               -0.15244566               -0.16724467                0.52936243               -0.00213195                0.38955463                0.01316751
              12.28179262                5.30578079               69.16722234                0.00010000                0.05861008                0.04142207               -0.14279859               -0.00729020                0.86267856               -0.72890178
              13.28343671                4.85427181               68.76500824                0.00010000                0.32583768               -0.52140010               -0.80328968               -0.84064799                1.43852226                0.90570842
              14.28830937                4.40091829               68.36886527                0.00010000                0.60089336               -0.96347312               -1.58903319               -1.47786833                1.46925489                3.41852877
              15.29545458                3.94522021               67.96879436                0.00010000                0.94651166               -2.22602061               -2.34939112               -1.82996454                1.67678370                7.13065924
              16.30723961                3.47896081               67.57905408                0.00010000                1.65236184               -6.66471821               -3.12068207              -19.74677135               21.30327121               14.23066485
              17.32850181                2.62352672               67.57416115                0.00010000                0.95122772                0.24644547               -7.03454123              -33.63407995               33.91028962               12.10111468
              18.32626416                1.82392301               67.45463953                0.00010000                0.28847144                8.37872113              -12.22035822              -25.89698529               20.35477883               20.13091722
              19.33427124                1.12325493               67.15336850                0.00010000                1.66133213               23.97573569              -39.92956736              -14.42076083                9.70736745               62.68481074
              20.35949080                0.57604413               66.78153566                1.00000000                2.52195587               25.66392148              -46.78993520               -6.95425582                3.15586403               68.86508313
              10.73403322                7.20403976               69.86136253                1.00000000               -0.21333496               -0.25621227                1.01026276               -0.02271136                0.29801346                0.72277895
              11.73189987                6.75517576               69.44555955                0.00010000               -0.11056399               -0.12966935                0.35409595                0.03552415                0.50203025               -0.36557402
              12.73182194                6.30650588               69.03335475                0.00010000               -0.66827711                0.08226072               -0.31415870               -0.73050374                3.05444708               -1.21620883
              13.71853433                5.84168593               68.66873662                0.00010000               -0.95337086               -0.70143334                0.17948424               -2.08952187                6.35017319                1.33962256
              14.71275452                5.37745255               68.32637584                0.00010000                0.24041513               -2.04965037               -2.12921065               -3.25206881                8.42955602                6.35608080
              15.72334263                4.89419395               68.00680832                0.00010000                2.85330864               -4.90734570               -3.34498937               -7.18485599               12.73597001               12.31549635
              16.76982070                4.33815105               67.76299017                0.00010000                4.13597278              -10.09978670               -5.17995532              -16.76228070               19.44059463               20.49948858
              17.80606209                3.63875362               67.59856195                0.00010000                2.32403932                0.89295536               -8.24989900              -24.37754579               27.46964760               13.22376214
              18.81630148                2.91673166               67.54336926                0.00010000               -0.53190806                8.52039227              -15.91668741              -15.78676263               54.11466858               18.40740572
              19.79542393                2.35803449               67.96344679                0.00010000               -0.64692146               12.29454295              -12.27430737               -4.61271716               39.42784442               44.14717720
              20.80336305                1.85628164               67.58901594                1.00000000                0.79391280               14.36203775               -7.32638239               -2.96715940                2.47202199               46.33350570
              11.18211530                8.20188080               69.73339281                1.00000000               -0.16064322               -0.17597914                0.83377699               -0.00050792                0.05185360                0.58742206
              12.18050887                7.75403404               69.31008191                0.00010000               -0.07214636               -0.10245478                0.18708740                0.11308569                0.50388733               -0.54581154
              13.18067237                7.30742601               68.89548315                0.00010000               -0.49046308                0.05655929               -0.45209057               -0.79766035                5.48248075               -1.66644395
              14.17069960                6.84024314               68.57237378                0.00010000               -0.49561960               -0.01471196               -1.52294268               -1.94428093               10.57707942                1.16453552
              15.17075998                6.35992529               68.26685066                0.00010000                1.01796771               -1.45699918               -2.60451453               -3.53598256               12.50441040                4.07259661
              16.19105896                5.84707330               67.99351247                0.00010000                2.83371723               -3.66600397               -4.13592663               -7.40523720               15.63158114                7.45001732
              17.22743432                5.27696508               67.76639066                0.00010000                3.56556641               -4.32249550               -5.98900077              -14.11586258               19.92976542                9.16187406
              18.26237029                4.64138583               67.60554684                0.00010000                3.19068551                0.32743534               -8.76589809              -17.90561547               28.27598912               10.08670162
              19.29124803                3.99433085               67.58569024                0.00010000                2.00483168                5.19120788              -12.75228816              -15.77134263               43.55215227               10.82739914
              20.30246692                3.36914579               67.77149714                0.00010000                0.62026369                1.12901942               -4.37232847               -5.95900137               26.96459299               -1.99297989
              21.30365331                2.86328488               67.39274816                0.00010000                0.11863870                0.84180945               -1.81179329               -0.33553601               -0.39467042               -1.55030690
              11.62971658                9.20052018               69.60475011                0.00010000               -0.11001970               -0.12681856                0.66242915               -0.01200014                0.01462835                0.55912288
              12.62861638                8.75312667               69.17631093                0.00010000               -0.00284694               -0.05517940                0.02979167                0.13501635                0.24381532               -0.39856704
              13.62965964                8.30763707               68.75218156                0.00010000               -0.07334744                0.05451865               -0.54074914               -0.74096683                6.90033590               -1.69536560
              14.62714943                7.84139169               68.45760819                0.00010000                0.27725371                0.23989052               -1.83459891               -2.35286447               13.68999917               -0.41954465
              15.63520471                7.34831257               68.17803185                0.00010000                1.55243315               -0.75216350               -3.16528010               -4.70346611               15.04885012                1.43519612
              16.65819809                6.82087387               67.92442475                0.00010000                2.89931020               -1.89109143               -4.65107126               -8.09717087               17.10021306                3.34679346
              17.69319092                6.25170114               67.70709169                0.00010000                3.61929534               -1.77451868               -6.40696103              -11.87077736               20.02562408                4.77607027
              18.73058400                5.64530232               67.54291251                0.00010000                3.99618762                0.27445685               -8.47591464              -14.12627719               24.99296971                5.32243391
              19.77311467                5.02055582               67.46603960                0.00010000                3.83529351                1.95930499              -10.78420277              -14.84982181               35.54666481                2.71046283
              20.80728987                4.38061488               67.55360605                1.00000000                1.76297409                1.54471550               -7.64592252               -7.10229149               21.98152551               -0.75637260
              21.80837415                3.87311783               67.18243123                0.00010000                0.10842791                1.34557945               -3.53698455               -0.41765891                1.48713561               -0.98595838
              12.07666232               10.19934443               69.47649276                0.00010000               -0.05700165               -0.11776465                0.49886021               -0.02115994               -0.00505831                0.56992592
              13.07609230                9.75293046               69.04344277                0.00010000                0.04628454                0.02191786               -0.13767602                0.13269507                0.11327375               -0.31344624
              14.07758801                9.30851638               68.61255083                0.00010000                0.34372587                0.15218160               -0.65070833               -0.67993076                7.47169039               -1.33164129
              15.08296682                8.84504095               68.32699431                0.00010000                0.98102373                0.59964708               -1.91165254               -2.70269928               15.26888411               -2.18606107
              16.09720848                8.34488202               68.06098518                0.00010000                2.13800762               -0.14357058               -3.35162476               -5.67861542               16.74414891               -0.98707397
              17.12572697                7.80925147               67.81927946                0.00010000                3.41909213               -0.81570760               -4.98542122               -8.31781424               18.09445443                0.78561520
              18.16559032                7.24147470               67.60466948                0.00010000                4.26315477               -0.75619160               -6.67028580              -10.47586923               19.52725569                2.14487958
              19.21099006                6.64687497               67.42668273                0.00010000                4.66743599                0.10603121               -8.29662494              -11.78731543               21.92937336                2.59539261
              20.25893904                6.03351695               67.30411596                0.00010000                4.84345079                1.03832902               -9.78743860              -12.77424596               29.39663988                1.72061328
              21.30785908                5.40004010               67.32399335                1.00000000                2.56775893                1.70450519              -10.32626249               -6.68009166               18.23158025                0.00444059
              22.31029422                4.89019647               66.96176510                0.00010000                0.24351418                1.19009368               -6.33090478               -0.40298109                3.58709614               -0.29759028
              12.52212133               11.19816488               69.34846504                0.00010000               -0.00229938               -0.11265512                0.34680088               -0.03394578               -0.01214786                0.58001930
              13.52209833               10.75356502               68.91121039                0.00010000                0.09146013                0.09978390               -0.31976513                0.10724631                0.10722906               -0.25450195
              14.52395053               10.31068070               68.47618960                0.00010000                0.73157386                0.26548699               -0.78986723               -0.49315848                7.12840287               -1.01786266
              15.53672981                9.85338464               68.17934205                0.00010000                1.67356769                0.43882077               -1.19117341               -2.82855171               15.82918084               -4.25006130
              16.55742188                9.34544116               67.92180478                0.00010000                2.92596550               -0.08327595               -2.96658708               -6.43905744               18.43354549               -2.87260674
              17.59524912                8.80455972               67.68957442                0.00010000                4.43140774               -0.47979080               -5.18386010               -8.05771350               19.07842640               -0.69450633
              18.64605004                8.23657731               67.47562196                0.00010000                5.37731614               -0.42394630               -6.95250416               -9.18810234               19.11858919                0.86814477
              19.70279544                7.64742295               67.28456840                0.00010000                5.92072887               -0.04650543               -8.33279031               -9.88101108               20.02834326                1.81623090
              20.76446461                7.04132240               67.13693133                0.00010000                5.71065396                0.41519496               -9.42852733              -10.30637917               25.61180638                2.63517668
              21.81700852                6.41470498               67.10654694                0.00010000                2.77685865                1.01950054               -6.60894905               -5.73946423               15.26658351                0.38132937
              22.82000179                5.89691971               66.74292910                0.00010000                0.29932659                0.33203548               -3.13612848               -0.35894577                1.68931269               -0.09467086
              12.96518312               12.19709133               69.22074811                0.00010000                0.05382862               -0.08648101                0.20396879               -0.05605388               -0.00445376                0.57594106
              13.96572141               11.75492613               68.77955221                0.00010000                0.13610520                0.17300703               -0.53033692                0.05006765                0.23401307               -0.19123905
              14.96790522               11.31382612               68.34303870                0.00010000                1.29569606                0.35276886               -0.97821668               -0.84156144                6.17109149               -0.60232781
              15.99163533               10.85381737               68.02042037                0.00010000                2.46735130               -0.59451318                3.01294855               -2.88894679               16.45822445               -5.12709856
              17.01725225               10.34321650               67.76824393                0.00010000                4.09006097               -0.78007920               -2.55280016               -5.81295375               20.36788327               -3.34559621
              18.07343655                9.79965566               67.54689625                0.00010000                6.08563989               -0.69672438               -5.31228215               -6.73493851               20.08970703               -1.21332919
              19.13896505                9.23299578               67.33205970                0.00010000                6.75941023               -0.39795651               -7.27792604               -7.32654366               18.73835675                0.44947049
              20.20862475                8.64594486               67.13082927                0.00010000                7.32821892               -0.11774003               -8.53094493               -7.96760376               18.88739315                1.81454236
              21.28552943                8.04182085               66.96968049                0.00010000                6.44238702               -0.21471851               -9.07589653               -8.77554025               22.96359475                3.21091170
              22.33747249                7.42043011               66.89235222                0.00010000                2.65782168                0.39314559               -2.39971801               -4.97363026               13.46886046                0.47069297
              23.33868586                6.89683718               66.52558325                0.00010000                0.12133679               -0.03548137               -0.53729015               -0.20922935               -0.00957827                0.00115552
              13.40533064               13.19643526               69.09278300                0.00010000                0.10342582               -0.04075303                0.06884006               -0.07198707                0.10288837                0.48690449
              14.40636489               12.75702516               68.64863742                0.00010000                0.14487162                0.25970282               -0.80901402               -0.01453658                0.62297844               -0.12497565
              15.40822807               12.31773608               68.21471985                0.00010000                2.15978013                0.41446602               -1.15234205               -1.84888783                5.69360685               -0.21777399
              16.44956050               11.84149437               67.87193076                0.00010000                4.35482246               -2.75577265                4.11107357               -2.14658497               16.86552470               -3.45583417
              17.49532452               11.32983957               67.61935910                0.00010000                6.06052850               -1.72159843               -2.21140302               -3.44247479               21.32670306               -2.50168690
              18.57077107               10.79062523               67.39963869                0.00010000                7.89527224               -1.27551048               -5.44892939               -3.86576173               20.01449649               -0.83661801
              19.65322996               10.22861818               67.18057067                0.00010000                8.19236126               -0.57523616               -7.61602438               -4.25843494               17.71076792                0.26137080
              20.73461829                9.64506815               66.96889521                0.00010000                8.06192965               -0.07219906               -8.80936504               -5.15285081               17.33223739                1.43566239
              21.81446856                9.03702803               66.79324555                0.00010000                6.39506489                0.05073438               -8.72317341               -6.36162879               20.37621455                2.66135760
              22.86251959                8.42256789               66.67565022                0.00010000                2.42672534                0.16768338               -0.79761355               -4.43810823               12.04400437                0.43824720
              23.86300306                7.89621008               66.30726947                0.00010000                0.04834722               -0.03501577               -0.05122236               -0.06263247               -0.25142274                0.02366659
              13.84256358               14.19627627               68.96339235                0.00010000                0.15662810               -0.01589941               -0.06738454                0.10768621                0.35786346                0.40021146
              14.84412986               13.76012019               68.51798959                0.00010000                0.19473409                0.30950281               -1.10048272                0.06845478                1.11068185               -0.07598975
              15.84645826               13.32211544               68.08748546                0.00010000                4.62351380                0.43793608               -1.28130425               -4.24789506                6.47771468               -0.01385802
              16.93660013               12.79870191               67.75058045                0.00010000                7.64068186               -4.27924591                3.62988888               -1.96258209               18.63963639               -3.22826457
              17.99927189               12.30878453               67.48133302                0.00010000                8.03712861               -2.10550458               -2.32185157               -0.83308572               19.71215782               -0.79715344
              19.09734270               11.77414545               67.25431789                0.00010000               10.00407685               -1.64797849               -5.64836904               -1.70750986               17.98051246               -0.23564421
              20.19935343               11.22149106               67.02174730                0.00010000                9.99075887               -0.71271243               -7.85959518               -1.86988168               14.70337542                0.34749843
              21.29715788               10.64450088               66.79162042                0.00010000                9.07218356               -0.05672718               -9.11913077               -2.67881676               13.68201434                1.09484145
              22.38079710               10.04283554               66.59509922                0.00010000                4.61851985                0.58075094               -9.19923284               -4.40300020               17.17587022                2.18135102
              23.38952828                9.42378378               66.45639678                0.00010000                0.46758688                0.12158842               -0.76921376               -4.63406497               11.36393757                0.54703927
              24.39014884                8.89613686               66.08757434                0.00010000                0.06205610               -0.00732143               -0.20858436               -0.05011366                0.02533213                0.03701844
               9.78821411                4.34922217               71.25408252                1.00000000               -0.33667803               -0.40045155                1.40069425               -0.11399145               -0.40573887                0.52356707
              10.78484733                3.89040849               70.83969972                1.00000000               -0.25627684               -0.22099937                0.82231885               -0.08551525               -0.48910630                0.06305535
              11.78308857                3.43112447               70.42298620                0.00010000               -0.09496180               -0.04690896                0.25163479               -0.08588038               -0.50104566               -0.06697850
              12.78294809                2.97101728               70.00827792                0.00010000                0.02296224                0.13760470               -0.33016169               -0.15672894               -0.43446675               -0.41813138
              13.78354781                2.50889318               69.59335500                0.00010000                0.13367982                0.35201100               -0.94068201               -0.20478868               -0.31537291               -0.29464399
              14.78562169                2.04464329               69.18183188                0.00010000               -0.37919814                0.53639780               -1.59285718               -0.98581808                0.49294312               -0.58315567
              15.77596385                1.56352054               68.78442141                0.00010000              -10.20381098                1.41898504               -2.10402056              -18.94617695               12.94308545               -1.81397691
              16.58154547                0.71400684               68.62940372                0.00010000              -10.00196026                3.60073279               -3.34782512              -18.65327436               23.51631256                2.93461246
              17.57592465               -0.12185803               68.40231131                0.00010000                7.28673212                0.12971263               -3.30964885              -16.34863522               17.93382542                4.07283992
              18.72728011               -0.94815709               68.11490122                1.00000000                7.80005220                0.81586053               -1.50427064              -14.89809409                6.93294148                0.04334694
              19.73192569               -1.48658509               67.68774939                1.00000000                0.46455813                0.99084106               -1.99801947                0.32303644               -0.05135748               -0.05501251
              10.24588788                5.34521766               71.12461834                1.00000000               -0.28468502               -0.37317346                1.24105190               -0.02242042                0.03396163                0.73864994
              11.24304103                4.88819849               70.71003682                1.00000000               -0.19812535               -0.19954887                0.66280413                0.00367430                0.11033179                0.09036653
              12.24192537                4.43065538               70.29639618                0.00010000               -0.02722904               -0.02529616                0.08757701                0.00299842                0.14369271               -0.26144563
              13.24249644                3.97239333               69.88249541                0.00010000                0.13807772                0.15126689               -0.48715434               -0.04513941                0.31886646               -0.40657444
              14.24468692                3.51241329               69.47295468                0.00010000                0.29766901                0.34472716               -1.13399211               -0.07531001                0.43248786               -0.28207015
              15.24844982                3.05000727               69.06248377                0.00010000                0.35666918                0.53536322               -1.78146222               -0.49301771                0.64356334               -0.49512628
              16.25182031                2.57771039               68.65904149                0.00010000               -0.53739086                1.02506485               -2.46724914              -17.74946096               14.48898446               -0.95998134
              17.23770201                1.75001417               68.52875615                0.00010000               -0.41500246                0.92612593               -4.78739621              -27.23366054               23.00299141                5.79723387
              18.24352026                0.87943910               68.28385825                0.00010000                1.14803459                3.69274557               -7.20188862              -26.22442472               11.65394144               11.40762700
              19.26066270                0.06000152               67.92202710                1.00000000                1.50319014                2.36815241               -3.80590927              -15.48706436                3.33010645               -0.22623220
              20.27358406               -0.47667668               67.49491642                1.00000000                1.29213608                1.62039059               -4.33232889                0.13241351                0.05125685               -2.61293805
              10.70180402                6.34175870               70.99856188                1.00000000               -0.23209317               -0.31247960                1.07154653               -0.02499842                0.18321214                0.86448074
              11.69948309                5.88641751               70.58059584                1.00000000               -0.14251595               -0.15716677                0.50030884               -0.00053817                0.38394859                0.00615591
              12.69895370                5.43061854               70.16614174                0.00010000                0.04021501                0.02509677               -0.07439153               -0.01722519                0.86034240               -0.71674564
              13.70028739                4.97404262               69.75780734                0.00010000                0.27369856               -0.46482911               -0.63582790               -0.87906056                1.38383752                1.11713178
              14.70442767                4.51578772               69.35443029                0.00010000                0.50884199               -1.04486341               -1.30072621               -1.53219043                1.37059643                3.34623744
              15.71046423                4.05535055               68.94730587                0.00010000                0.82700289               -2.21095993               -1.95133091               -2.15143074                1.58020622                6.78171766
              16.72096773                3.58402184               68.55031052                0.00010000                1.23396595               -6.43631919               -2.63768906              -20.03325887               19.37273200               13.36023856
              17.73514355                2.73252936               68.50141365                0.00010000                1.02405349                0.17308274               -6.57547042              -33.77266292               31.05745007               11.09212405
              18.74144880                1.95199688               68.34159882                0.00010000                1.92555256                7.19060805              -12.90157689              -35.66067867                4.30898863               16.67822919
              19.77365460                1.09920596               67.72528430                0.00010000                3.32407797               18.34211539              -26.15419349              -25.52390340               -9.45892393               47.86405182
              20.80793036                0.54582272               67.25285294                0.00010000                3.42757608               22.27434366              -29.42457757               -8.35203634               -3.45860407               55.49104979
              11.15607029                7.33896806               70.87093594                1.00000000               -0.18998712               -0.24533576                0.90446354               -0.02511546                0.29217602                0.70578011
              12.15417042                6.88505516               70.44902618                0.00010000               -0.10572679               -0.11831001                0.34027600                0.01959979                0.49566319               -0.36838169
              13.15395576                6.43115731               70.03074019                0.00010000               -0.72121825                0.08128836               -0.21944534               -0.66748862                3.21823689               -1.19068767
              14.13974606                5.96309675               69.66350848                0.00010000               -1.06102884               -0.71058305               -0.63154999               -2.25968075                6.30002537                2.16391992
              15.13273518                5.49151602               69.30821234                0.00010000               -0.12794803               -2.01181377               -1.69507853               -3.56904883                7.95714337                5.94590045
              16.13718710                5.00578807               68.97578220                0.00010000                2.06205730               -4.65261417               -2.87070701               -7.51112029               12.25745027               11.60850849
              17.17397633                4.44898401               68.71380533                0.00010000                2.85433047               -9.44155416               -4.64576683              -17.35873395               18.49476554               19.08068557
              18.19427370                3.75347582               68.51831005                0.00010000               -0.51731216                1.68684621               -7.91961684              -26.08410682               23.42737454               12.42702637
              19.16363008                3.02325126               68.36976267                0.00010000               -1.89574551                9.03852825              -14.90283965              -22.05567754               49.02356435               15.52696761
              20.15635879                2.42684382               68.74129924                1.00000000                2.48398680               21.76981273              -47.80014918               -8.66646655               44.82105977               52.44395101
              21.21330982                1.96881019               68.45720723                1.00000000                5.69510236               24.26049323              -50.05112574               -2.55906188               22.67388024               56.67531471
              11.60912752                8.33685199               70.74131537                0.00010000               -0.14416868               -0.17912523                0.74980097               -0.01155220                0.04170287                0.58466694
              12.60768584                7.88405131               70.31191915                0.00010000               -0.07825907               -0.08815806                0.18046154                0.08496533                0.50155603               -0.54458814
              13.60756234                7.43224431               69.89139304                0.00010000               -0.64753848                0.08371864               -0.37043034               -0.84902171                5.31863735               -1.63462942
              14.59473507                6.95983096               69.55879725                0.00010000               -0.86034842               -0.15444331               -1.21281478               -2.08856089               10.32439642                0.89620109
              15.59035537                6.47555145               69.24250388                0.00010000                0.40193854               -1.31222710               -2.27003477               -3.69098680               12.26151638                3.65640949
              16.60277384                5.96229827               68.95486293                0.00010000                1.78749626               -3.27190886               -3.65636118               -7.40315646               15.20428420                6.76670221
              17.62610530                5.39519075               68.70848704                0.00010000                1.82101616               -3.54762311               -5.54282375              -14.04746034               19.28264056                8.28880744
              18.63919416                4.76626628               68.51977666                0.00010000                0.04309742                1.54297377               -8.62697271              -17.63768637               25.60357843                9.25920576
              19.62696725                4.13276745               68.42738308                0.00010000                0.77860871                7.99895967              -15.49911657              -14.06268580               46.07183020               11.16214565
              20.65476634                3.53460221               68.69302382                0.00010000                2.29245728                8.82318297              -29.36390283               -5.16831481               36.22140300               -0.85471966
              21.67281639                3.03103258               68.36146623                1.00000000                1.80500575                5.21837734              -26.17210493               -0.89821580               13.90995280               -1.49833578
              12.06144060                9.33538556               70.61111181                0.00010000               -0.09631990               -0.13798246                0.60404400               -0.02318431                0.00776868                0.57478692
              13.06047740                8.88329200               70.17657829                0.00010000               -0.01224642               -0.04521431                0.02603648                0.10712565                0.26850116               -0.40569845
              14.06119567                8.43283169               69.74699563                0.00010000               -0.29048501                0.07475644               -0.50007705               -0.85637302                6.66854928               -1.70107488
              15.05466770                7.96000788               69.44101531                0.00010000               -0.23737716                0.11610354               -1.51111837               -2.37160478               13.22537986               -0.52644342
              16.05644813                7.46527148               69.14897911                0.00010000                0.74084779               -0.66992596               -2.69409238               -4.38637953               14.63072395                1.10674839
              17.06948466                6.94034989               68.88082284                0.00010000                1.63054881               -1.46897989               -4.13748781               -7.56065020               16.69574009                2.75701286
              18.08905911                6.37803154               68.64534907                0.00010000                1.72293127               -0.95925109               -5.97761808              -11.05469248               19.57731575                4.02146343
              19.10394328                5.78433530               68.45751146                0.00010000                1.24906634                1.60089904               -8.68904502              -12.56261837               24.07823218                4.51402989
              20.11404043                5.18323045               68.34217531                0.00010000                2.53920386                3.91374124              -12.92021328              -10.43938473               35.03449922                3.80178721
              21.15472736                4.60330748               68.41540581                0.00010000                4.42221666                4.83867737              -24.45277985               -5.93803837               26.86291601               -7.83951853
              22.20248477                4.07317774               68.11892920                0.00010000                4.77574052                3.78636059              -22.15756199                0.01313329               14.82701851               -5.72308734
              12.51285096               10.33409234               70.48137472                0.00010000               -0.04687383               -0.12559403                0.46559668               -0.03287314               -0.00940198                0.61253016
              13.51238223                9.88314702               70.04199922                0.00010000                0.04340184                0.02235366               -0.14431560                0.09450982                0.16723918               -0.34354499
              14.51371900                9.43373944               69.60596969                0.00010000                0.12404775                0.14514107               -0.66410468               -0.88195225                7.31674327               -1.39957410
              15.51486318                8.96215303               69.30990213                0.00010000                0.42833860                0.24652060               -1.56069751               -2.59052852               14.78101975               -1.79032043
              16.52228577                8.46215293               69.03074900                0.00010000                1.19687948               -0.12680026               -2.80962296               -4.84532039               16.11432462               -0.97390693
              17.53880077                7.93291867               68.77298249                0.00010000                1.93701363               -0.41481315               -4.36707795               -7.16469315               17.49964666                0.30545566
              18.56102605                7.37600573               68.54111030                0.00010000                2.19710594                0.05126662               -6.15520125               -9.07297133               19.10654407                1.35209568
              19.58274289                6.79828426               68.34338039                0.00010000                1.90906613                1.27427077               -8.32692355               -9.79722712               21.78703344                1.76340636
              20.59920737                6.21104227               68.20077861                0.00010000                3.16576969                2.44267964              -11.50452697               -9.04632024               26.76862797                1.40265097
              21.64605828                5.63137576               68.13711586                0.00010000                6.70655938                1.58932953              -22.01531862               -5.49424068               19.52294707               -0.19250103
              22.73333856                5.10675979               67.84336618                0.00010000                8.72802726                1.96614671              -20.42726957               -2.05448320               13.01108979               -0.33666034
              12.96267377               11.33287368               70.35196440                0.00010000                0.00467299               -0.11119776                0.33307847               -0.04496126               -0.01068358                0.65441129
              13.96272050               10.88373907               69.90784938                0.00010000                0.09384281                0.09521476               -0.33545304                0.06389395                0.19598087               -0.31891218
              14.96455062               10.43573451               69.46775491                0.00010000                0.58615741                0.26282249               -0.87941965               -0.97579974                7.49214414               -1.15610126
              15.97444365                9.96493829               69.16966519                0.00010000                1.21127273                0.18739927               -1.10238039               -2.66497457               15.41318236               -2.72273715
              16.98877608                9.46273547               68.89502053                0.00010000                1.89471728               -0.04773184               -2.53957126               -4.75932083               17.10200983               -2.25608810
              18.01233799                8.93205363               68.64264710                0.00010000                2.67290057               -0.06594562               -4.38541761               -6.40804894               18.00023753               -1.08426562
              19.04223409                8.37905688               68.41033578                0.00010000                3.03121055                0.34942960               -6.21928195               -7.39278234               18.50894138                0.04688013
              20.07296220                7.80982071               68.20297053                0.00010000                2.88942198                1.05395997               -8.12213201               -7.64098609               19.59080512                0.86600092
              21.10002253                7.23208404               68.03435736                0.00010000                3.80814111                1.73893939              -10.67883301               -7.74238236               25.23622619                1.16037277
              22.14912503                6.63509407               67.98543968                0.00010000                5.53022545                0.49081312              -18.96709743               -4.16525699               18.73007073                7.54548162
              23.21062704                6.11250067               67.68339280                0.00010000                6.15020141                0.33089450              -17.27893546               -3.80528022               11.30463522                5.84248728
              13.41022096               12.33186838               70.22292543                0.00010000                0.05783206               -0.08014213                0.20194477               -0.06096393               -0.00076059                0.67917833
              14.41079928               11.88505132               69.77390247                0.00010000                0.13914141                0.17266879               -0.56021307                0.03072298                0.36025339               -0.31713988
              15.41300378               11.43899589               69.33205884                0.00010000                1.18817231                0.39668591               -1.17794114               -1.29126974                7.50552920               -0.77855100
              16.43456272               10.96590101               69.02590300                0.00010000                2.34901174               -0.30603434               -0.18793578               -2.73919184               15.46079542               -2.57387961
              17.45998402               10.46119829               68.75036146                0.00010000                2.98778327               -0.53026783               -1.90798657               -4.00564426               17.85297624               -2.50158590
              18.49431839                9.93159976               68.49951747                0.00010000                3.77096475               -0.20734172               -4.31281507               -4.94579099               18.20068003               -1.46776852
              19.53540331                9.38299432               68.26505318                0.00010000                4.12888060                0.32386643               -6.25471859               -5.45383708               17.82953180               -0.32805297
              20.57689600                8.81936346               68.04934591                0.00010000                4.18415223                0.92893475               -8.04096460               -5.61510418               17.89919780                0.84592358
              21.61908636                8.24582106               67.86459672                0.00010000                5.27202572                1.17886225              -10.21627697               -6.50277480               24.93347933                2.18803106
              22.68233651                7.64119202               67.84889360                0.00010000                4.16667001                0.61680704              -15.87661491               -3.07687541               17.65973838                7.14469596
              23.70241976                7.11337768               67.51490168                0.00010000                2.00832442                0.14108590              -13.80281513               -2.05669972                7.37797703                4.90958448
              13.85508862               13.33127084               70.09369829                0.00010000                0.11188337               -0.03896603                0.07348446               -0.06584279                0.07057317                0.61411426
              14.85620745               12.88719245               69.63998913                0.00010000                0.13934588                0.26363252               -0.83855748                0.01489831                0.83609049               -0.31399707
              15.85787553               12.44366823               69.20154323                0.00010000                2.06249793                0.52848386               -1.42973547               -2.09060741                7.79410715               -0.37707822
              16.89745741               11.95881760               68.88699851                0.00010000                4.25444565               -1.45526521                0.30130246               -2.34393049               15.20641704               -1.48814076
              17.94296445               11.45213012               68.60613051                0.00010000                4.70843647               -1.30027702               -1.52821462               -2.31748007               17.72098296               -1.61437800
              18.99162614               10.92790679               68.35246108                0.00010000                5.12145996               -0.64138609               -4.18537582               -2.63012883               17.64077559               -1.04808245
              20.04539365               10.38553420               68.11218511                0.00010000                5.31036227                0.06065513               -6.21216241               -2.91247441               16.50642597               -0.26665336
              21.09783338                9.82839941               67.88659890                0.00010000                5.13724126                0.76965348               -7.91727006               -3.26860704               16.08950882                0.68934755
              22.14813847                9.25566129               67.69129583                0.00010000                6.10987537                1.31186864               -9.87444586               -4.92369839               23.05915962                2.36774891
              23.22003089                8.64743021               67.66200786                1.00000000                3.84916267                0.59242415              -13.15020042               -3.41481722               15.24735368                4.93680390
              24.22512173                8.11532239               67.30603483                0.00010000                0.50908342                0.17130520              -10.39190683               -0.42488706                3.95661768                4.11422727
              14.29706088               14.33108906               69.96307593                0.00010000                0.16389737               -0.01817743               -0.05153361                0.12071710                0.33177124                0.55330511
              15.29869985               13.89032397               69.50630726                0.00010000                0.12527982                0.31315234               -1.11378076                0.17306561                1.51143769               -0.32448128
              16.29956648               13.44956557               69.07312297                0.00010000                4.02611837                0.58973421               -1.57540293               -3.50731874                8.29777117               -0.17651780
              17.37922222               12.93679571               68.75388791                0.00010000                7.24893756               -2.20218951               -0.32787591               -2.54215963               14.58407941                0.16902237
              18.44454523               12.43519275               68.46933997                0.00010000                6.45447508               -1.69373667               -1.45236225               -0.74310550               16.78359246               -0.63558578
              19.50831172               11.91877204               68.20689769                0.00010000                6.60579919               -0.91347557               -4.00854736               -0.88070771               15.70523874               -0.30081530
              20.57666121               11.38420743               67.95424942                0.00010000                6.65425265               -0.13267788               -5.83887289               -1.07401881               13.55731020                0.09922377
              21.64139678               10.83475653               67.71040898                0.00010000                6.24601855                0.63571240               -7.35640589               -1.25111049               12.00124698                0.84226533
              22.70158158               10.27205843               67.49078271                0.00010000                5.64911464                1.63971438               -9.23793883               -3.74149012               18.73261022                2.04352576
              23.75437907                9.65304051               67.44365205                0.00010000                2.82780439                0.56102919              -12.63969090               -4.32791440               13.73047141                6.40262291
              24.75813767                9.11680379               67.08413471                0.00010000                0.37586019                0.14813993              -10.09509273               -0.32207740                2.53141598                6.41216563
              10.20148727                4.48465173               72.26729025                1.00000000               -0.30369919               -0.35600686                1.24247427               -0.09546612               -0.39631372                0.51209644
              11.19845028                4.02148222               71.84761039                1.00000000               -0.23751325               -0.20503550                0.76033876               -0.06907113               -0.47700473                0.06022667
              12.19673700                3.55787676               71.42566242                0.00010000               -0.10400271               -0.05837774                0.28319730               -0.06987689               -0.49009079               -0.06477350
              13.19637022                3.09350392               71.00562457                0.00010000               -0.00830652                0.09491156               -0.20213821               -0.13628449               -0.43883015               -0.39930625
              14.19657087                2.62728427               70.58514335                0.00010000                0.08123623                0.27210494               -0.70549585               -0.18223389               -0.34949061               -0.29889681
              15.19799495                2.15915759               70.16766848                0.00010000               -0.59979198                0.41802512               -1.24675828               -1.09349786                0.52219131               -0.57231533
              16.18457503                1.67186642               69.76587570                0.00010000               -9.20632287                1.44902578               -1.61820709              -17.19452546               12.75838215               -1.95938663
              17.01386849                0.85127728               69.60028594                0.00010000               -8.46865522                2.64821717               -2.68679774              -16.71548797               23.96292178                2.67885691
              18.01520193                0.04739573               69.37229582                0.00010000                7.10865088               -0.93734641               -2.86852338              -13.84240622               19.33209843                3.12864427
              19.15604151               -0.74272155               69.10058450                1.00000000                7.32064392                0.63336062               -1.71721403              -12.92750116                7.90168039               -0.27717808
              20.16161481               -1.28207970               68.66888619                1.00000000                0.55733006                0.77206083               -2.12108979                0.23000894                0.04049354               -0.42266094
              10.66370212                5.48109166               72.13630947                1.00000000               -0.25550710               -0.33373352                1.09833540               -0.01845062                0.03408472                0.72255435
              11.66114705                5.01943186               71.71643205                1.00000000               -0.18373667               -0.18605131                0.61633525                0.00573344                0.11130032                0.08606758
              12.66002739                4.55729299               71.29752111                0.00010000               -0.04217122               -0.03874461                0.13663190                0.00360682                0.14748315               -0.25853822
              13.66030362                4.09445303               70.87836686                0.00010000                0.09471560                0.10487277               -0.34014696               -0.04164876                0.29315818               -0.38235419
              14.66192170                3.63000532               70.46294380                0.00010000                0.22326354                0.26505537               -0.87281532               -0.07316511                0.37584629               -0.27196719
              15.66476890                3.16333784               70.04656570                0.00010000                0.23241173                0.41992740               -1.41017766               -0.52325623                0.56926693               -0.47247167
              16.66656993                2.68635668               69.63677831                0.00010000               -0.29099716                0.97676605               -1.99836991              -16.47834785               13.58389363               -0.99961874
              17.65894895                1.87775945               69.48359629                0.00010000                0.36036749                0.22690123               -4.19259657              -25.19201900               21.93377337                5.59503085
              18.67377728                1.03802227               69.22640735                0.00010000                1.62776312                1.20937201               -4.87734730              -22.03880178               13.29151032                8.26798008
              19.69150421                0.26361206               68.88351020                1.00000000                1.47478842                0.19926884               -3.24664086              -11.72921130                4.66991393               -2.11959197
              20.70327305               -0.27435909               68.45114699                1.00000000                1.17688367                0.28270098               -3.69250113               -0.11878415               -0.17930510               -2.52012168
              11.12443785                6.47797706               72.00865282                1.00000000               -0.20742329               -0.28448974                0.94728822               -0.02187962                0.17981547                0.84696016
              12.12236362                6.01776119               71.58545402                0.00010000               -0.13249406               -0.14735221                0.47060449               -0.00066745                0.37819326                0.00160152
              13.12178797                5.55710187               71.16573451                0.00010000                0.02306467                0.00739245               -0.00873947               -0.02414150                0.86186703               -0.70561806
              14.12282491                5.09560137               70.75229168                0.00010000                0.22173953               -0.52393088               -0.46940732               -0.88787155                1.34627516                1.12233399
              15.12622276                4.63258538               70.34285074                0.00010000                0.41767767               -1.08541733               -1.02034368               -1.51716288                1.29048096                3.24169196
              16.13117847                4.16755614               69.92976774                0.00010000                0.71818503               -2.22653883               -1.56383994               -2.15269464                1.48303577                6.45395361
              17.14058646                3.69140174               69.52630030                0.00010000                1.35920240               -6.23842142               -2.17291052              -19.05613041               17.85125189               12.51614162
              18.15836252                2.85581531               69.44265174                0.00010000                2.39934133               -0.44141564               -5.78598552              -33.00576357               26.87427565               10.89368581
              19.18857329                2.07158317               69.19660799                0.00010000                3.77380654                5.17322470              -12.80864256              -34.72725894                4.25936450               15.20473490
              20.23383865                1.26126383               68.63028463                0.00010000                2.33040691                8.77809653               -4.62790010              -21.75562559               -5.29019858               25.90410058
              21.23518143                0.72357432               68.19304411                1.00000000                0.13427819                7.77668721               -2.89357189                2.31863036               -0.58983327               27.27483423
              11.58369626                7.47540187               71.87945180                1.00000000               -0.16873757               -0.22893952                0.79863314               -0.02650718                0.28838083                0.70097028
              12.58200889                7.01648482               71.45236507                0.00010000               -0.09959431               -0.10855079                0.32614760                0.00688364                0.49363536               -0.37472047
              13.58170438                6.55744084               71.02896585                0.00010000               -0.74731004                0.06880533               -0.13974385               -0.70656819                3.19660361               -1.18144566
              14.56706269                6.08397441               70.65610562                0.00010000               -1.10403511               -0.74705185               -0.70584500               -2.29460415                6.19679795                1.97206522
              15.55962368                5.60829697               70.29247427                0.00010000               -0.20820225               -2.01493373               -1.49531319               -3.57327415                7.73076735                5.68982317
              16.56289864                5.11880706               69.94939418                0.00010000                1.87822399               -4.50947183               -2.53594315               -7.43628571               12.01174637               10.94020303
              17.59718816                4.56158825               69.67007483                0.00010000                2.78768016               -9.01021266               -4.30584481              -17.11444902               17.84427703               17.85739677
              18.61865225                3.86893114               69.44016962                0.00010000               -1.17022864                1.57766120               -7.82628014              -26.14590895               22.88971980               11.57408380
              19.57378358                3.14148676               69.24531246                0.00010000               -0.71258424                8.67889727              -12.85359577              -28.94464825               25.52462316               17.14378230
              20.60440056                2.43917399               69.00744381                0.00010000               12.56205488               20.83404957              -65.97979523              -20.06694675               19.81633267               31.10511102
              21.82502468                1.88117465               68.58799342                1.00000000               22.06241196               22.40109378              -73.70630574               -5.31062817                7.86308086               33.17244857
              12.04174181                8.47339827               71.74838883                0.00010000               -0.12794809               -0.17226470                0.66240467               -0.01867229                0.03075500                0.59879089
              13.04046232                8.01559018               71.31369114                0.00010000               -0.07873957               -0.07760979                0.17557456                0.05867044                0.50060778               -0.55412432
              14.04016701                7.55847798               70.88807454                0.00010000               -0.71928159                0.07990438               -0.29342545               -0.90203095                5.22588279               -1.65362402
              15.02607669                7.08066033               70.54811749                0.00010000               -1.01211918               -0.21082329               -1.01695231               -2.17902068               10.13197048                0.69543425
              16.01992463                6.59228670               70.22144996                0.00010000                0.15423933               -1.30472826               -2.02277111               -3.74528253               12.04613169                3.31353193
              17.02916148                6.07736670               69.92038525                0.00010000                1.41243876               -3.04562503               -3.37280397               -7.41224644               15.08426616                6.15631764
              18.04817341                5.51119749               69.65553419                0.00010000                1.31921700               -3.10405506               -5.36996816              -13.95688574               19.06921765                7.50191891
              19.05554582                4.88736853               69.43300738                0.00010000               -0.43679640                2.15240230               -8.73453967              -18.46831026               25.01792470                8.45946469
              20.03943748                4.24516112               69.27570790                0.00010000                1.86330032                9.08546310              -17.38165027              -13.36484956               33.83812032                9.05778210
              21.09281183                3.67794482               69.18421908                0.00010000               10.27650315               17.02792385              -43.79315797               -5.50855911               26.38192184               12.29199743
              22.24496754                3.17159619               68.86930606                0.00010000               15.21557149               19.77907445              -46.67141158               -6.99270910               17.22853829               16.37294567
              12.49893900                9.47195657               71.61683099                0.00010000               -0.08364169               -0.13279088                0.53341835               -0.02822223                0.00253363                0.60963854
              13.49810259                9.01493262               71.17683166                0.00010000               -0.01727020               -0.04008576                0.02887141                0.07310688                0.28194217               -0.42662361
              14.49859360                8.55903892               70.74218002                0.00010000               -0.42145198                0.06438193               -0.45714872               -0.96608635                6.52364552               -1.77538845
              15.48967355                8.07975795               70.42738582                0.00010000               -0.52909709               -0.00378348               -1.28153760               -2.45526581               12.94926390               -0.58573538
              16.48801166                7.58220241               70.12415000                0.00010000                0.30346916               -0.64621248               -2.39081108               -4.26867033               14.38362277                0.88786926
              17.49574293                7.05789456               69.84167499                0.00010000                1.00184756               -1.19151880               -3.85281882               -7.32490698               16.59239813                2.29078219
              18.50804861                6.49950715               69.58753933                0.00010000                0.97897372               -0.38337847               -5.86750740              -10.83827382               19.58543204                3.28488357
              19.51532241                5.91197919               69.36913161                0.00010000                0.39308460                2.46577504               -9.15978057              -12.23972588               24.32651764                3.66383842
              20.51591030                5.32319603               69.20763534                0.00010000                2.62359499                6.21134019              -15.19767840               -8.55540326               28.70397933                2.64367078
              21.56779431                4.77973246               69.06455045                0.00010000                9.09787244                7.41056977              -32.21498130               -4.17606273               20.84267386               -1.39327592
              22.69786775                4.27675614               68.73927999                0.00010000               13.00734455                7.37017343              -35.50062079               -4.64524028               12.60939384               -0.68189549
              12.95522526               10.47074245               71.48580469                0.00010000               -0.03831486               -0.11270891                0.40886924               -0.03546529               -0.01180660                0.66800572
              13.95484211               10.01478846               71.04055646                0.00010000                0.03973509                0.01754525               -0.13438722                0.05740069                0.19392954               -0.38819109
              14.95601996                9.55976562               70.59926874                0.00010000               -0.05171102                0.12152994               -0.65671514               -1.04098950                7.26561459               -1.54567391
              15.95380789                9.08058466               70.29578036                0.00010000                0.01973234                0.15855378               -1.37116206               -2.61744382               14.51678850               -1.57535197
              16.95641461                8.57936245               70.00479272                0.00010000                0.57753554               -0.07477362               -2.51508720               -4.42899182               15.71363055               -0.91812927
              17.96535860                8.05353632               69.73193790                0.00010000                1.04543481               -0.07775655               -4.03673160               -6.58184214               17.26566670               -0.04024847
              18.97732331                7.50352992               69.48156545                0.00010000                1.08519097                0.70324444               -6.00170128               -8.44977299               19.28594272                0.63707763
              19.98706242                6.93668403               69.26014426                0.00010000                1.16264144                2.33991342               -8.75611575               -8.94372200               22.08110296                0.87426934
              21.00057613                6.36938792               69.07402542                0.00010000                3.43340185                3.87578638              -13.83446230               -6.98590665               23.98229677                0.32235713
              22.05573046                5.82615621               68.88368698                0.00010000                7.87196266                3.70522068              -24.31612223               -3.78040348               16.80212063               -0.26186939
              23.15801539                5.31899966               68.55321971                0.00010000               10.22849284                3.27389075              -28.00034707               -3.09963051                9.02326406                0.84723231
              13.41013768               11.46970239               71.35512661                0.00010000                0.00897553               -0.09007273                0.28344736               -0.04245882               -0.00959700                0.72501174
              14.41022744               11.01528353               70.90450133                0.00010000                0.09199630                0.08275653               -0.31471855                0.03590381                0.22970671               -0.39373456
              15.41197761               10.56146952               70.45860121                0.00010000                0.37501992                0.23505835               -0.90897521               -1.11795938                7.68341970               -1.39545327
              16.41772783               10.08292902               70.15729444                0.00010000                0.72512781                0.22108962               -1.29695601               -2.60109334               15.27598957               -2.05727961
              17.42648016                9.58070694               69.87101336                0.00010000                1.11053959                0.13561745               -2.39079722               -4.11534481               16.41316990               -1.90915072
              18.43993863                9.05633943               69.60186607                0.00010000                1.47126400                0.34749911               -3.99063698               -5.48675376               17.45715714               -1.30091241
              19.45590544                8.51357203               69.35123632                0.00010000                1.53256660                1.05277341               -5.90167918               -6.45790177               18.53001158               -0.68157113
              20.47058996                7.95877745               69.12212576                0.00010000                1.54072710                2.12754642               -8.34627601               -6.64287664               20.25461886               -0.30729082
              21.48671999                7.40071175               68.92335467                0.00010000                3.59922700                2.96275443              -12.43421185               -6.04326962               21.76152380                0.43588757
              22.54257450                6.85383688               68.72720499                0.00010000                8.17341312                3.02998195              -24.02180613               -3.69229788               15.22421684                3.84172292
              23.65018825                6.34223395               68.39735039                0.00010000               10.76137491                2.66935890              -27.19858463               -1.34959953                9.05365620                5.22382548
              13.86321382               12.46894100               71.22478700                0.00010000                0.05792437               -0.05676763                0.15354059               -0.04860313               -0.00178746                0.75935393
              14.86379306               12.01644359               70.76834794                0.00010000                0.14007311                0.15284551               -0.51811734                0.02700619                0.37475976               -0.43438360
              15.86601528               11.56446678               70.31947987                0.00010000                0.93777748                0.38304305               -1.25266718               -1.31569530                8.05168950               -1.07621575
              16.88254861               11.08500646               70.01666165                0.00010000                1.73410127                0.04088146               -1.13887746               -2.55091297               15.61980676               -1.95872460
              17.90069731               10.58207480               69.73008420                0.00010000                2.01049089               -0.10667154               -2.12138931               -3.33593575               16.61888337               -2.02084584
              18.92275843               10.06048631               69.46063994                0.00010000                2.25149709                0.29719671               -3.78467792               -3.99480351               17.25779582               -1.61941043
              19.94572725                9.52458538               69.20696533                0.00010000                2.21533708                1.02584206               -5.69985802               -4.39680599               17.56636020               -1.07031956
              20.96706517                8.97923496               68.97000998                0.00010000                1.94620358                1.95072848               -7.95493677               -4.46172880               18.69951135               -0.43188531
              21.98465132                8.42864301               68.76535495                0.00010000                3.66485657                2.87426330              -11.44949395               -3.94781514               20.16253167                0.85614753
              23.04036230                7.88675585               68.57481992                0.00010000                8.47889637                3.63543203              -24.74010489               -2.30515066               13.45218043                5.68019348
              24.15422925                7.37238684               68.24952694                0.00010000               11.38669444                3.35138170              -26.06114768               -1.24224061                9.17335227                7.83972658
              14.31416043               13.46856704               71.09425269                0.00010000                0.10813430               -0.01769529                0.02105939               -0.04653353                0.05191959                0.70637704
              15.31524177               13.01834044               70.63186628                0.00010000                0.14702027                0.22753596               -0.74371486                0.05409258                0.87690862               -0.46543567
              16.31710084               12.56913038               70.18612514                0.00010000                1.69298914                0.54794034               -1.54059606               -1.78880167                8.62284912               -0.67484056
              17.34910156               12.08374665               69.87795681                0.00010000                3.35903817               -0.83514482               -1.13817616               -2.05203840               15.62314947               -1.21918173
              18.38428160               11.57857351               69.58879481                0.00010000                3.42152094               -0.62104603               -1.87945157               -2.01133144               16.35439084               -1.29934394
              19.41753198               11.06228337               69.31593117                0.00010000                3.24695355               -0.06151853               -3.49706547               -2.03525123               16.50358498               -1.14434513
              20.44922067               10.53408888               69.05632742                0.00010000                2.98828897                0.73807664               -5.33324674               -2.16151232               16.15755865               -0.81787411
              21.47729775                9.99779202               68.81054980                0.00010000                2.55110588                1.72455275               -7.42213090               -2.11537471               16.67034035               -0.30501932
              22.50024279                9.45819702               68.59575663                0.00010000                3.77149519                2.80446400              -10.68436986               -1.68457949               18.50769346                0.92144288
              23.55272766                8.92654552               68.41264622                0.00010000                7.69193381                5.08959954              -23.39418908               -0.92560150               12.29765733                5.12367503
              24.65408146                8.40926159               68.09943134                0.00010000               10.13538059                4.78967892              -23.30150105               -1.44926339                8.81188596                7.30806649
              14.76273635               14.46858709               70.96236168                0.00010000                0.15752175                0.00200494               -0.10777304                0.09831430                0.33492098                0.66073456
              15.76431157               14.02099431               70.49571397                0.00010000                0.10483388                0.26538722               -0.95865019                0.24890482                1.66887513               -0.50179680
              16.76483303               13.57542559               70.05597740                0.00010000                3.38765742                0.62952079               -1.78816677               -2.86131789                9.50210042               -0.57941441
              17.83206472               13.06830356               69.74402294                0.00010000                5.85504656               -1.54430922               -1.11407003               -1.99226899               15.41784852               -0.33444049
              18.88193396               12.56965388               69.45228577                0.00010000                4.72366564               -0.89196227               -1.72535003               -0.68714486               15.67382822               -0.38969485
              19.92653803               12.05925594               69.17414694                0.00010000                4.25271893               -0.30274304               -3.04299505               -0.61474245               15.10936794               -0.41739906
              20.96698834               11.53934692               68.90496984                0.00010000                3.70557494                0.52580412               -4.53127529               -0.49972890               13.79775709               -0.24661833
              22.00064953               11.01372601               68.64449231                0.00010000                2.76089463                1.59339898               -6.11787953               -0.39555348               13.21825029                0.08799106
              23.02220623               10.48473229               68.41034045                0.00010000                3.50680858                2.65352725               -8.67480238                0.93743614               13.89880809                1.01638413
              24.07078570                9.98854784               68.20360297                0.00010000                6.88028031                6.20023255              -20.87133313                0.97821083                8.95628127                4.90951243
              25.15981184                9.46818042               67.88567248                0.00010000                8.90261366                5.89188301              -20.69854468               -1.46370502                5.85125930                7.07588624
              10.61964756                4.62142567               73.27893201                1.00000000               -0.27124979               -0.31194931                1.08780924               -0.07791250               -0.39084905                0.50429251
              11.61693506                4.15396970               72.85490649                1.00000000               -0.21874952               -0.18934841                0.69929163               -0.05366936               -0.47026572                0.05818825
              12.61527257                3.68611162               72.42865014                0.00010000               -0.11222487               -0.06990952                0.31357573               -0.05439026               -0.48436290               -0.06280678
              13.61469056                3.21754658               72.00423516                0.00010000               -0.03792365                0.05325507               -0.07807663               -0.11522965               -0.44188152               -0.38194226
              14.61451409                2.74731433               71.57924508                0.00010000                0.03213000                0.19522210               -0.47993226               -0.15811120               -0.37519789               -0.30132985
              15.61533316                2.27540254               71.15689671                0.00010000               -0.80000301                0.30560394               -0.91590184               -1.17258738                0.57380433               -0.56413910
              16.59851403                1.78252758               70.75205727                0.00010000               -8.04746929                1.47658289               -1.15732406              -14.92660798               12.56222604               -2.11616457
              17.45438378                1.00096327               70.57566777                0.00010000               -6.81229877                1.85857136               -2.41650280              -14.26532345               23.86649213                2.14715424
              18.46226806                0.23249180               70.34494084                0.00010000                6.71697849               -1.20052732               -2.71889108              -11.30891674               20.05121397                2.81219586
              19.58872335               -0.51955206               70.08055694                1.00000000                6.69320572                0.74616065               -2.29694993              -10.54278721                8.46806488               -0.26113082
              20.59613217               -1.05955992               69.64532760                1.00000000                0.74088266                0.83228804               -2.59209501               -0.14156530                0.05768486               -0.38650975
              11.08632440                5.61830618               73.14658505                1.00000000               -0.22690150               -0.29350484                0.95824707               -0.01547774                0.03310272                0.71155492
              12.08405539                5.15207621               72.72236353                1.00000000               -0.16920915               -0.17265872                0.56993349                0.00682791                0.11068411                0.08318960
              13.08294022                4.68541253               72.29912882                0.00010000               -0.05592378               -0.05250889                0.18346837                0.00418674                0.15076337               -0.25616650
              14.08293691                4.21807913               71.87569247                0.00010000                0.05323918                0.06019781               -0.19780535               -0.03699414                0.27576906               -0.35920214
              15.08400501                3.74926655               71.45549837                0.00010000                0.15318731                0.18883836               -0.62332974               -0.06867060                0.33315939               -0.26247476
              16.08600066                3.27845858               71.03428021                0.00010000                0.12312915                0.30993034               -1.05622695               -0.53154531                0.50069440               -0.45434750
              17.08646759                2.79729341               70.61907409                0.00010000                0.03738869                0.92602791               -1.55340184              -14.61574305               12.73171552               -1.06402282
              18.08674843                2.01954898               70.44490422                0.00010000                1.14844842               -0.35667589               -3.49772721              -21.44346464               21.28808021                5.04685755
              19.10943656                1.22048653               70.18631130                0.00010000                2.12864496                0.23473302               -3.66034863              -17.74521457               14.11947295                5.57007120
              20.12932133                0.48790955               69.85709428                1.00000000                1.26439102                0.64532124               -2.06668687               -9.45162005                5.51613348               -0.32469809
              21.13472438               -0.05123704               69.42106640                1.00000000                0.54030438                0.70164431               -2.33866113               -0.19053033               -0.20059470               -0.53960680
              11.55179793                6.61555557               73.01750765                1.00000000               -0.18326619               -0.25273605                0.82417261               -0.01955640                0.17628944                0.83619272
              12.54996527                6.15051652               72.59000793                0.00010000               -0.12222739               -0.13762901                0.43949461               -0.00102177                0.37301834               -0.00136797
              13.54935338                5.68506144               72.16596695                0.00010000                0.00656964               -0.01120816                0.05333150               -0.02794634                0.86732093               -0.69710097
              14.55009666                5.21875054               71.74841919                0.00010000                0.17039294               -0.56834448               -0.30904064               -0.83668363                1.32034935                1.07052415
              15.55276124                4.75109109               71.33402341                0.00010000                0.32893659               -1.12766429               -0.75321282               -1.35462200                1.22560690                3.06619757
              16.55667539                4.28160115               70.91602907                0.00010000                0.61737636               -2.22419803               -1.19268756               -1.81110758                1.38486298                6.02393867
              17.56510877                3.80104814               70.50685231                0.00010000                2.28229891               -6.01976817               -1.72509475              -16.70762728               16.12846588               11.49871218
              18.60232137                2.99382975               70.38569394                0.00010000                3.69472192               -1.24735634               -5.50839070              -28.68898235               23.32653109                9.99947246
              19.63900321                2.23718646               70.08542597                0.00010000                3.45465701                3.32702305               -8.77399639              -25.15317961                7.28699292               13.69757763
              20.67141451                1.49335436               69.63272629                0.00010000                1.58057636                0.35510225                0.04246186              -10.10151686               -0.79476924                0.51189705
              21.67061473                0.95447297               69.19498150                1.00000000               -0.07997772                0.36171227               -0.00878049               -0.15074828               -0.06114554                0.29687434
              12.01601138                7.61325146               72.88690861                1.00000000               -0.14822936               -0.20534770                0.69214525               -0.02577765                0.28507376                0.70244423
              13.01452908                7.14932363               72.45554913                0.00010000               -0.09320488               -0.10071441                0.30992363               -0.00080365                0.49273090               -0.38136640
              14.01414728                6.68518836               72.02794531                0.00010000               -0.71777447                0.04481049               -0.06694798               -0.71555607                3.12559641               -1.18126782
              15.00017359                6.20671225               71.64939158                0.00010000               -1.00426586               -0.81455501               -0.63248506               -2.22863520                6.06445335                1.85607807
              15.99406196                5.72671326               71.27830607                0.00010000               -0.01760659               -2.04723690               -1.36857042               -3.32443101                7.51999660                5.33375842
              16.99982146                5.23397462               70.92506334                0.00010000                2.30122372               -4.42286654               -2.39586598               -6.80578329               11.54227724               10.19171457
              18.04008643                4.67689805               70.62768844                0.00010000                3.85045041               -8.66417551               -4.30800420              -15.48070024               16.57501182               16.40704110
              19.07683047                3.99460186               70.36178445                0.00010000                3.33809590                0.63319160               -7.62635172              -23.64067450               20.56461680               11.00582354
              20.10684835                3.28702699               70.11269075                0.00010000                6.65870097                5.72068772              -14.49799737              -29.30377578                4.71218551               14.53946822
              21.21000449                2.49501159               69.42170333                0.00010000                5.13119247               11.49905767              -29.21630993              -20.68188365               -4.26590782               22.57899573
              22.20947220                1.95599721               68.98308111                0.00010000               -0.05322855               12.63659805              -30.17352533               -5.07151490               -2.71648453               25.94893116
              12.47913802                8.61144862               72.75456347                0.00010000               -0.11257351               -0.15444919                0.57049343               -0.02071023                0.02064474                0.61698081
              13.47801228                8.14850223               72.31543064                0.00010000               -0.07421861               -0.07147164                0.17367639                0.03735831                0.49702755               -0.56663279
              14.47765365                7.68595765               71.88552453                0.00010000               -0.70066134                0.04706780               -0.21623916               -0.95378263                5.09887206               -1.70024588
              15.46399906                7.20245944               71.53845821                0.00010000               -0.93216999               -0.30409736               -0.94211746               -2.21509420                9.88516003                0.55509554
              16.45901025                6.71014636               71.20204845                0.00010000                0.31879401               -1.35135774               -1.92667031               -3.67730859               11.71819916                3.00717151
              17.47037494                6.19314381               70.88740685                0.00010000                1.79286372               -2.96808674               -3.33952197               -7.21299476               14.57306912                5.59446458
              18.49486752                5.62776463               70.60108768                0.00010000                2.45020015               -2.96000500               -5.52990669              -13.67127649               18.21158830                6.80101155
              19.51937894                5.00649358               70.34508587                0.00010000                2.88252170                1.79366647               -9.28354398              -19.13086269               21.06933776                7.74674943
              20.55251796                4.35160022               70.07975007                0.00010000                3.47138377                7.53796798              -17.62257765              -19.86526227               23.82546403                8.05890444
              21.58880662                3.72333552               69.81716066                0.00010000                4.73476220               19.04812378              -31.75167682              -15.72317933               16.40151924               25.01420185
              22.64721320                3.20720493               69.42803800                0.00010000                5.84065834               20.98144834              -37.06339229               -6.82599036                2.85461419               27.98244300
              12.94148994                9.61016247               72.62178018                0.00010000               -0.07227264               -0.11458929                0.45189583               -0.02816325               -0.00125015                0.64264335
              13.94076721                9.14789420               72.17715572                0.00010000               -0.01877591               -0.03943527                0.03969708                0.03758675                0.27568705               -0.44994667
              14.94111442                8.68612972               71.73785266                0.00010000               -0.45421024                0.02235606               -0.39711978               -1.05550793                6.37285187               -1.88273055
              15.93168301                8.20063030               71.41538456                0.00010000               -0.56415026               -0.08610345               -1.18135013               -2.53838502               12.65151198               -0.64340768
              16.92983141                7.69968611               71.10116289                0.00010000                0.31301412               -0.66096861               -2.29853378               -4.23134098               14.00346321                0.72700074
              17.93794329                7.17461288               70.80376647                0.00010000                1.17398601               -1.06105936               -3.84993557               -7.25108623               16.13634651                1.94627906
              18.95331113                6.61769795               70.52799893                0.00010000                1.62171713               -0.13571682               -6.12557151              -11.02333377               18.83886352                2.80511156
              19.97037763                6.03047519               70.27431585                0.00010000                1.96950198                2.81409536               -9.81024615              -13.36927811               21.91394204                3.07096591
              20.99270117                5.43778635               70.03822175                0.00010000                3.47792773                7.50849305              -16.72906713              -12.58542454               22.82051785                3.68376362
              22.03993619                4.87597407               69.77110619                0.00010000                5.62561982               12.00741591              -26.11795261               -7.40301919               15.51913442                1.71153161
              23.10521357                4.37562618               69.40891678                0.00010000                6.52773845               12.92145564              -29.75811897               -3.65853053                6.07711477                2.60790200
              13.40311130               10.60915683               72.48955210                0.00010000               -0.03145257               -0.08854336                0.33446362               -0.03220797               -0.01268461                0.70960150
              14.40279677               10.14771353               72.03931148                0.00010000                0.03480475                0.00893477               -0.10719188                0.01603812                0.18175794               -0.42870169
              15.40380739                9.68640478               71.59283538                0.00010000               -0.15609001                0.07422938               -0.60081112               -1.13323347                7.15665923               -1.71523189
              16.39967497                9.20073737               71.28247889                0.00010000               -0.17032738                0.11405550               -1.32095162               -2.68047534               14.25863964               -1.50279460
              17.40040084                8.69692698               70.98044726                0.00010000                0.38332002               -0.02125646               -2.44998305               -4.30891556               15.30095539               -0.90315002
              18.40734137                8.17192263               70.69224786                0.00010000                0.90688493                0.13602284               -4.03125203               -6.42809029               16.83779998               -0.24555700
              19.41853854                7.62505030               70.42107628                0.00010000                1.22818049                1.11638125               -6.22889544               -8.49418212               18.77839361                0.23443037
              20.43190498                7.06277549               70.16825808                0.00010000                1.83860212                3.16669965               -9.56676310               -9.38608128               20.67946033                0.42211688
              21.45531058                6.50177008               69.92408937                0.00010000                3.55007121                5.58429602              -15.00711600               -8.09095250               20.34037500                0.04111755
              22.50290640                5.96348384               69.65079342                0.00010000                5.97138936                7.24107612              -21.91793385               -4.82292851               13.28372423               -0.44764888
              23.57473837                5.46563404               69.28335924                0.00010000                7.18319669                7.25218857              -25.20853266               -2.47518925                5.86083129               -0.09537284
              13.86373238               11.60839160               72.35763334                0.00010000                0.01076456               -0.06137284                0.21257504               -0.03426941               -0.00720000                0.76734387
              14.86384003               11.14807290               71.90155501                0.00010000                0.08467617                0.06425859               -0.26351601                0.00137678                0.19868094               -0.45162912
              15.86542591               10.68761431               71.44957541                0.00010000                0.18556305                0.17714344               -0.84301395               -1.16225069                7.68638356               -1.65342494
              16.86755129               10.20291141               71.14372607                0.00010000                0.35209694                0.26633892               -1.37236497               -2.58368842               15.15477659               -1.91086046
              17.87246785                9.69926098               70.84720459                0.00010000                0.68534399                0.30364689               -2.42213730               -3.87977576               15.96339523               -1.76404967
              18.88125817                9.17733334               70.56283436                0.00010000                1.00533901                0.66119093               -3.96381463               -5.19918001               16.99999771               -1.42932706
              19.89257463                8.64002557               70.29230219                0.00010000                1.23390271                1.57232689               -6.04186491               -6.23511082               18.23234839               -1.12429468
              20.90593623                8.09380918               70.03604501                0.00010000                1.87995762                2.97631118               -8.99346985               -6.49808370               19.37841509               -0.90124432
              21.93017378                7.54947227               69.78567313                0.00010000                3.68387118                4.43859856              -13.88599298               -5.53985636               18.66319766               -0.48081664
              22.97961365                7.02079559               69.50500356                0.00010000                6.06177961                5.29354157              -20.56532560               -3.22503003               12.07175922                0.29890745
              24.05140937                6.52066995               69.13942111                0.00010000                7.17957229                5.12286114              -23.86555760               -1.92584481                5.09271559                1.48541357
              14.32306332               12.60792938               72.22599624                0.00010000                0.05382781               -0.02839507                0.08517248               -0.03469445               -0.00215743                0.79816915
              15.32360160               12.14899870               71.76354013                0.00010000                0.13302703                0.12224043               -0.43012840                0.00257080                0.28885190               -0.50976134
              16.32572386               11.68994764               71.30700550                0.00010000                0.63764645                0.30297878               -1.15006651               -1.20592396                8.19359813               -1.38319239
              17.33635453               11.20606415               71.00312545                0.00010000                1.13297661                0.20806400               -1.38472581               -2.36241414               15.72414023               -1.85311453
              18.34838340               10.70299992               70.70793368                0.00010000                1.31193211                0.23403444               -2.28349697               -3.06538246               16.20581298               -1.88414922
              19.36259317               10.18514645               70.42382391                0.00010000                1.44885441                0.70897761               -3.73310745               -3.67980157               16.76475962               -1.73431470
              20.37736049                9.65649683               70.15105602                0.00010000                1.49517195                1.55733185               -5.67543255               -4.07465833               17.42831131               -1.54663430
              21.39249661                9.12230172               69.89024717                0.00010000                2.00832810                2.70037567               -8.33345009               -4.00400191               18.11703033               -1.28130068
              22.41752705                8.59054205               69.63560684                0.00010000                3.73557564                3.98161883              -13.06447977               -3.34624492               17.49632178               -0.49251547
              23.46720813                8.06935467               69.35409150                0.00010000                5.94728565                5.01625410              -20.10605276               -1.98775467               11.38706756                0.84737057
              24.53647276                7.56809127               68.99367872                0.00010000                6.92646347                5.23341168              -23.57589025               -1.30734841                4.44552793                2.42807623
              14.78089985               13.60782370               72.09411948                0.00010000                0.09733323                0.00782040               -0.04710005               -0.03103052                0.04692538                0.74504494
              15.78187318               13.15051770               71.62511483                0.00010000                0.16710678                0.17969681               -0.59862418                0.03551053                0.76632576               -0.54636592
              16.78424198               12.69367388               71.17073130                0.00010000                1.26887771                0.41625527               -1.41562196               -1.39346793                8.92895114               -1.04073536
              17.80725073               12.20707269               70.86423498                0.00010000                2.39179604               -0.40447496               -1.39484066               -1.74079610               16.01500156               -1.27527538
              18.83207790               11.70394167               70.56854148                0.00010000                2.34572482               -0.12914986               -2.09146981               -1.80227040               16.12856899               -1.24207193
              19.85416523               11.19151289               70.28251977                0.00010000                2.09241446                0.44230366               -3.37504465               -1.87738086               16.19101405               -1.23080177
              20.87392619               10.67117221               70.00552018                0.00010000                1.88228727                1.27466880               -5.11224064               -1.93928450               16.30094023               -1.17094188
              21.89181097               10.14781669               69.73815628                0.00010000                2.11348693                2.31648177               -7.48455155               -1.70865007               16.57992673               -0.99815622
              22.91619593                9.62910464               69.47760843                0.00010000                3.52491820                3.63382218              -11.87256113               -1.18879922               15.86076371               -0.45408951
              23.96230934                9.12112067               69.19412407                0.00010000                5.57966390                4.99812943              -19.38211091               -0.64009652               10.40287710                0.53372855
              25.02778921                8.62533818               68.84000481                0.00010000                6.54798699                5.88739773              -23.43819921               -0.85069573                4.33375140                2.10088246
              15.23705471               14.60808578               71.96092047                0.00010000                0.14069217                0.02620813               -0.17473776                0.06617187                0.33929489                0.70085932
              16.23846163               14.15259264               71.48713425                0.00010000                0.21224061                0.20749332               -0.75827164                0.16819376                1.52194980               -0.57945401
              17.24129952               13.69827275               71.03735964                0.00010000                2.64045968                0.45988667               -1.73700564               -2.02514518               10.11382087               -1.09161726
              18.29127083               13.19797465               70.73160650                0.00010000                4.32991315               -0.90980375               -1.26915348               -1.49078187               16.14615209               -0.41851626
              19.32789779               12.70041692               70.43483297                0.00010000                3.32720928               -0.35247423               -1.80902152               -0.61711818               15.82905026               -0.48641676
              20.35781501               12.19399252               70.14603778                0.00010000                2.71866039                0.24796276               -2.84718453               -0.55635743               15.39492429               -0.51536148
              21.38227099               11.68199021               69.86362391                0.00010000                2.12880834                1.08179976               -4.19204306               -0.43357814               14.90970972               -0.53423031
              22.40039118               11.16863135               69.58805139                0.00010000                1.90880455                2.08146580               -5.96967894               -0.08056546               14.59359468               -0.50414340
              23.42044708               10.66321849               69.31728666                0.00010000                2.88907406                3.41138460               -9.51608965                0.45941075               13.72728004               -0.17869439
              24.45817266               10.16931726               69.02622539                0.00010000                4.52883713                4.81965848              -15.87737703                0.71736865                8.53262193               -0.73996026
              25.51102383                9.68583922               68.67016382                0.00010000                5.28511677                6.05010397              -19.70104607               -0.02434163                2.97686775                0.95436216
              11.04172131                4.75943150               74.28904644                1.00000000               -0.23944868               -0.26843760                0.93730532               -0.06136808               -0.38835724                0.49914279
              12.03932683                4.28773192               73.86159622                1.00000000               -0.20001139               -0.17376968                0.63897570               -0.03939774               -0.46754909                0.05674181
              13.03772109                3.81566328               73.43193394                0.00010000               -0.11945845               -0.08104272                0.34193568               -0.03981134               -0.48261797               -0.06084498
              14.03693766                3.34295044               73.00406304                0.00010000               -0.06578618                0.01345173                0.04046149               -0.09442911               -0.44474833               -0.36517359
              15.03640536                2.86875109               72.57554470                0.00010000               -0.01394057                0.12263954               -0.26607285               -0.13295373               -0.39551231               -0.30234382
              16.03665885                2.39310780               72.14935044                0.00010000               -0.96784320                0.20107273               -0.60315038               -1.20725899                0.64398636               -0.55949797
              17.01704850                1.89550948               71.74272921                0.00010000               -6.91720451                1.47716925               -0.72421571              -12.51484331               12.16688446               -2.30583543
              17.89831476                1.15574746               71.55195589                0.00010000               -5.28557305                1.29229710               -2.29251123              -11.81467807               23.20277253                1.58244985
              18.91133704                0.42089874               71.31791800                0.00010000                6.33506480               -1.19601729               -2.69779378               -9.57435039               20.00924964                2.11273915
              20.02501605               -0.30101885               71.05464550                1.00000000                6.09450756                0.59675874               -2.56874873               -8.90373823                8.70522094               -0.05478909
              21.03322719               -0.84128750               70.61704429                1.00000000                0.82111363                0.64823605               -2.75157316               -0.21789169                0.00902932               -0.08576931
              11.51280721                5.75674712               74.15547441                1.00000000               -0.19902546               -0.25270704                0.82147052               -0.01320239                0.03138635                0.70389972
              12.51081696                5.28599422               73.72783072                0.00010000               -0.15467519               -0.15918441                0.52348217                0.00717910                0.10900043                0.08122781
              13.50971371                4.81485285               73.30119048                0.00010000               -0.06837514               -0.06599581                0.22696156                0.00463924                0.15372106               -0.25386498
              14.50944946                4.34308495               72.87441075                0.00010000                0.01417168                0.01811526               -0.06258674               -0.03187889                0.26401706               -0.33615633
              15.50999714                3.86997749               72.45047721                0.00010000                0.08788026                0.11752648               -0.38906872               -0.06233876                0.30085282               -0.25371146
              16.51120706                3.39511853               72.02544116                0.00010000                0.02915456                0.20719952               -0.72333037               -0.51541660                0.43545543               -0.44066497
              17.51058024                2.91028117               71.60571027                0.00010000                0.31331418                0.86260770               -1.12873594              -12.50028422               11.98483199               -1.16326220
              18.51747335                2.16867043               71.41364175                0.00010000                1.66982242               -0.84114633               -2.79465985              -17.66689425               20.50491943                3.89892736
              19.54397668                1.40893857               71.15320037                0.00010000                2.47992207               -0.08717309               -2.98432709              -14.38889619               14.94156452                3.71683504
              20.56707179                0.70494874               70.84217646                1.00000000                1.36701188                0.39557810               -1.43605561               -8.01860120                6.36598611               -0.07808259
              21.57131692                0.16519486               70.40437377                1.00000000                0.42451342                0.43922934               -1.57882581               -0.16434229               -0.01955993               -0.15077280
              11.98296307                6.75437736               74.02513627                1.00000000               -0.15983899               -0.21760964                0.70253732               -0.01743952                0.17260746                0.82888695
              12.98136468                6.28454823               73.59424391                0.00010000               -0.11199689               -0.12797186                0.40723102               -0.00120791                0.36809365               -0.00304619
              13.98072313                5.81434336               73.16680114                0.00010000               -0.00946215               -0.02974726                0.11128246               -0.02876691                0.87550417               -0.69089608
              14.98117544                5.34331274               72.74611087                0.00010000                0.12009413               -0.60139993               -0.15769012               -0.73501004                1.30270925                0.97121925
              15.98312502                4.87110162               72.32778649                0.00010000                0.24356953               -1.15151935               -0.50388857               -1.08531219                1.17407189                2.79808695
              16.98604683                4.39725179               71.90591399                0.00010000                0.51829476               -2.19274737               -0.84271930               -1.25926128                1.28805382                5.43582214
              17.99349091                3.91276164               71.49179840                0.00010000                3.01363244               -5.73937341               -1.28964262              -13.84701073               14.30937712               10.16978469
              19.04631948                3.13892453               71.33248393                0.00010000                4.68949436               -1.95073688               -4.76598729              -23.30687178               20.56196452                8.24037602
              20.08728080                2.41915528               71.02112806                0.00010000                3.10341260                1.45067321               -5.11831959              -18.39500450                9.23940081                8.07873853
              21.10838773                1.70689272               70.63113386                0.00010000                1.10836490                0.06853976               -0.25619591               -8.50189656                2.35650122               -0.01074139
              22.10944810                1.16749709               70.19286850                0.00010000                0.10603668                0.09509572               -0.31597212               -0.10843704                0.05767456               -0.09106609
              12.45211668                7.75239493               73.89329471                0.00010000               -0.12898843               -0.17555235                0.58523426               -0.02315058                0.28181528                0.70472783
              13.45082680                7.28343478               73.45856354                0.00010000               -0.08714133               -0.09486446                0.29243763               -0.00299455                0.49024865               -0.38591795
              14.45037386                6.81425790               73.02762689                0.00010000               -0.64179035                0.01111794                0.00092421               -0.69920347                3.01147407               -1.18631610
              15.43799099                6.33105696               72.64345592                0.00010000               -0.80110009               -0.87717372               -0.56108942               -2.06151362                5.81989558                1.66741946
              16.43435185                5.84694710               72.26510286                0.00010000                0.31854163               -2.07641516               -1.27681483               -2.87892117                7.10096663                4.86349637
              17.44436182                5.35126358               71.90147686                0.00010000                2.88077123               -4.33494643               -2.31537031               -5.79582927               10.53242286                9.20787573
              18.49196728                4.79549371               71.58391475                0.00010000                5.02902217               -8.29272043               -4.22711161              -13.01863214               14.44897619               14.67702033
              19.54494227                4.12965569               71.28764258                0.00010000                5.80705640               -0.45762083               -7.10819263              -20.27954859               14.73590416                9.44333886
              20.60810841                3.43795203               70.95535252                0.00010000                5.18748875                3.08264678              -11.61953769              -23.33724935                3.86139100               10.92420533
              21.64869204                2.70631954               70.42311761                0.00010000                1.99155122                6.09666417                0.28560902              -15.33443496               -4.64783671               16.74738145
              22.64793943                2.16709678               69.98452292                0.00010000               -0.07526111                6.89561448                0.26620380               -5.37942333               -0.01146191               17.57828777
              12.92042035                8.75086631               73.75979870                0.00010000               -0.09785386               -0.12870608                0.47596068               -0.01922469                0.01202218                0.62997026
              13.91944182                8.28265094               73.31716466                0.00010000               -0.06517328               -0.06909646                0.17386500                0.02082321                0.48754138               -0.57651298
              14.91911689                7.81456572               72.88374976                0.00010000               -0.60929246               -0.00922231               -0.13889249               -0.97168656                4.90702230               -1.76252815
              15.90725597                7.32576927               72.52927514                0.00010000               -0.68884590               -0.40939227               -0.90557685               -2.17949177                9.46375990                0.42587737
              16.90533997                6.82957332               72.18291656                0.00010000                0.71638367               -1.43017429               -1.91527280               -3.49346242               11.04615640                2.68726622
              17.92158364                6.31055286               71.85359481                0.00010000                2.46930929               -2.96422237               -3.38202673               -6.76970475               13.39506177                5.01497380
              18.95472616                5.74690723               71.54493605                0.00010000                3.83432703               -2.99364654               -5.59710858              -12.92357657               15.70143103                6.13608693
              19.99827018                5.12977211               71.24733650                0.00010000                4.45729038                1.02853004               -9.17504812              -18.38314270               16.13220438                7.03207297
              21.04387196                4.48080821               70.92325635                0.00010000                3.71420509                5.72899845              -13.59027523              -21.67620990               12.95988596                9.63443656
              22.07255428                3.82882600               70.54918554                0.00010000                1.82165910               13.70054010              -20.11137995              -15.83044600                7.25279834               20.02558324
              23.08030515                3.30540938               70.12803822                0.00010000                0.77508636               15.32480813              -22.02654905               -7.54919072                1.56537547               21.95894724
              13.38816293                9.74982081               73.62586890                0.00010000               -0.06190784               -0.08924952                0.36450268               -0.02517263               -0.00322442                0.66178790
              14.38754386                9.28205285               73.17762560                0.00010000               -0.01705692               -0.04179040                0.05618474                0.00024110                0.24960895               -0.46733605
              15.38782180                8.81407346               72.73423763                0.00010000               -0.40751502               -0.04137449               -0.31578223               -1.11574475                6.13566698               -1.99560582
              16.37939355                8.32286911               72.40375882                0.00010000               -0.40613899               -0.17910029               -1.15750614               -2.58085007               12.15794055               -0.68941281
              17.37969902                7.81834362               72.07817932                0.00010000                0.61201343               -0.71577832               -2.32150494               -4.17826037               13.26165968                0.59603418
              18.39163382                7.29197913               71.76467628                0.00010000                1.72887397               -1.04977872               -3.94833029               -7.14104487               14.95626127                1.71208828
              19.41427649                6.73562077               71.46502790                0.00010000                2.58723022               -0.14959848               -6.30458847              -10.97990175               16.66573342                2.54212328
              20.44337843                6.15022629               71.17292668                0.00010000                3.06269141                2.68125507               -9.83094564              -14.18602088               17.53587081                3.31169814
              21.47553032                5.55253200               70.87305399                0.00010000                3.20517642                7.09753401              -15.00555687              -14.44598103               16.10379089                4.80557618
              22.50748196                4.98033034               70.54219140                0.00010000                3.41292669               12.72399344              -20.27466324               -9.46791323               10.02940622                6.66365790
              23.54378886                4.47359294               70.14411761                0.00010000                3.63069007               14.05892493              -23.03937830               -4.18397823                4.36331629                7.61893464
              13.85545281               10.74908132               73.49249397                0.00010000               -0.02588240               -0.06078378                0.25305634               -0.02724844               -0.01228012                0.72915223
              14.85519399               10.28181513               73.03841262                0.00010000                0.02664614               -0.00152775               -0.06955930               -0.03139766                0.13902104               -0.45532965
              15.85598574                9.81373823               72.58725252                0.00010000               -0.19125911                0.00787260               -0.48672807               -1.19577198                6.92276760               -1.84229056
              16.85136881                9.32218726               72.26936133                0.00010000               -0.16604955                0.05980706               -1.31073713               -2.73399225               13.79591673               -1.47342529
              17.85266474                8.81525775               71.95579306                0.00010000                0.50583891               -0.02020456               -2.50340161               -4.28446106               14.58666703               -0.88083316
              18.86148558                8.28955729               71.65131286                0.00010000                1.21081088                0.20988557               -4.15471813               -6.40676720               15.79209680               -0.29533366
              19.87688096                7.74391526               71.35698754                0.00010000                1.80764770                1.27428116               -6.46614809               -8.65473978               17.03015653                0.18369911
              20.89763854                7.18339721               71.06880900                0.00010000                2.39836669                3.42685932               -9.79999095               -9.98737323               17.57597164                0.58012844
              21.92484830                6.62275889               70.77388310                0.00010000                3.22482692                6.35229754              -14.26583294               -9.22981408               15.76084553                0.84998055
              22.96213508                6.08330587               70.44532830                0.00010000                4.26260404                8.80933024              -18.81783230               -5.66956352                9.77372319                0.88040221
              24.01010038                5.58658788               70.04904906                0.00010000                4.79652999                9.40148989              -21.20977707               -2.70086908                4.38262515                1.03862682
              14.32215034               11.74860513               73.35937811                0.00010000                0.01086493               -0.03315390                0.13751159               -0.02677924               -0.00491035                0.78083866
              15.32225899               11.28202230               72.89923101                0.00010000                0.06919395                0.04367074               -0.19790616               -0.05036841                0.12769548               -0.48381956
              16.32353422               10.81423091               72.44174093                0.00010000                0.04675956                0.09544047               -0.66423314               -1.18204314                7.50056916               -1.80484918
              17.32319418               10.32406525               72.12984714                0.00010000                0.15527744                0.26239945               -1.38601866               -2.57784780               14.81874504               -1.84181097
              18.32663977                9.81793953               71.82257061                0.00010000                0.58233958                0.38985885               -2.51439912               -3.82190247               15.34844862               -1.66637825
              19.33484098                9.29617684               71.52258978                0.00010000                1.03509991                0.82786584               -4.10106887               -5.16937171               16.13809247               -1.40399222
              20.34734177                8.76110640               71.23039902                0.00010000                1.49731755                1.82597286               -6.28073759               -6.32120564               16.91841522               -1.16881364
              21.36478733                8.21876348               70.94225637                0.00010000                2.18418088                3.40502295               -9.34391471               -6.71560133               17.03915653               -0.98833048
              22.39102539                7.67957795               70.64563481                0.00010000                3.27371868                5.20492535              -13.42423898               -5.81807029               15.03019714               -0.85079730
              23.43026170                7.15651694               70.31589848                0.00010000                4.60910339                6.56384395              -17.57951530               -3.50292591                9.20100616               -0.63184197
              24.48320746                6.66162274               69.92003923                0.00010000                5.29457546                6.68883916              -20.08812604               -1.79617116                4.24560734               -0.24379853
              14.78808290               12.74841824               73.22649045                0.00010000                0.04779464               -0.00307116                0.01730004               -0.02507493               -0.00190969                0.80272572
              15.78856084               12.28268854               72.75974538                0.00010000                0.11095103                0.08983482               -0.32756381               -0.05368652                0.16568195               -0.54272756
              16.79030192               11.81564704               72.29647854                0.00010000                0.37711955                0.18653132               -0.86333512               -1.11139037                8.07564925               -1.53690374
              17.79610323               11.32743525               71.98896714                0.00010000                0.69065940                0.28474196               -1.41081248               -2.20974378               15.59805195               -1.80774587
              18.80411511               10.82305493               71.68441426                0.00010000                0.94140217                0.44466238               -2.41255702               -2.96961170               15.75266739               -1.78605039
              19.81493128               10.30611460               71.38597779                0.00010000                1.18775544                0.96383071               -3.87212233               -3.65438184               16.14422722               -1.70774320
              20.82787021                9.78043471               71.09345668                0.00010000                1.49618408                1.84978745               -5.87200395               -4.11778634               16.51179974               -1.64593575
              21.84485496                9.25149767               70.80334098                0.00010000                2.14316047                3.06306020               -8.69878378               -4.07783019               16.34269370               -1.57207445
              22.87073342                8.72685740               70.50406535                0.00010000                3.25884056                4.39287287              -12.59430711               -3.32250240               14.28005315               -1.42423986
              23.91003177                8.21458275               70.17269887                0.00010000                4.66159696                5.42846286              -16.74975763               -1.91828104                8.69030627               -1.08342630
              24.96396536                7.72036466               69.77800914                0.00010000                5.39335924                5.65857006              -19.58071942               -1.13243039                4.12932770               -0.61824944
              15.25310824               13.74854371               73.09331069                0.00010000                0.08482280                0.02920276               -0.10768883               -0.02188170                0.04819592                0.74556010
              16.25395647               13.28381899               72.61989379                0.00010000                0.17257350                0.13389218               -0.45200202               -0.04158060                0.60245445               -0.57307783
              17.25655971               12.81796154               72.15781270                0.00010000                0.88174746                0.23447716               -1.06129672               -1.08618109                8.86543392               -1.22536896
              18.27159142               12.32976009               71.85006000                0.00010000                1.60042393               -0.11225310               -1.40579031               -1.48587847               16.11899291               -1.23245645
              19.28856819               11.82683277               71.54696541                0.00010000                1.63910699                0.21438128               -2.23215353               -1.71690262               15.94674313               -1.19678174
              20.30437356               11.31545346               71.24843028                0.00010000                1.55173921                0.78990409               -3.51959386               -1.90081627               15.92775657               -1.21582674
              21.31960297               10.79810215               70.95408260                0.00010000                1.62172408                1.60100624               -5.28931881               -2.00650287               15.92810484               -1.24793069
              22.33680804               10.28002468               70.66085877                0.00010000                2.09436469                2.61776248               -7.81295190               -1.83315101               15.51420010               -1.26180728
              23.36149027                9.76743541               70.35830541                0.00010000                3.07903906                3.74722703              -11.45268814               -1.35470347               13.48690599               -1.23893787
              24.39838882                9.26508620               70.02500400                0.00010000                4.37523768                4.74816306              -15.55110612               -0.70560266                8.21398014               -1.10010895
              25.44899502                8.77479414               69.63066735                0.00010000                5.06062006                5.32924925              -18.80062719               -0.65385730                3.92406235               -0.89672000
              15.71709469               14.74900230               72.95886692                0.00010000                0.12167116                0.04585883               -0.22650342                0.03505458                0.33509745                0.69929286
              16.71831140               14.28536639               72.48054854                0.00010000                0.27712525                0.15473951               -0.57360341                0.00220797                1.26696186               -0.59681445
              17.72263720               13.82033658               72.02123729                0.00010000                1.96015116                0.23750455               -1.33276556               -1.40106106               10.08323185               -1.29323025
              18.75751443               13.32519019               71.71863987                0.00010000                3.07232455               -0.45699019               -1.32255259               -1.05740007               16.64127694               -0.48147975
              19.78408369               12.82734256               71.41610534                0.00010000                2.40655753                0.05097835               -1.99429169               -0.61232517               16.00544830               -0.52737238
              20.80564558               12.32191268               71.11720325                0.00010000                1.95426218                0.64592277               -3.07075262               -0.61718361               15.70669035               -0.57356293
              21.82316893               11.81245484               70.82112898                0.00010000                1.66065500                1.43526922               -4.53192190               -0.54639199               15.41748409               -0.65140573
              22.83885868               11.30385292               70.52509873                0.00010000                1.77044512                2.38282420               -6.61795040               -0.32758080               14.86016600               -0.73068955
              23.85857783               10.80180194               70.22001865                0.00010000                2.48511534                3.43665332               -9.69753386               -0.00658880               12.94673061               -0.91055075
              24.88856098               10.30954601               69.88605543                0.00010000                3.64472519                4.44598080              -13.31698717                0.27460194                7.97396088               -1.06400193
              25.93147234                9.82694965               69.49165156                0.00010000                4.29113532                5.21555066              -16.46668362               -0.01190429                4.15246419               -1.30665961
              11.46678084                4.89855258               75.29767811                1.00000000               -0.20842665               -0.22582447                0.79157305               -0.04583792               -0.38771741                0.49543841
              12.46469658                4.42263554               74.86768601                0.00010000               -0.18137282               -0.15824581                0.57928480               -0.02627158               -0.46740304                0.05569385
              13.46315339                3.94638164               74.43548886                0.00010000               -0.12558728               -0.09136165                0.36738148               -0.02627013               -0.48350818               -0.05874462
              14.46218483                3.46954769               74.00504439                0.00010000               -0.09184712               -0.02395099                0.15186514               -0.07439132               -0.44732102               -0.34831144
              15.46131644                2.99140243               73.57392362                0.00010000               -0.05782278                0.05480991               -0.06494915               -0.10830700               -0.41227136               -0.30296201
              16.46102838                2.51203114               73.14483370                0.00010000               -1.10350812                0.10505975               -0.31000045               -1.20285035                0.72754244               -0.55804018
              17.43924628                2.01044876               72.73757295                0.00010000               -5.88889668                1.45102169               -0.32811714              -10.26779410               11.61320843               -2.52912649
              18.34325044                1.30924054               72.52981754                0.00010000               -3.97414221                0.77589524               -2.06820137               -9.70271910               22.16124832                1.06103748
              19.35976344                0.60418183               72.29098497                0.00010000                6.02255158               -1.25686671               -2.60500460               -8.25054613               19.78555660                1.49320269
              20.46370147               -0.09570977               72.02918197                1.00000000                5.58758684                0.55693023               -2.49985332               -7.82918605                8.87884900               -0.07113277
              21.47151518               -0.63593426               71.59029614                1.00000000                0.78137010                0.58575601               -2.59547812               -0.18010952               -0.00797724               -0.05756656
              11.94223951                5.89629434               75.16301446                1.00000000               -0.17201792               -0.21197829                0.68881189               -0.01142827                0.02922407                0.69777218
              12.94051933                5.42105308               74.73283317                0.00010000               -0.14024499               -0.14563783                0.47705102                0.00696933                0.10656665                0.07980389
              13.93943461                4.94546803               74.30366805                0.00010000               -0.07944035               -0.07872656                0.26632325                0.00491101                0.15638324               -0.25121280
              14.93893052                4.46930818               73.87444074                0.00010000               -0.02214797               -0.02089639                0.06377123               -0.02684144                0.25556382               -0.31283743
              15.93899165                3.99195053               73.44771699                0.00010000                0.02730924                0.05123729               -0.17119851               -0.05516631                0.27486612               -0.24625394
              16.93947671                3.51308174               73.01981361                0.00010000               -0.05140039                0.11253744               -0.41337362               -0.47976884                0.37565851               -0.43074676
              17.93796364                3.02495898               72.59649937                0.00010000                0.49400050                0.78952964               -0.72586034              -10.53010803               11.31743025               -1.29023631
              18.94935672                2.31699949               72.38901102                0.00010000                2.08847453               -1.23020475               -2.18157509              -14.61826297               19.74716620                2.68459156
              19.97973313                1.59161317               72.12662476                0.00010000                2.80554715               -0.37863716               -2.41715787              -12.08810583               15.56961550                2.45739886
              21.00546766                0.90985953               71.82837317                1.00000000                1.51027174                0.39540829               -1.40278334               -6.92936222                7.02962978               -0.08498248
              22.00993857                0.36992330               71.38948988                1.00000000                0.44709070                0.42183804               -1.48551847               -0.15443405                0.00608642               -0.09352528
              12.41703479                6.89431301               75.03155839                1.00000000               -0.13725216               -0.18053777                0.58356365               -0.01549840                0.16872756                0.82231644
              13.41566227                6.41972278               74.59815255                0.00010000               -0.10191441               -0.11842775                0.37423830               -0.00116797                0.36317914               -0.00365922
              14.41499651                5.94480711               74.16819260                0.00010000               -0.02483883               -0.04773033                0.16457503               -0.02716227                0.88489758               -0.68610663
              15.41516550                5.46912976               73.74526539                0.00010000                0.07215277               -0.62059067               -0.01732443               -0.61074625                1.28910556                0.82396915
              16.41643956                4.99242718               73.32394564                0.00010000                0.16295277               -1.15487079               -0.27340542               -0.78895891                1.13178644                2.44311565
              17.41842455                4.51428189               72.89917469                0.00010000                0.41434036               -2.13152144               -0.51736361               -0.70032501                1.20174515                4.70941759
              18.42472637                4.02623936               72.48105946                0.00010000                3.29032240               -5.38290888               -0.86765675              -11.23544228               12.78651425                8.75131329
              19.48423100                3.28463644               72.29037420                0.00010000                5.02074575               -2.41917151               -3.63080053              -18.94381017               18.73812505                6.02856454
              20.52514128                2.59660909               71.98305958                0.00010000                3.12865486                0.58848207               -3.19854390              -15.17850196               10.55841579                5.06504476
              21.54680410                1.91219839               71.62760238                0.00010000                1.15788351                0.10240063               -0.40079527               -7.08484490                4.16206004               -0.02078094
              22.54829895                1.37250250               71.18866206                1.00000000                0.14948570                0.12349752               -0.45766791               -0.14490031                0.01267961               -0.04420324
              12.89111001                7.89268358               74.89861329                0.00010000               -0.11081394               -0.14195946                0.47965409               -0.01931850                0.27811038                0.70425380
              13.89000187                7.41868452               74.46139789                0.00010000               -0.08128150               -0.09064309                0.27392980               -0.00101891                0.48495590               -0.38675004
              14.88948438                6.94451342               74.02796380                0.00010000               -0.54531714               -0.03553804                0.06395644               -0.65505224                2.84996969               -1.19338474
              15.87909553                6.45689637               73.63816979                0.00010000               -0.57120182               -0.92278375               -0.49126905               -1.83591702                5.44454864                1.40427574
              16.87806035                5.96885312               73.25276978                0.00010000                0.62812504               -2.08059804               -1.17218838               -2.36354577                6.46219243                4.25275694
              17.89165803                5.47045131               72.87875593                0.00010000                3.24199483               -4.20190072               -2.14760546               -4.68600946                9.22086321                8.02814562
              18.94290024                4.91730080               72.54314620                0.00010000                5.42263761               -7.84330694               -3.80777148              -10.57035829               11.88986407               12.69617166
              20.00011078                4.26861606               72.21962059                0.00010000                5.28504512               -1.13927502               -5.81586452              -16.72231325               11.71419711                7.54891325
              21.04860114                3.60338281               71.88030000                0.00010000                4.38832850                1.49891904               -6.14335274              -18.59915851                4.39155422                7.71729127
              22.08787735                2.91190754               71.42741551                0.00010000                1.89156011                4.62875000                0.46100208              -12.43564682               -0.66917114                9.41689885
              23.08643235                2.37239325               70.98840519                0.00010000               -0.14450059                5.71433421                0.42010564               -5.32560852               -0.01061425                9.97257884
              13.36464654                8.89147383               74.76408268                0.00010000               -0.08344849               -0.09903071                0.38161939               -0.01628830                0.00502472                0.63341599
              14.36381205                8.41790992               74.31890794                0.00010000               -0.04814607               -0.06925013                0.17452396                0.00056603                0.46997746               -0.58022743
              15.36368362                7.94409635               73.88274668                0.00010000               -0.48522983               -0.08992868               -0.05917426               -0.95128371                4.62612177               -1.81042660
              16.35410746                7.45067409               73.52034667                0.00010000               -0.40349570               -0.50702574               -0.87034608               -2.07382694                8.82267331                0.27271663
              17.35561370                6.95081522               73.16374300                0.00010000                1.10746092               -1.50614142               -1.88308497               -3.21717068               10.04861798                2.31267115
              18.37625668                6.43024387               72.81976632                0.00010000                2.97703734               -2.96573557               -3.29280904               -6.14400477               11.68330276                4.38462663
              19.41515445                5.86937322               72.48914550                0.00010000                4.37230278               -3.04059393               -5.27380161              -11.64588861               12.83758009                5.35403542
              20.46370273                5.26185094               72.16158490                0.00010000                4.73560907                0.33102969               -7.73805617              -16.49137886               11.87897586                6.33557681
              21.50986663                4.62658747               71.80794457                0.00010000                3.26889932                3.99441575               -9.74390073              -18.00832100                8.41340477                7.91512712
              22.52908072                4.00477339               71.41493306                0.00010000                0.54743676               10.05984634              -10.82648070              -12.91074724                4.08036600               14.41526637
              23.52081537                3.48678918               70.98750702                0.00010000               -0.82653511               11.73003884              -11.03768910               -6.68866430                1.41838846               16.02938681
              13.83791206                9.89070297               74.62907024                0.00010000               -0.05213951               -0.06215760                0.27710949               -0.02125268               -0.00341938                0.66446433
              14.83739067                9.41729952               74.17827941                0.00010000               -0.01087616               -0.04541958                0.07456850               -0.04907670                0.20859665               -0.47537185
              15.83769454                8.94271485               73.73153701                0.00010000               -0.32452720               -0.10203446               -0.20497582               -1.14566253                5.77617944               -2.03000531
              16.83090012                8.44675585               73.39223444                0.00010000               -0.17736969               -0.27467710               -1.13767480               -2.55196260               11.40383538               -0.73206442
              17.83414714                7.93873029               73.05473279                0.00010000                0.96599066               -0.79480928               -2.33169726               -4.05251534               12.14364565                0.46928590
              18.85021994                7.41113660               72.72479986                0.00010000                2.21141282               -1.10707071               -3.92445605               -6.82546099               13.20918176                1.50772005
              19.87837540                6.85648893               72.40190716                0.00010000                3.14245092               -0.30100301               -6.07510145              -10.47044287               13.87279135                2.38629698
              20.91306895                6.27523665               72.07769694                0.00010000                3.35684368                2.15987177               -8.83380661              -13.51958395               13.33748596                3.32950486
              21.94551227                5.68327112               71.73811061                0.00010000                2.81958700                5.98006990              -12.01634343              -13.89953135               10.83316866                5.11436462
              22.96946069                5.11310447               71.36561292                0.00010000                2.15576015               10.13057056              -15.00733339               -9.10714519                6.25311731                7.16523076
              23.98862748                4.60699403               70.94812922                0.00010000                1.91667832               11.18478862              -16.34022459               -3.90434447                2.68390526                7.93232743
              14.31102838               10.89023067               74.49461323                0.00010000               -0.02097380               -0.03455380                0.17316182               -0.02209901               -0.01085845                0.72924526
              15.31081864               10.41700153               74.03792029                0.00010000                0.01428292               -0.01178843               -0.02922207               -0.07672797                0.08768178               -0.46623764
              16.31131404                9.94205566               73.58310082                0.00010000               -0.18829385               -0.02117742               -0.31697119               -1.23471797                6.54980122               -1.83620626
              17.30705276                9.44518054               73.25626415                0.00010000               -0.05656921               -0.01432351               -1.29689439               -2.74701189               13.04503689               -1.42772814
              18.31018265                8.93491903               72.93037923                0.00010000                0.74680289               -0.07090393               -2.54625875               -4.22655235               13.50517349               -0.83233157
              19.32198882                8.40810246               72.60915350                0.00010000                1.57314423                0.17259829               -4.18843713               -6.27971009               14.18996170               -0.24547124
              20.34164554                7.86335316               72.29175332                0.00010000                2.22700179                1.18456204               -6.36180305               -8.50765710               14.59760169                0.30553248
              21.36652886                7.30504838               71.97225826                0.00010000                2.61813272                3.21369700               -9.16207927               -9.93748412               14.05237289                0.92113003
              22.39400819                6.74618887               71.63877271                0.00010000                2.83430271                5.95014755              -12.41989399               -9.30201189               11.73264383                1.61191502
              23.42321491                6.20738480               71.27443677                0.00010000                3.04705855                8.38418590              -15.36513864               -5.79676276                6.93941057                2.24103473
              24.45494936                5.71048496               70.85916369                0.00010000                3.17344512                8.99199353              -16.81810461               -2.71935825                3.09614574                2.30111782
              14.78392838               11.89001189               74.36038358                0.00010000                0.01027412               -0.00896835                0.06769582               -0.02046861               -0.00261717                0.77388711
              15.78403112               11.41706375               73.89759689                0.00010000                0.04463918                0.02399207               -0.13067389               -0.08060401                0.07078281               -0.49277809
              16.78482116               10.94229130               73.43629074                0.00010000               -0.04673025                0.05410689               -0.41783234               -1.19466591                7.15054100               -1.77530249
              17.78309651               10.44646938               73.11600569                0.00010000                0.09365111                0.22579146               -1.36734274               -2.58259988               14.15605989               -1.74661972
              18.78669418                9.93731221               72.79691661                0.00010000                0.65475483                0.39825395               -2.58743645               -3.78186915               14.40040601               -1.52519971
              19.79619161                9.41458856               72.48081299                0.00010000                1.22910792                0.85243087               -4.18678153               -5.13427836               14.78067213               -1.24099558
              20.81127634                8.88018017               72.16668744                0.00010000                1.76459765                1.82706881               -6.28363741               -6.32451028               14.92287306               -0.96172549
              21.83148356                8.33951059               71.84916671                0.00010000                2.29296351                3.36047216               -8.95865364               -6.78465669               14.21552174               -0.70159979
              22.85713561                7.80227407               71.51718835                0.00010000                2.88728945                5.15988921              -12.03416293               -5.94801901               11.79832994               -0.47810811
              23.88922935                7.28078819               71.15341325                0.00010000                3.54521980                6.55979096              -14.86614215               -3.57923127                6.97337407               -0.37722921
              24.92804001                6.78683390               70.73765859                0.00010000                3.88106556                6.73066023              -16.43219397               -1.72095858                3.19018106               -0.48522971
              15.25651528               12.89005131               74.22634224                0.00010000                0.04118684                0.01732723               -0.04055362               -0.01853452               -0.00034087                0.78658459
              16.25692715               12.41748137               73.75698885                0.00010000                0.07499027                0.05946163               -0.22881321               -0.07621827                0.09821245               -0.54607123
              17.25801509               11.94313780               73.28973879                0.00010000                0.17263506                0.10582291               -0.51521190               -1.06108509                7.76623259               -1.50492426
              18.26037985               11.44969637               72.97490920                0.00010000                0.42054997                0.31407246               -1.38478852               -2.14361603               15.07869280               -1.69680786
              19.26642609               10.94288411               72.65968254                0.00010000                0.80277229                0.55013708               -2.51407674               -2.92984994               15.00569816               -1.62540856
              20.27643530               10.42515108               72.34638146                0.00010000                1.19036060                1.06911679               -4.00884151               -3.67890111               15.09202366               -1.52691988
              21.29023330                9.89989453               72.03361594                0.00010000                1.61532589                1.91805661               -5.96628433               -4.20549005               14.97652539               -1.45046516
              22.30874182                9.37225782               71.71627149                0.00010000                2.17684594                3.06561015               -8.46682436               -4.20596389               14.09632273               -1.40587062
              23.33377022                8.84938665               71.38372070                0.00010000                2.91643230                4.30492563              -11.37268930               -3.45119927               11.62875970               -1.39403617
              24.36707046                8.33858062               71.01909635                0.00010000                3.73342755                5.24868741              -14.14647517               -1.96454214                6.86485003               -1.44739707
              25.40843877                7.84509816               70.60206433                0.00010000                4.13683072                5.34637320              -15.89630709               -1.00305914                3.19582374               -1.69196804
              15.72869756               13.89035843               74.09196571                0.00010000                0.07226939                0.04539366               -0.15255001               -0.01663800                0.05118946                0.72526254
              16.72942026               13.41825298               73.61607479                0.00010000                0.13434438                0.09327418               -0.32260548               -0.07236639                0.50508517               -0.56975062
              17.73138445               12.94440776               73.14950537                0.00010000                0.55288104                0.12105818               -0.65077787               -0.93222046                8.56643002               -1.20778796
              18.74047788               12.45275083               72.83611918                0.00010000                1.06290142                0.07444725               -1.37680193               -1.36221706               15.77256061               -1.13401548
              19.75264248               11.94831495               72.52389841                0.00010000                1.25626431                0.43527521               -2.37891721               -1.68813274               15.46024122               -1.08742895
              20.76560317               11.43597090               72.21212790                0.00010000                1.37086577                0.99121202               -3.73521996               -1.96418873               15.24869229               -1.08611841
              21.78005980               10.91854130               71.89973380                0.00010000                1.61345010                1.74874039               -5.51058639               -2.13280995               14.91216301               -1.10836745
              22.79787217               10.40082280               71.58189724                0.00010000                2.08645141                2.66399169               -7.79588837               -2.01028518               13.91723938               -1.16052179
              23.82178882                9.88837259               71.24855467                0.00010000                2.81774166                3.60971710              -10.49979046               -1.52030419               11.46351363               -1.23715162
              24.85422700                9.38576193               70.88310195                0.00010000                3.65774620                4.36768707              -13.18401531               -0.78313589                6.77852038               -1.32815407
              25.89494375                8.89376136               70.46399227                0.00010000                4.07167474                4.63197254              -15.09661192               -0.47795375                3.26219380               -1.71889644
              16.20039342               14.89095918               73.95639040                0.00010000                0.10370773                0.06007449               -0.26005141                0.00835305                0.32365953                0.67711832
              17.20143050               14.41934685               73.47566218                0.00010000                0.22397044                0.10938667               -0.41893419               -0.06898651                1.09531377               -0.58610486
              18.20487283               13.94555896               73.01070433                0.00010000                1.38989068                0.11512072               -0.83517664               -1.05923853                9.76054384               -1.23518251
              19.22922832               13.45118532               72.70515545                0.00010000                2.22852659               -0.15655116               -1.36510459               -0.82342376               16.58815062               -0.48922860
              20.24944336               12.95158962               72.39494714                0.00010000                1.88484316                0.32746647               -2.24790866               -0.63041166               15.81905105               -0.51838105
              21.26692518               12.44497532               72.08462273                0.00010000                1.66409188                0.90044189               -3.46191793               -0.70381248               15.44712555               -0.55080819
              22.28272520               11.93486934               71.77298548                0.00010000                1.58898236                1.63280443               -5.04845189               -0.70534250               15.00190978               -0.61998390
              23.29870483               11.42553765               71.45569238                0.00010000                1.78498974                2.47148580               -7.09255718               -0.58115163               14.01476327               -0.73411368
              24.31842500               10.92158099               71.12333598                0.00010000                2.36570721                3.32084088               -9.55378150               -0.31654724               11.71598819               -0.90779539
              25.34601897               10.42593436               70.75988565                0.00010000                3.22279222                4.01724296              -12.06615692               -0.01297227                7.17033387               -1.11504145
              26.38288084                9.93773761               70.34083015                0.00010000                3.68618720                4.39762509              -13.97571593               -0.02596589                3.86616541               -1.72166037
              11.89395117                5.03866758               76.30487790                1.00000000               -0.17831527               -0.18452882                0.65117916               -0.03130138               -0.38797248                0.49227626
              12.89216802                4.55855147               75.87318192                0.00010000               -0.16293147               -0.14277125                0.52021562               -0.01421112               -0.46858423                0.05494100
              13.89069255                4.07813000               75.43928157                0.00010000               -0.13057749               -0.10051466                0.38915659               -0.01387146               -0.48584285               -0.05644459
              14.88955647                3.59719151               75.00710034                0.00010000               -0.11609637               -0.05843006                0.25479475               -0.05571253               -0.44932915               -0.33112023
              15.88837062                3.11510511               74.57424572                0.00010000               -0.09980544               -0.00747198                0.12173440               -0.08511804               -0.42563902               -0.30290723
              16.88756036                2.63198719               74.14315044                0.00010000               -1.20208958                0.01754187               -0.03598380               -1.16380045                0.81663784               -0.55756793
              17.86432883                2.12707412               73.73616687                0.00010000               -4.97163287                1.39158250                0.00534999               -8.33003764               11.01220712               -2.75390622
              18.78812771                1.45858124               73.51059186                0.00010000               -2.83225401                0.32243618               -1.75578274               -7.96318748               20.94625087                0.65384340
              19.80768375                0.77948321               73.26581791                0.00010000                5.75770796               -1.34712814               -2.40070846               -7.13794689               19.45298303                1.03769688
              20.90328187                0.09917609               73.00464843                1.00000000                5.15777784                0.56525881               -2.45296245               -6.86373723                8.93871261               -0.04705812
              21.91083930               -0.44082632               72.56513473                1.00000000                0.75574374                0.57847526               -2.48758961               -0.16364947                0.00266026               -0.01827468
              12.37375427                6.03682229               76.16925065                1.00000000               -0.14595692               -0.17213608                0.56103116               -0.00994689                0.02686211                0.69195447
              13.37229470                5.55712375               75.73737174                0.00010000               -0.12602296               -0.13205688                0.43077252                0.00642976                0.10364756                0.07874144
              14.37123381                5.07712485               75.30651694                0.00010000               -0.08914553               -0.09022573                0.30105046                0.00495785                0.15866562               -0.24786149
              15.37051179                4.59660721               74.87568618                0.00010000               -0.05561067               -0.05642185                0.17996286               -0.02232122                0.24906250               -0.28940245
              16.37012160                4.11503039               74.44705324                0.00010000               -0.02869673               -0.00969782                0.03000338               -0.04818873                0.25338837               -0.23967342
              17.36993786                3.63216260               74.01717369                0.00010000               -0.11950875                0.02553159               -0.12528523               -0.43164484                0.32186588               -0.42285817
              18.36773142                3.14098994               73.59119306                0.00010000                0.61767133                0.70334761               -0.34426724               -8.83320708               10.69587348               -1.42733600
              19.38229128                2.46180560               73.37001025                0.00010000                2.41377144               -1.48474952               -1.67812179              -12.20119279               19.02297243                1.75531814
              20.41600685                1.76601193               73.10485722                0.00010000                3.12539888               -0.63511390               -2.01432755              -10.17198653               15.85464814                1.61548666
              21.44479926                1.10482868               72.81412080                1.00000000                1.65991854                0.41293294               -1.43393075               -5.91544577                7.43985610               -0.05469019
              22.44920522                0.56495843               72.37466340                1.00000000                0.44059618                0.42620203               -1.46786161               -0.14987423                0.00032430               -0.04178405
              12.85314930                7.03522485               76.03680754                0.00010000               -0.11552483               -0.14332857                0.46856130               -0.01368097                0.16478211                0.81495585
              13.85199406                6.55591033               75.60172868                0.00010000               -0.09205266               -0.10896811                0.34091269               -0.00093311                0.35825821               -0.00335467
              14.85130825                6.07632548               75.17009264                0.00010000               -0.03947739               -0.06443585                0.21279088               -0.02398637                0.89398641               -0.68188373
              15.85120451                5.59606307               74.74576438                0.00010000                0.02715967               -0.62730089                0.11081806               -0.49250674                1.27704127                0.63993933
              16.85185144                5.11491115               74.32231838                0.00010000                0.08817038               -1.14127514               -0.06086075               -0.53386396                1.09626977                2.02960884
              17.85296792                4.63249782               73.89556671                0.00010000                0.30851212               -2.04638711               -0.21585220               -0.26526388                1.12960571                3.94024609
              18.85802169                4.14114107               73.47444527                0.00010000                3.30569718               -4.98294229               -0.46488484               -9.12215469               11.61019143                7.37699931
              19.91908186                3.42888625               73.25986792                0.00010000                5.15996253               -2.61911766               -2.66714105              -15.72894979               17.56962088                4.34435234
              20.96122094                2.76678094               72.95715718                0.00010000                3.34722955                0.07004695               -2.30896393              -12.46568880               11.76269645                3.05723177
              21.98602645                2.10743475               72.62311796                0.00010000                1.31806899                0.12490738               -0.45072395               -5.83395228                5.27432999               -0.05669629
              22.98758232                1.56769772               72.18371514                1.00000000                0.15558670                0.13724838               -0.48188173               -0.14657438               -0.00277283               -0.05656976
              13.33210970                8.03395572               75.90288779                0.00010000               -0.09342897               -0.10735841                0.37726289               -0.01508109                0.27379851                0.69952731
              14.33117541                7.55494439               75.46404214                0.00010000               -0.07541790               -0.08727316                0.25452995                0.00318650                0.47634581               -0.38334557
              15.33060134                7.07583613               75.02890602                0.00010000               -0.45497137               -0.07707542                0.12226078               -0.59954293                2.64940121               -1.19598710
              16.32207598                6.58406119               74.63363054                0.00010000               -0.37958869               -0.94520547               -0.40647415               -1.60613200                4.97108617                1.07793433
              17.32300957                6.09220489               74.24165909                0.00010000                0.81633394               -2.05237103               -1.01993303               -1.88925416                5.73105031                3.54057028
              18.33840266                5.59123486               73.85852476                0.00010000                3.29451632               -4.01481787               -1.85313844               -3.69972586                7.88539554                6.74906931
              19.38889990                5.04133109               73.50775932                0.00010000                5.18348781               -7.29570426               -3.15432430               -8.50870637               10.00397167               10.71119366
              20.44207242                4.40942325               73.17132529                0.00010000                4.96223392               -1.52394734               -4.29008654              -13.79747225               10.16375188                5.68690039
              21.48814457                3.76741287               72.83248546                0.00010000                4.25655053                0.72596041               -4.19310789              -15.22627276                6.85822435                4.74645167
              22.52720343                3.10732683               72.43233765                0.00010000                1.88016123                3.57495817                0.45108112              -10.55683849                1.95317544                4.51597763
              23.52574780                2.56770340               71.99292503                0.00010000               -0.14556312                4.92876827                0.42392060               -5.16520869                0.01984774                5.20715761
              13.81087033                9.03307769               75.76743109                0.00010000               -0.06929612               -0.06880837                0.29014598               -0.01295730               -0.00042048                0.62707695
              14.81017737                8.55416487               75.32065514                0.00010000               -0.03348674               -0.07056638                0.17369388               -0.01100558                0.44794474               -0.57663521
              15.81020060                8.07478397               74.88256627                0.00010000               -0.37321281               -0.13584623                0.02096927               -0.91084449                4.25584516               -1.80435973
              16.80271311                7.57715896               74.51186822                0.00010000               -0.16539550               -0.58754212               -0.80548930               -1.93608705                8.01528679                0.08454823
              17.80689269                7.07386373               74.14525486                0.00010000                1.35670382               -1.55558912               -1.76786711               -2.89802822                8.88106876                1.87844829
              18.82984719                6.55220146               73.78773863                0.00010000                3.13832430               -2.92442581               -3.01761343               -5.41981604                9.91694496                3.67388189
              19.86965917                5.99522698               73.43946002                0.00010000                4.36017240               -3.02960964               -4.57484976              -10.19294044               10.38675160                4.47834153
              20.91705064                5.39840730               73.09257538                0.00010000                4.45663655               -0.16401097               -6.16906613              -14.10372809                9.33602931                5.00523352
              21.95879190                4.78130014               72.72837834                0.00010000                2.87742569                2.82891382               -6.96392909              -15.16701252                6.45444307                5.49824866
              22.97459915                4.17893392               72.33265593                0.00010000                0.23665495                7.84022067               -7.05917577              -10.98523971                3.19882017                7.71632715
              23.96352500                3.66627309               71.90728443                0.00010000               -1.10741497                9.64397065               -6.70207258               -5.93175418                1.65323033                8.96856267
              14.28967620               10.03257955               75.63141109                0.00010000               -0.04271828               -0.03624005                0.19377584               -0.01708931               -0.00251470                0.65338867
              15.28924901                9.55353306               75.17911697                0.00010000               -0.01429184               -0.04959833                0.09170448               -0.05888402                0.17289255               -0.47406586
              16.28939036                9.07311921               74.73013811                0.00010000               -0.24872646               -0.12618008               -0.07517219               -1.13927048                5.31435330               -1.97525385
              17.28427448                8.57231035               74.38100532                0.00010000                0.03080724               -0.36487593               -1.08337123               -2.48740396               10.43236449               -0.78690215
              18.29000650                8.06109310               74.03154538                0.00010000                1.21843038               -0.87182129               -2.25071428               -3.82889114               10.81122717                0.31312922
              19.30864309                7.53274635               73.68618716                0.00010000                2.44143697               -1.17833632               -3.69836925               -6.31453303               11.30853947                1.26715628
              20.33883524                6.98073890               73.34352587                0.00010000                3.26408026               -0.49906800               -5.46975454               -9.52671256               11.27527786                2.08455155
              21.37392470                6.40614303               72.99625055                0.00010000                3.27212344                1.59713694               -7.43537839              -12.10658944               10.13203129                2.92682327
              22.40427771                5.82399115               72.63272713                0.00010000                2.43004985                4.73096556               -9.34091208              -12.17405148                7.68503276                4.15709565
              23.42252569                5.26413124               72.24204473                0.00010000                1.40783316                8.06961601              -10.73101776               -7.87375908                4.15129127                5.57682696
              24.43243437                4.76058281               71.81731312                0.00010000                0.99086818                8.84038893              -11.18846012               -3.40262075                1.79347620                5.79242103
              14.76862151               11.03235288               75.49595720                0.00010000               -0.01614832               -0.01128443                0.09887707               -0.01823971               -0.00888262                0.71465823
              15.76846003               10.55317290               75.03782818                0.00010000                0.00081957               -0.02174433                0.00895163               -0.07870222                0.05687263               -0.46362000
              16.76863790               10.07226037               74.58091309                0.00010000               -0.17344464               -0.05161604               -0.13473084               -1.22827895                6.06017049               -1.75501158
              17.76499114                9.56986144               74.24342344                0.00010000                0.06204785               -0.09112709               -1.24434876               -2.72090144               12.03005472               -1.36926261
              18.76987886                9.05642731               73.90486788                0.00010000                0.94597967               -0.14804410               -2.50224558               -4.06963053               12.17223234               -0.78314012
              19.78391073                8.52863473               73.56754412                0.00010000                1.79246875                0.06913098               -4.03539818               -5.95705957               12.35988384               -0.19460432
              20.80572824                7.98524562               73.22975148                0.00010000                2.38779363                0.96351800               -5.89943424               -7.98372137               12.12784880                0.39352998
              21.83166660                7.43035004               72.88556741                0.00010000                2.57972123                2.72876080               -8.05357588               -9.23270039               11.01062071                1.05963491
              22.85732266                6.87591945               72.52548522                0.00010000                2.44328506                5.05383268              -10.27127728               -8.57780361                8.62311884                1.83070683
              23.88053230                6.34032624               72.13802553                0.00010000                2.26233924                7.00907699              -12.08850665               -5.30526715                4.84518154                2.42382099
              24.90256945                5.84308086               71.71268697                0.00010000                2.20371416                7.42173464              -12.81698846               -2.42023583                2.18098196                2.23625905
              15.24767137               12.03235386               75.36073202                0.00010000                0.00961086                0.01074594                0.00701360               -0.01750084               -0.00060645                0.75266383
              16.24776748               11.55309818               74.89661753                0.00010000                0.02324321                0.00581597               -0.06916511               -0.07992320                0.04315986               -0.48424259
              17.24813624               11.07208689               74.43338428                0.00010000               -0.10389812                0.00367774               -0.19001569               -1.17710303                6.66787422               -1.69691535
              18.24568952               10.57048780               74.10250028                0.00010000                0.08521811                0.17620862               -1.31250525               -2.56062274               13.18450800               -1.61734885
              19.24984060               10.05813222               73.77082188                0.00010000                0.74970319                0.35688269               -2.58371435               -3.67404463               13.16857525               -1.35719590
              20.26068358                9.53412897               73.43885415                0.00010000                1.38024535                0.78132803               -4.11795195               -4.95976721               13.13863463               -1.02932000
              21.27744551                9.00000926               73.10472627                0.00010000                1.89566365                1.65667146               -5.97531365               -6.08141321               12.75459936               -0.68458173
              22.29859686                8.46071825               72.76308329                0.00010000                2.26499700                3.01498449               -8.12467136               -6.49657022               11.57643466               -0.32765587
              23.32274545                7.92506780               72.40495156                0.00010000                2.53310423                4.58454514              -10.35855881               -5.66221808                9.15963949               -0.01416427
              24.34925894                7.40431278               72.01857564                0.00010000                2.78874776                5.78099345              -12.21700282               -3.37987325                5.21688584                0.08929516
              25.37852040                6.90901751               71.59139535                0.00010000                2.92614612                5.85553789              -13.07748836               -1.56070659                2.38778526               -0.31634890
              15.72678286               13.03256780               75.22567938                0.00010000                0.03456782                0.03234682               -0.08536066               -0.01573439                0.00152452                0.75873846
              16.72712854               12.55328922               74.75516911                0.00010000                0.04616783                0.03262348               -0.14261961               -0.07414269                0.07148375               -0.53109618
              17.72770622               12.07233393               74.28617430                0.00010000                0.03024038                0.03766793               -0.24247524               -1.00979585                7.30821644               -1.44708813
              18.72773335               11.57338561               73.96127137                0.00010000                0.25252942                0.31728637               -1.33034866               -2.09044463               14.19995214               -1.54594878
              19.73275681               11.06356496               73.63413273                0.00010000                0.75524996                0.58436858               -2.55768976               -2.86003137               13.93687708               -1.42060871
              20.74283835               10.54426129               73.30580096                0.00010000                1.23769429                1.06804268               -4.03537375               -3.61787426               13.70664670               -1.26732255
              21.75751069               10.01837905               72.97413099                0.00010000                1.69191567                1.82780018               -5.81714245               -4.14900896               13.16886419               -1.12139540
              22.77667666                9.49064973               72.63400449                0.00010000                2.14865358                2.83375560               -7.87647737               -4.15167954               11.90226383               -1.00147859
              23.80048376                8.96761036               72.27661156                0.00010000                2.61542378                3.90046438              -10.02955723               -3.39466246                9.42284262               -0.95492363
              24.82898513                8.45594610               71.88976936                0.00010000                3.07310520                4.67105196              -11.86941969               -1.90780255                5.37915863               -1.10043993
              25.86194587                7.96019162               71.46008300                0.00010000                3.29607327                4.63164465              -12.82579545               -0.87855516                2.51710973               -1.65241086
              16.20591386               14.03300080               75.09025969                0.00010000                0.06046497                0.05637313               -0.18112626               -0.01294185                0.05218705                0.69520519
              17.20651851               13.55375065               74.61344168                0.00010000                0.09650345                0.05901437               -0.21595884               -0.06926659                0.45003255               -0.55134714
              18.20784392               13.07284024               74.14479714                0.00010000                0.30655434                0.04505471               -0.34263085               -0.81342639                8.12120251               -1.16831575
              19.21264959               12.57683353               73.82252396                0.00010000                0.69601830                0.19737251               -1.33726434               -1.28596854               15.02375548               -1.01670092
              20.22176429               12.06981959               73.49938707                0.00010000                1.04312068                0.56562554               -2.49209308               -1.65515436               14.58891547               -0.94039270
              21.23351201               11.55548982               73.17372588                0.00010000                1.31562992                1.08227771               -3.88539618               -1.97714609               14.14747856               -0.89350973
              22.24807689               11.03656527               72.84387088                0.00010000                1.64099766                1.75863807               -5.56044481               -2.17348369               13.48440892               -0.86215352
              23.26633196               10.51739336               72.50494101                0.00010000                2.07394682                2.54653168               -7.49732737               -2.06807004               12.16236535               -0.85871787
              24.28955583               10.00307709               72.14830960                0.00010000                2.60948329                3.32365207               -9.54180653               -1.57194839                9.66847544               -0.90545907
              25.31852163                9.49773382               71.76132369                0.00010000                3.14512196                3.88658432              -11.33706706               -0.79691627                5.54633260               -1.06700772
              26.35245826                9.00165040               71.32873511                0.00010000                3.39366394                3.93245301              -12.34174339               -0.36030333                2.67040610               -1.64212392
              16.68502432               15.03369527               74.95366589                0.00010000                0.08794360                0.06944697               -0.27990895               -0.01152938                0.30983582                0.64656466
              17.68590376               14.55446951               74.47216986                0.00010000                0.16652417                0.07188586               -0.29282091               -0.08448702                0.98786801               -0.56375737
              18.68835481               14.07323502               74.00453376                0.00010000                0.95654345                0.03947748               -0.46443326               -0.80573399                9.31471724               -1.17986361
              19.70503463               13.57733306               73.69133778                0.00010000                1.63213120                0.04995328               -1.38156901               -0.67937395               16.00717849               -0.46190181
              20.72099743               13.07487747               73.37114717                0.00010000                1.57575623                0.50578772               -2.47286054               -0.64799682               15.13392621               -0.47121097
              21.73654975               12.56590685               73.04796490                0.00010000                1.55700247                1.04170291               -3.79632758               -0.76250829               14.58772468               -0.47673972
              22.75213748               12.05355181               72.72015994                0.00010000                1.61268415                1.69865474               -5.38651879               -0.81026509               13.88109496               -0.51367290
              23.76880344               11.54158037               72.38324758                0.00010000                1.82834269                2.41870080               -7.23072209               -0.72627311               12.60208799               -0.58689692
              24.78870433               11.03408340               72.02894302                0.00010000                2.28350325                3.10063101               -9.19687026               -0.48027800               10.22752424               -0.71075842
              25.81447350               10.53367779               71.64473229                0.00010000                2.91011571                3.59439700              -10.95966965               -0.16694835                6.12521371               -0.90437791
              26.84690665               10.03884068               71.21213724                0.00010000                3.24331470                3.71902837              -11.97129210               -0.03887267                3.29063386               -1.53452102
              12.32241335                5.17965261               77.31070170                0.00010000               -0.14921311               -0.14488288                0.51651565               -0.01766890               -0.38848285                0.48916222
              13.32092122                4.69535471               76.87809032                0.00010000               -0.14476259               -0.12735643                0.46180349               -0.00305406               -0.47025924                0.05446229
              14.31951810                4.21078200               76.44327199                0.00010000               -0.13435631               -0.10822760                0.40667241               -0.00251643               -0.48886720               -0.05384869
              15.31823410                3.72575362               76.01014028                0.00010000               -0.13822647               -0.08975251                0.34835745               -0.03849977               -0.45092322               -0.31394865
              16.31675357                3.23972925               75.57635831                0.00010000               -0.13970590               -0.06448428                0.29300546               -0.06418457               -0.43517493               -0.30227970
              17.31543998                2.75283327               75.14411403                0.00010000               -1.23522853               -0.06249728                0.21860791               -1.08712741                0.88307653               -0.55834853
              18.29204900                2.24531826               74.73767995                0.00010000               -4.14577775                1.28156092                0.24498363               -6.76807689               10.41772140               -2.89657000
              19.23252442                1.60348062               74.49470189                0.00010000               -1.86412389               -0.06508297               -1.42863391               -6.56029662               19.66108163                0.36191520
              20.25476652                0.94685715               74.24297080                0.00010000                5.53172406               -1.42735280               -2.17659284               -6.15891241               18.90978445                0.70098420
              21.34315891                0.28440433               73.98012272                1.00000000                4.79146315                0.58918647               -2.45711999               -5.98074305                8.85341635               -0.01631069
              22.35059579               -0.25535710               73.54054434                1.00000000                0.74368824                0.58643042               -2.43233902               -0.14973720                0.00513503                0.00492754
              12.80653456                6.17820378               77.17423508                0.00010000               -0.12085779               -0.13388083                0.43863350               -0.00852274                0.02444246                0.68593025
              13.80532599                5.69408114               76.74144862                0.00010000               -0.11205397               -0.11847096                0.38477374                0.00585329                0.10043464                0.07802111
              14.80429348                5.20969972               76.30968906                0.00010000               -0.09752549               -0.10008190                0.33088488                0.00486879                0.16040890               -0.24365152
              15.80337548                4.72485609               75.87803999                0.00010000               -0.08607907               -0.08847140                0.28538074               -0.01844172                0.24378795               -0.26651164
              16.80257190                4.23908441               75.44831706                0.00010000               -0.08006375               -0.06578731                0.21460373               -0.04193735                0.23645521               -0.23379895
              17.80177420                3.75220829               75.01730790                0.00010000               -0.17636737               -0.05487604                0.14188536               -0.37503712                0.27899115               -0.41671506
              18.79904456                3.25813387               74.58961403                0.00010000                0.71889056                0.59474155                0.02117206               -7.43992540               10.07536036               -1.53576937
              19.81615201                2.60282979               74.35544859                0.00010000                2.68354955               -1.66360884               -1.28477511              -10.25815848               18.24399657                1.04433556
              20.85271555                1.93258362               74.08633821                0.00010000                3.41532939               -0.83658349               -1.74114610               -8.50774763               15.89415834                0.98507798
              21.88445860                1.29029620               73.79969455                1.00000000                1.80721507                0.42216401               -1.47317941               -4.97512917                7.65140756               -0.02898535
              22.88885985                0.75050720               73.36013265                1.00000000                0.44012483                0.42332866               -1.45443532               -0.15623200               -0.00002081               -0.02620682
              13.29048817                7.17697499               77.04092962                0.00010000               -0.09458244               -0.10765991                0.35848966               -0.01183401                0.16084454                0.80650802
              14.28954234                6.69298529               76.60497081                0.00010000               -0.08238179               -0.09949990                0.30756051               -0.00050267                0.35324678               -0.00226288
              15.28884053                6.20878036               76.17244842                0.00010000               -0.05308800               -0.07898415                0.25568560               -0.02052893                0.90155874               -0.67755306
              16.28848058                5.72398419               75.74748175                0.00010000               -0.01389532               -0.62524378                0.22666454               -0.39890806                1.26571331                0.43529272
              17.28856262                5.23841350               75.32272843                0.00010000                0.02045970               -1.11781812                0.13487331               -0.35166070                1.06734760                1.59722659
              18.28888978                4.75173575               74.89485764                0.00010000                0.20331853               -1.94737579                0.06388436                0.01455506                1.07490783                3.18719741
              19.29262899                4.25721309               74.47176176                0.00010000                3.20108617               -4.58119722               -0.07947805               -7.51963574               10.59855643                6.17778635
              20.35291150                3.57020845               74.23703138                0.00010000                5.22580872               -2.65915943               -2.01529564              -13.22899719               16.56619025                2.87787317
              21.39714517                2.93012548               73.93688030                0.00010000                3.64106199               -0.27464665               -1.94590068              -10.26615551               12.55506405                1.51411033
              22.42573274                2.29284761               73.61858790                0.00010000                1.49519818                0.11964628               -0.42385590               -4.74866567                6.08314241               -0.06210106
              23.42704913                1.75310947               73.17902443                1.00000000                0.13163936                0.12299526               -0.42123378               -0.13407922               -0.01030431               -0.06960103
              13.77427728                8.17605058               76.90615855                0.00010000               -0.07667251               -0.07414664                0.27956320               -0.01085050                0.26912999                0.69110207
              14.77351056                7.69209115               76.46648849                0.00010000               -0.06966393               -0.08414542                0.23464127                0.00814425                0.46519258               -0.37643205
              15.77288401                7.20812004               76.03040901                0.00010000               -0.38731921               -0.10016505                0.17631360               -0.54965071                2.42536907               -1.19380775
              16.76576418                6.71235122               75.63004031                0.00010000               -0.25484369               -0.94969625               -0.30100338               -1.40739854                4.46097632                0.71054037
              17.76778713                6.21672804               75.23237112                0.00010000                0.87507704               -1.99578000               -0.82038391               -1.51441977                5.01485860                2.78066274
              18.78326572                5.71326078               74.84169316                0.00010000                3.11960040               -3.78383202               -1.48390784               -2.93587431                6.76580816                5.47341040
              19.83017914                5.16650992               74.48005972                0.00010000                4.76969803               -6.70197958               -2.45847654               -6.90952169                8.57492022                8.83140105
              20.87865968                4.54964661               74.13381886                0.00010000                4.72870655               -1.65890475               -3.28685182              -11.54128646                9.25047667                3.98174432
              21.92475327                3.92709069               73.79643784                0.00010000                4.39208081                0.30926503               -3.66115853              -12.76138555                8.18634650                2.38711346
              22.96650129                3.29268912               73.43643714                0.00010000                2.04506353                2.82726203                0.31152296               -9.28526469                3.97214270                0.92632875
              23.96565454                2.75296711               72.99688360                0.00010000               -0.08467511                4.43314382                0.29881934               -5.09350954                0.01515957                1.88754624
              14.25819002                9.17549206               76.76988560                0.00010000               -0.05542584               -0.04029762                0.20299167               -0.01033086               -0.00477988                0.61245847
              15.25763577                8.69130238               76.32238182                0.00010000               -0.03012884               -0.07229913                0.17052479               -0.00520274                0.42333805               -0.56599530
              16.25758745                8.20677706               75.88316606                0.00010000               -0.29555774               -0.16285456                0.09576372               -0.85514363                3.84358228               -1.77395441
              17.25172461                7.70499026               75.50423688                0.00010000               -0.01113897               -0.64443167               -0.70166280               -1.79515942                7.13851534               -0.13567303
              18.25736467                7.19849790               75.12838566                0.00010000                1.43329005               -1.56740974               -1.56972363               -2.57642206                7.72332945                1.39335377
              19.28039041                6.67605911               74.75941405                0.00010000                3.03440335               -2.82932731               -2.61080984               -4.70899455                8.35636731                2.90792655
              20.31805273                6.12317350               74.39764851                0.00010000                4.05572965               -2.93107134               -3.79206330               -8.76951631                8.53122332                3.46626938
              21.36150500                5.53703035               74.03820358                0.00010000                4.04111036               -0.44327606               -4.89848109              -11.95070332                7.64323909                3.63923519
              22.39887494                4.93631078               73.66866598                0.00010000                2.63230103                2.11077308               -5.34149583              -12.94860110                5.37772917                3.18278648
              23.41415102                4.34939285               73.27374954                0.00010000                0.28740135                6.32911429               -5.58349118               -9.65695984                2.63293717                2.97444591
              24.40462297                3.84177235               72.85346557                0.00010000               -0.95280562                8.22364020               -4.95722437               -5.34676587                1.67285984                4.02446336
              14.74245002               10.17524463               76.63294575                0.00010000               -0.03285197               -0.01445752                0.11650717               -0.01400927               -0.00079511                0.63077302
              15.74212150                9.69064516               76.18011350                0.00010000               -0.01783850               -0.05369095                0.10556585               -0.05086203                0.14639303               -0.46322890
              16.74209325                9.20486295               75.73003357                0.00010000               -0.19906768               -0.15339016                0.04696339               -1.09239209                4.79905079               -1.91692934
              17.73814015                8.69946258               75.37056701                0.00010000                0.15482998               -0.43449675               -0.97991281               -2.37543229                9.34397259               -0.85972681
              18.74518985                8.18537985               75.00971850                0.00010000                1.31350421               -0.92590868               -2.07131986               -3.53231984                9.44449867                0.10794980
              19.76441023                7.65667423               74.65083248                0.00010000                2.43138591               -1.22578591               -3.31952214               -5.67894333                9.54901181                0.93523238
              20.79381757                7.10788850               74.29251207                0.00010000                3.10490479               -0.65750694               -4.71370213               -8.38833314                9.14523617                1.61709213
              21.82650833                6.54078108               73.92898937                0.00010000                2.98005902                1.11889903               -6.10059620              -10.45399081                7.85812740                2.20304217
              22.85341875                5.96930615               73.55129237                0.00010000                2.06961002                3.71338974               -7.28168820              -10.31860832                5.63042289                2.86535846
              23.86790053                5.41927141               73.15099257                0.00010000                1.02707415                6.49687337               -7.96959611               -6.65502327                2.90077388                3.52421445
              24.87396023                4.91743991               72.72436002                0.00010000                0.60597043                6.96777754               -8.08267449               -2.95199155                1.36492051                3.15915237
              15.22710877               11.17520291               76.49659077                0.00010000               -0.01085642                0.00491801                0.03360263               -0.01267370               -0.00515548                0.69210156
              16.22700020               10.69022856               76.03809932                0.00010000               -0.00932899               -0.03035975                0.04214799               -0.06865459                0.03956277               -0.45038892
              17.22692219               10.20370926               75.58040620                0.00010000               -0.16505671               -0.08855857                0.01860663               -1.18627960                5.49074824               -1.68741702
              18.22369907                9.69630033               75.23137717                0.00010000                0.12922180               -0.15940524               -1.14248854               -2.62603003               10.84382702               -1.31778168
              19.22950662                9.17997973               74.88033432                0.00010000                1.03019154               -0.22381989               -2.35879659               -3.81174825               10.74394395               -0.77225237
              20.24430290                8.65154339               74.52844554                0.00010000                1.83362988               -0.04644576               -3.72504401               -5.46533457               10.56968753               -0.21807667
              21.26617922                8.11002336               74.17376463                0.00010000                2.33523178                0.71102630               -5.24918234               -7.19067215                9.96310957                0.33358830
              22.29100753                7.55940833               73.81118674                0.00010000                2.39166160                2.18696583               -6.84595606               -8.15830682                8.62808479                0.92642477
              23.31401245                7.01057857               73.43334716                0.00010000                2.09546315                4.07791469               -8.31634191               -7.43303503                6.44840796                1.54099550
              24.33291680                6.47933032               73.03266664                0.00010000                1.76168380                5.57794233               -9.36866450               -4.51139665                3.48312495                1.91873369
              25.34924613                5.98112790               72.60282393                0.00010000                1.63293310                5.78354869               -9.66700601               -2.01043986                1.59358170                1.46393501
              15.71214524               12.17534299               76.36052385                0.00010000                0.00968214                0.02477505               -0.04366578               -0.00762467                0.00158409                0.73114649
              16.71224206               11.69003797               75.89621359                0.00010000                0.00753277               -0.00966351               -0.01745169               -0.06947537                0.03098284               -0.46626102
              17.71229589               11.20309178               75.43249043                0.00010000               -0.14464904               -0.04630402               -0.00994757               -1.13042569                6.08254634               -1.62763765
              18.70934908               10.69627448               75.08975559                0.00010000                0.07079678                0.12266967               -1.21942633               -2.47334606               11.98591294               -1.49035054
              19.71371183               10.18090345               74.74524232                0.00010000                0.78554171                0.29635122               -2.48887854               -3.47008755               11.77353349               -1.20991759
              20.72505991                9.65574532               74.39845395                0.00010000                1.42136767                0.66947506               -3.90099439               -4.62636813               11.43620272               -0.86017603
              21.74213918                9.12210902               74.04718117                0.00010000                1.88635313                1.41493325               -5.47399397               -5.59985375               10.72215214               -0.48419929
              22.76278697                8.58452040               73.68667328                0.00010000                2.13484400                2.54811023               -7.13886037               -5.89727944                9.35339456               -0.09833569
              23.78483606                8.05086444               73.31001717                0.00010000                2.21681479                3.81757785               -8.71144093               -5.06202009                7.11178200                0.22048826
              24.80712327                7.53083025               72.90907319                0.00010000                2.26601071                4.72467234               -9.88810596               -2.97440755                3.92685451                0.25140052
              25.83015627                7.03311089               72.47610882                0.00010000                2.30330054                4.67911425              -10.30017580               -1.32655833                1.81314097               -0.33197997
              16.19756631               13.17569841               76.22463503                0.00010000                0.02955925                0.04665182               -0.12227386               -0.00470708                0.00259732                0.73482317
              17.19786190               12.69003529               75.75413646                0.00010000                0.02554263                0.00936640               -0.07281448               -0.06369139                0.06087657               -0.50964781
              18.19807716               12.20278318               75.28488929                0.00010000               -0.07207137               -0.02048955               -0.04009694               -0.94256179                6.72387535               -1.39391988
              19.19642047               11.69875372               74.94830223                0.00010000                0.12784351                0.30379628               -1.25246974               -1.99312179               13.03861984               -1.39690246
              20.20063403               11.18590675               74.60852874                0.00010000                0.70747450                0.57946033               -2.52297211               -2.71568966               12.63342257               -1.22369959
              21.21056996               10.66493289               74.26567399                0.00010000                1.23865141                1.00957281               -3.92962752               -3.42878569               12.15759398               -1.02110635
              22.22540706               10.13832202               73.91727309                0.00010000                1.68682787                1.65801289               -5.48968150               -3.90843401               11.34799810               -0.81252640
              23.24430652                9.61037054               73.55874195                0.00010000                2.05275676                2.49424716               -7.14210839               -3.87490577                9.92101711               -0.62490847
              24.26646220                9.08693013               73.18312955                0.00010000                2.34378401                3.35337509               -8.71513806               -3.13035915                7.59872489               -0.53364595
              25.29118220                8.57382377               72.78170795                0.00010000                2.58457503                3.93143006               -9.91489938               -1.73075365                4.22829013               -0.69722718
              26.31815370                8.07471018               72.34554842                0.00010000                2.69714941                3.78768754              -10.37545504               -0.74272045                1.97974490               -1.35564308
              16.68337733               14.17627602               76.08834318                0.00010000                0.05061333                0.06898294               -0.20155917               -0.00427738                0.04801664                0.66432425
              17.68388346               13.69022530               75.61175562                0.00010000                0.06744494                0.02900306               -0.13059575               -0.05679695                0.41333957               -0.52748596
              18.68472622               13.20268199               75.14265275                0.00010000                0.12398033               -0.01473587               -0.11494199               -0.69763977                7.53367546               -1.13088563
              19.68636307               12.70235040               74.80937389                0.00010000                0.42463214                0.27829644               -1.28336930               -1.19256649               13.93273782               -0.90832125
              20.69321887               12.19249266               74.47405654                0.00010000                0.88529306                0.63692216               -2.53187221               -1.57764470               13.39676382               -0.79453095
              21.70406893               11.67593677               74.13441997                0.00010000                1.26569920                1.10148046               -3.90908554               -1.90632232               12.76399038               -0.70313907
              22.71853285               11.15526928               73.78852490                0.00010000                1.63059107                1.68478648               -5.43035373               -2.09370378               11.87734995               -0.61594742
              23.73668075               10.63440534               73.43195069                0.00010000                2.01213979                2.34080126               -7.04103771               -1.98401753               10.41543667               -0.55058647
              24.75877565               10.11793195               73.05771854                0.00010000                2.40236972                2.95844266               -8.58427426               -1.49589529                8.04333407               -0.55202620
              25.78472814                9.60945886               72.65636061                0.00010000                2.73766909                3.36029242               -9.77820473               -0.74602422                4.50651880               -0.71468188
              26.81352903                9.10886464               72.21715740                0.00010000                2.88008862                3.27663743              -10.24034600               -0.27292610                2.15710025               -1.30461277
              17.16958222               15.17707807               75.95079223                0.00010000                0.07377820                0.08020428               -0.29133863               -0.02578226                0.29939844                0.60951571
              18.17032000               14.69061535               75.46980577                0.00010000                0.12085214                0.03900566               -0.18798423               -0.08582635                0.91567360               -0.53523473
              19.17199926               14.20248846               75.00141566                0.00010000                0.62192386               -0.01935277               -0.19688620               -0.58748160                8.69914656               -1.13359543
              20.18275848               13.70431965               74.67752407                0.00010000                1.17477549                0.19692475               -1.36532777               -0.55262222               14.96793009               -0.42478127
              21.19549477               13.19864520               74.34548993                0.00010000                1.34542104                0.61525387               -2.60064647               -0.64026748               14.01492321               -0.41030327
              22.20966690               12.68696250               74.00869618                0.00010000                1.47848223                1.10257249               -3.96386690               -0.77157522               13.29748007               -0.38907883
              23.22506441               12.17201775               73.66525510                0.00010000                1.61483041                1.67484731               -5.47002633               -0.83564052               12.38194551               -0.38929415
              24.24196350               11.65718656               73.31107794                0.00010000                1.82131821                2.27812184               -7.07013675               -0.76766269               10.95720798               -0.41488305
              25.26149078               11.14609899               72.93939858                0.00010000                2.16827604                2.81670395               -8.61622779               -0.53633425                8.66474127               -0.49045738
              26.28532903               10.64102962               72.54069225                0.00010000                2.61964161                3.15707597               -9.83890741               -0.23271427                5.08371432               -0.65665136
              27.31388361               10.14024293               72.10140430                0.00010000                2.85545847                3.13782960              -10.30860040               -0.04321003                2.68787294               -1.20749032
              12.75140427                5.32138405               78.31520821                0.00010000               -0.12117240               -0.10710780                0.38779251               -0.00481696               -0.38899800                0.48594158
              13.75019254                4.83292411               77.88241799                0.00010000               -0.12695135               -0.11204180                0.40409516                0.00742853               -0.47216029                0.05428999
              14.74886524                4.34421888               77.44741501                0.00010000               -0.13704290               -0.11434902                0.41954496                0.00798727               -0.49235128               -0.05089429
              15.74745169                3.85511311               77.01406749                0.00010000               -0.15859342               -0.11775999                0.43193980               -0.02305736               -0.45232843               -0.29741247
              16.74569337                3.36514201               76.58010583                0.00010000               -0.17757180               -0.11577191                0.44781732               -0.04508998               -0.44077172               -0.30125695
              17.74390025                2.87443246               76.14752259                0.00010000               -1.17989904               -0.13477782                0.45190539               -0.96132577                0.88815300               -0.55958895
              18.72209539                2.36527457               75.74106654                0.00010000               -3.39208795                1.09181737                0.39056805               -5.60506117                9.80052862               -2.88008594
              19.67605849                1.74432614               75.48201918                0.00010000               -1.08183932               -0.39633174               -1.11980543               -5.48647038               18.33813308                0.13717903
              20.70045861                1.10676808               75.22228605                0.00010000                5.33590785               -1.49640917               -1.96984222               -5.31245201               18.13860777                0.41920363
              21.78277665                0.45970621               74.95550603                1.00000000                4.48200714                0.60775875               -2.45653220               -5.20799110                8.62548578               -0.04311765
              22.79009875               -0.07990438               74.51648795                1.00000000                0.73221005                0.58585941               -2.36137313               -0.13807264                0.00036555               -0.03906269
              13.23981604                6.32031297               78.17802332                0.00010000               -0.09666234               -0.09762509                0.32185289               -0.00695039                0.02200719                0.67963742
              14.23884941                5.83180369               77.74506721                0.00010000               -0.09827109               -0.10494509                0.33915437                0.00550316                0.09697886                0.07769539
              15.23785062                5.34307539               77.31313464                0.00010000               -0.10449339               -0.10822059                0.35576746                0.00475274                0.16145827               -0.23857204
              16.23675955                4.85393551               76.88139379                0.00010000               -0.11339114               -0.11722495                0.38009331               -0.01520100                0.23951238               -0.24488529
              17.23558279                4.36398429               76.45134531                0.00010000               -0.12694166               -0.11701910                0.38334451               -0.03608464                0.22461281               -0.22849104
              18.23422071                3.87308469               76.02001140                0.00010000               -0.22424260               -0.12879783                0.38927353               -0.31295317                0.25340171               -0.41170924
              19.23109794                3.37619274               75.59161650                0.00010000                0.81131589                0.44882669                0.37039576               -6.34990861                9.42026184               -1.57089796
              20.25044703                2.74036283               75.34431475                0.00010000                2.92730561               -1.81263514               -0.97443288               -8.75800599               17.33522109                0.48006947
              21.28964405                2.09180399               75.07003430                0.00010000                3.67929688               -0.99022847               -1.54735281               -7.21359695               15.67806846                0.37368318
              22.32403297                1.46578379               74.78465721                1.00000000                1.93422789                0.48719709               -1.51058389               -4.15406267                7.68939766               -0.00114471
              23.32832861                0.92595421               74.34557469                1.00000000                0.42956424                0.47295661               -1.42696285               -0.16273724               -0.00042752               -0.03390656
              13.72828382                7.31943155               78.04397734                0.00010000               -0.07436296               -0.07455984                0.25376390               -0.00981447                0.15690378                0.79742944
              14.72754019                6.83082521               77.60787989                0.00010000               -0.07276684               -0.08994772                0.27436253                0.00011520                0.34802648               -0.00035155
              15.72682848                6.34205447               77.17520635                0.00010000               -0.06507131               -0.09165282                0.29338319               -0.01751599                0.90698764               -0.67253774
              16.72623876                5.85276861               76.75029767                0.00010000               -0.05029916               -0.62093234                0.33112924               -0.33394903                1.25541129                0.22621963
              17.72582250                5.36280163               76.32501584                0.00010000               -0.04030137               -1.09116891                0.31586042               -0.24205000                1.04599967                1.17155129
              18.72543274                4.87185651               75.89684440                0.00010000                0.09982909               -1.84690093                0.32508257                0.16294924                1.04288928                2.49028348
              19.72781908                4.37425110               75.47285571                0.00010000                2.99271943               -4.20601863                0.29158436               -6.33042070                9.65241387                5.08908473
              20.78528713                3.70807344               75.21956200                0.00010000                5.14733083               -2.62384461               -1.51226114              -11.35153952               15.44276822                1.69719622
              21.83076570                3.08696351               74.91823917                0.00010000                4.01290239               -0.42172654               -1.84474433               -8.95070566               13.01569253               -0.24990323
              22.86554517                2.46945015               74.61464084                0.00010000                1.78687356                0.24539808               -0.52967891               -3.76206043                6.77889032               -0.22551240
              23.86650317                1.92955475               74.17529047                1.00000000                0.09579965                0.25294870               -0.45624362               -0.14806738                0.02154278               -0.30085034
              14.21683243                8.31882177               77.90847905                0.00010000               -0.06036289               -0.04459477                0.18744866               -0.00677979                0.26415701                0.68007189
              15.21622880                7.83000474               77.46873496                0.00010000               -0.06377647               -0.08026317                0.21454483                0.01220181                0.45237158               -0.36678668
              16.21555690                7.34124233               77.03243229                0.00010000               -0.34476969               -0.11870686                0.22595755               -0.50495932                2.19438623               -1.18789136
              17.20933341                6.84151686               76.62761047                0.00010000               -0.19515031               -0.94249037               -0.17979051               -1.25281780                3.95961631                0.32704202
              18.21165389                6.34216091               76.22525142                0.00010000                0.83484098               -1.92091039               -0.59683791               -1.25052893                4.38289551                2.01852282
              19.22603022                5.83614667               75.82884660                0.00010000                2.83093519               -3.53179160               -1.09926326               -2.39047989                5.84969753                4.24998038
              20.26827260                5.29207237               75.45858979                0.00010000                4.23368038               -6.10755402               -1.85870833               -5.72928557                7.53511300                7.08430896
              21.31070383                4.68788593               75.10558825                0.00010000                4.04903180               -1.60259700               -2.54762409               -9.75460459                8.12343175                2.47753538
              22.34925323                4.08336946               74.75926229                0.00010000                4.77483451                0.15689166               -2.91042451              -10.85796770                8.74232673                0.36331770
              23.40620052                3.47069176               74.43856811                0.00010000                2.79524147                2.72086259               -3.14946497               -8.77215664                2.69509712               -0.99297574
              24.40515806                2.93101319               73.99890142                0.00010000               -0.10424612                4.48655934               -0.77841502               -5.41550764               -2.86614439                1.64503292
              14.70578230                9.31853965               77.77149092                0.00010000               -0.04186297               -0.01659665                0.12115081               -0.00735225               -0.00728436                0.59226663
              15.70536367                8.82921994               77.32406564                0.00010000               -0.02825612               -0.07268789                0.16664542                0.00004688                0.39764165               -0.54951704
              16.70521718                8.33968033               76.88448155                0.00010000               -0.25499207               -0.18509268                0.16472551               -0.79700904                3.42686293               -1.73917115
              17.70026383                7.83391880               76.49783496                0.00010000                0.04824683               -0.67706688               -0.56741793               -1.65806582                6.26687479               -0.37543070
              18.70618211                7.32438342               76.11386039                0.00010000                1.37239277               -1.54287373               -1.32259975               -2.28605013                6.66774577                0.87651519
              19.72771168                6.80122068               75.73552243                0.00010000                2.76559964               -2.68635816               -2.16955563               -4.07419293                7.07908149                2.10036422
              20.76149410                6.25210002               75.36361876                0.00010000                3.55931312               -2.75538740               -3.07159319               -7.49443510                7.12661872                2.43216266
              21.79889794                5.67602150               74.99460576                0.00010000                3.46532083               -0.53326106               -3.87749536              -10.01977829                6.43389203                2.24247559
              22.83080052                5.09010135               74.62154842                0.00010000                2.17801841                1.66238386               -4.37107957              -10.32621795                4.09411745                1.76253736
              23.84245831                4.52386740               74.22098611                0.00010000                0.33748176                5.25033409               -4.30814128               -8.47712044                1.94742223               -0.33882575
              24.83755016                4.01928594               73.80813995                0.00010000               -0.49081563                7.16971574               -4.18754464               -5.06615482                1.89022248                0.28417307
              15.19532480               10.31848984               77.63374124                0.00010000               -0.02357390                0.00385841                0.04847753               -0.00793654                0.00194909                0.60451183
              16.19508906                9.82855098               77.18122828                0.00010000               -0.02034670               -0.05774557                0.11634893               -0.04385906                0.12849197               -0.44536127
              17.19491786                9.33754048               76.73107738                0.00010000               -0.18100302               -0.18125810                0.15258277               -1.03088059                4.25719686               -1.85052110
              18.19146900                8.82797552               76.36140707                0.00010000                0.18565746               -0.48007852               -0.83920644               -2.22806509                8.21978379               -0.95757119
              19.19863101                8.31130344               75.99011898                0.00010000                1.26803834               -0.94624885               -1.82957394               -3.20243763                8.15281200               -0.15422287
              20.21682976                7.78241950               75.61979672                0.00010000                2.24760288               -1.22844739               -2.88190084               -5.00881663                8.03799858                0.51037855
              21.24358307                7.23696462               75.24925183                0.00010000                2.77385896               -0.74258678               -3.96980596               -7.22218375                7.49491256                1.00222772
              22.27230694                6.67722071               74.87423863                0.00010000                2.56499512                0.75865631               -4.97318774               -8.72998323                6.22584183                1.35546254
              23.29488297                6.11661714               74.48709336                0.00010000                1.75832890                2.89566077               -5.72527165               -8.37559355                4.34776751                1.55612834
              24.30747352                5.57569844               74.08265281                0.00010000                0.90574599                4.83764417               -6.11258949               -5.19749526                2.18475349                1.97245190
              25.31299789                5.07440750               73.65565963                0.00010000                0.55243702                5.06624108               -6.03895285               -2.30027622                1.07926197                1.03199606
              15.68550129               11.31861682               77.49662925                0.00010000               -0.00654412                0.02213443               -0.02082207               -0.00523977               -0.00186889                0.67071068
              16.68543585               10.82806503               77.03867114                0.00010000               -0.01631343               -0.04075779                0.06963681               -0.06150767                0.03073568               -0.43134329
              17.68517502               10.33605517               76.58128523                0.00010000               -0.17481422               -0.12447151                0.14576315               -1.12102532                4.87666055               -1.61394751
              18.68193956                9.82431723               76.22057367                0.00010000                0.12571770               -0.21098924               -1.00626519               -2.47049169                9.57528463               -1.29714372
              19.68768938                9.30545844               75.85769195                0.00010000                0.99673007               -0.27819973               -2.14698146               -3.48418010                9.33116610               -0.82610387
              20.70187417                8.77665173               75.49304324                0.00010000                1.72799232               -0.13612558               -3.33853033               -4.87855670                8.95146860               -0.35335563
              21.72224922                8.23724829               75.12476784                0.00010000                2.13858000                0.49260961               -4.56698171               -6.26854794                8.18102944                0.10150925
              22.74464577                7.69119463               74.74864829                0.00010000                2.12808509                1.69878080               -5.74489500               -6.93559627                6.85321867                0.54032640
              23.76481092                7.14801456               74.35915838                0.00010000                1.80361383                3.15390212               -6.72370266               -6.14380692                4.95326403                0.94488315
              24.78071804                6.62062028               73.95065224                0.00010000                1.46577911                4.23005193               -7.33105557               -3.65864717                2.61270202                1.00981499
              25.79412651                6.12061076               73.51934685                0.00010000                1.34084637                4.26229530               -7.42235496               -1.61524873                1.25165907                0.37653166
              16.17632358               12.31893253               77.35985871                0.00010000                0.00969809                0.04140568               -0.08662361               -0.00313779                0.00193901                0.71164386
              17.17642056               11.82773582               76.89626850                0.00010000               -0.00392073               -0.02553997                0.02497026               -0.06127606                0.02740211               -0.44412130
              18.17624516               11.33505105               76.43318533                0.00010000               -0.18823342               -0.08809820                0.13377661               -1.05685776                5.43195046               -1.55222260
              19.17265589               10.82375574               76.07811176                0.00010000                0.01838748                0.07560181               -1.09858863               -2.31924394               10.65272926               -1.39391576
              20.17661291               10.30573944               75.72104431                0.00010000                0.74064497                0.24091496               -2.32538029               -3.18473112               10.32278541               -1.12378437
              21.18746879                9.77969699               75.36083426                0.00010000                1.35281511                0.56107072               -3.59769475               -4.17754609                9.80543879               -0.79231571
              22.20366921                9.24681681               74.99524639                0.00010000                1.76799785                1.17682503               -4.91007657               -4.96735955                8.93969471               -0.44214293
              23.22282874                8.71119633               74.62030609                0.00010000                1.94559815                2.08397648               -6.18791306               -5.12634296                7.56318040               -0.10095444
              24.24258118                8.17969518               74.23072274                0.00010000                1.94378178                3.06107566               -7.28826156               -4.31077607                5.58742968                0.13534605
              25.26170438                7.66029948               73.82081352                0.00010000                1.90653960                3.70469307               -8.01558635               -2.48138743                3.01823257                0.06640966
              26.28071197                7.15965341               73.38539184                0.00010000                1.90075877                3.57097118               -8.16589022               -1.07794099                1.41266513               -0.61516864
              16.66783195               13.31944493               77.22323390                0.00010000                0.02598621                0.05987769               -0.15544166               -0.00278280                0.00417480                0.71365029
              17.66809181               12.82755423               76.75371282                0.00010000                0.00930035               -0.01021021               -0.01544979               -0.05482809                0.05969072               -0.48425256
              18.66801795               12.33429320               76.28537237                0.00010000               -0.16127594               -0.06774437                0.12051875               -0.85354853                6.05119620               -1.33451733
              19.66486629               11.82582926               75.93622197                0.00010000                0.00177714                0.28447627               -1.15346912               -1.83858959               11.68640219               -1.27442159
              20.66805350               11.31027674               75.58367328                0.00010000                0.61897920                0.56141728               -2.41944945               -2.49577751               11.19693280               -1.07682937
              21.67724587               10.78787314               75.22720841                0.00010000                1.16745997                0.93539270               -3.72884101               -3.13186453               10.57372465               -0.85454486
              22.69140270               10.26078479               74.86433736                0.00010000                1.59973343                1.47237487               -5.07640169               -3.52875154                9.63376496               -0.62443715
              23.70924054                9.73287416               74.49116232                0.00010000                1.90447789                2.14246545               -6.39429237               -3.44651986                8.20101218               -0.42027808
              24.72949225                9.20923607               74.10230880                0.00010000                2.09457614                2.80361802               -7.54189053               -2.73642993                6.12275300               -0.32823256
              25.75113207                8.69471415               73.69147138                0.00010000                2.21837860                3.20782042               -8.31370326               -1.48485672                3.34158264               -0.51185687
              26.77385983                8.19203018               73.25257390                0.00010000                2.27277603                3.00244283               -8.48133263               -0.60366011                1.57340123               -1.18110065
              17.16004932               14.32013008               77.08622851                0.00010000                0.04264048                0.07712783               -0.22061354               -0.00218335                0.04088421                0.63498812
              18.16047572               13.82753162               76.61082977                0.00010000                0.04249201                0.00551370               -0.05773253               -0.04659681                0.38661006               -0.49726386
              19.16089916               13.33369616               76.14249830                0.00010000               -0.02875833               -0.06279538                0.06580343               -0.57424405                6.83585257               -1.08537843
              20.15990056               12.82944526               75.79685657                0.00010000                0.18771616                0.33539030               -1.20784123               -1.06378495               12.58891814               -0.82008012
              21.16465348               12.31696779               75.44874962                0.00010000                0.72114476                0.67639482               -2.49316531               -1.44850628               11.98913178               -0.67910846
              22.17432345               11.79840485               75.09554417                0.00010000                1.17198431                1.08498574               -3.81659265               -1.76075856               11.23719801               -0.56106166
              23.18809317               11.27626431               74.73526380                0.00010000                1.55618042                1.57603770               -5.17561628               -1.91836375               10.23857065               -0.44280741
              24.20544706               10.75404564               74.36412025                0.00010000                1.89597094                2.10770279               -6.50655168               -1.79666000                8.76962846               -0.34515805
              25.22601259               10.23576754               73.97662412                0.00010000                2.18830380                2.58390465               -7.67297228               -1.33485808                6.61806490               -0.32313257
              26.24921314                9.72445588               73.56575960                0.00010000                2.39970520                2.85836673               -8.46212853               -0.65276401                3.64058441               -0.47638730
              27.27400669                9.21970226               73.12392819                0.00010000                2.47935546                2.70834426               -8.61330866               -0.20635321                1.73461017               -1.01925988
              17.65298521               15.32098749               76.94783912                0.00010000                0.06085866                0.08574067               -0.29756313               -0.03870933                0.29133630                0.57067228
              18.65359380               14.82766451               76.46841017                0.00010000                0.08171110                0.01328886               -0.09739511               -0.08570260                0.86005851               -0.49811422
              19.65461943               14.33303730               76.00059603                0.00010000                0.33625836               -0.06588647                0.01038131               -0.38434476                7.94656581               -1.08154316
              20.66031896               13.83253707               75.66403122                0.00010000                0.77521777                0.30918091               -1.31452710               -0.41979239               13.59500868               -0.38680971
              21.67012379               13.32380464               75.31913424                0.00010000                1.12076094                0.68368494               -2.61875860               -0.60118035               12.60039965               -0.35380538
              22.68273418               12.80957286               74.96868756                0.00010000                1.36354225                1.11680106               -3.96204108               -0.73388207               11.76949347               -0.31467488
              23.69739463               12.29230554               74.61075942                0.00010000                1.55349671                1.60412296               -5.34255052               -0.79708610               10.73941404               -0.29021040
              24.71380412               11.77502821               74.24184485                0.00010000                1.74951066                2.09825745               -6.70080700               -0.73386333                9.29317992               -0.28509866
              25.73238484               11.26091417               73.85661847                0.00010000                2.01689727                2.51466275               -7.90356620               -0.52011094                7.19121059               -0.32857140
              26.75414206               10.75188148               73.44795414                0.00010000                2.34275801                2.74255947               -8.73960806               -0.24296261                4.14675943               -0.46759747
              27.77924000               10.24619707               73.00596523                0.00010000                2.50979437                2.64948038               -8.89723123               -0.04510998                2.15888432               -0.92485054
              13.18021384                5.46374123               79.31845755                0.00010000               -0.09426287               -0.07138266                0.26519120                0.00738933               -0.38968075                0.48271711
              14.17927121                4.97114205               78.88617222                0.00010000               -0.10961356               -0.09689018                0.34721235                0.01748465               -0.47461927                0.05447768
              15.17802157                4.47832487               78.45166289                0.00010000               -0.13872485               -0.11879174                0.42755159                0.01798605               -0.49685611               -0.04755383
              16.17649672                3.98515277               78.01877908                0.00010000               -0.17692661               -0.14245625                0.50511378               -0.00915313               -0.45498052               -0.28198226
              17.17448304                3.49122514               77.58531466                0.00010000               -0.21271970               -0.16205689                0.58574765               -0.02809325               -0.44363705               -0.29862558
              18.17224232                2.99666388               77.15315213                0.00010000               -1.04600245               -0.20115752                0.66398805               -0.79755377                0.80320643               -0.56006621
              19.15356299                2.48661662               76.74549131                0.00010000               -2.70873712                0.83101273                0.48351884               -4.79319469                9.12087658               -2.66752937
              20.11806758                1.88163307               76.47230578                0.00010000               -0.47555807               -0.67447115               -0.83415295               -4.70648801               16.98698716               -0.05225570
              21.14405183                1.25974473               76.20357396                0.00010000                5.16995721               -1.56405671               -1.77763539               -4.63140983               17.15242403                0.18079575
              22.22146672                0.62523962               75.93099207                1.00000000                4.22937198                0.58988690               -2.43370406               -4.57888588                8.27421637               -0.04894735
              23.22863927                0.08568815               75.49331688                1.00000000                0.71725436                0.53384015               -2.24842395               -0.11744102               -0.01009440               -0.06836422
              13.67288691                6.46302740               79.18067214                0.00010000               -0.07326698               -0.06366912                0.21080134               -0.00506015                0.01948484                0.67320704
              14.67215424                5.97017315               78.74823171                0.00010000               -0.08454188               -0.09157697                0.29401350                0.00560970                0.09317896                0.07784399
              15.67119607                5.47713695               78.31680441                0.00010000               -0.10995953               -0.11464534                0.37571673                0.00479932                0.16156734               -0.23257746
              16.66995505                4.98372821               77.88564186                0.00010000               -0.13747600               -0.14304318                0.46450120               -0.01248910                0.23631977               -0.22499399
              17.66844655                4.48960457               77.45598395                0.00010000               -0.16920028               -0.16433557                0.53746359               -0.03115275                0.21912364               -0.22283581
              18.66657104                3.99465230               77.02509337                0.00010000               -0.26500535               -0.19788302                0.61828738               -0.25062226                0.24970501               -0.40692756
              19.66314645                3.49492675               76.59702194                0.00010000                0.89337994                0.27024405                0.69913770               -5.51836304                8.71337377               -1.50265205
              20.68443864                2.87488836               76.33595993                0.00010000                3.13940038               -1.93771038               -0.71387843               -7.62533805               16.27174745                0.06170353
              21.72593445                2.24410416               76.05539115                0.00010000                3.91337559               -1.19226566               -1.42240756               -6.27107558               15.22511910               -0.23056276
              22.76270615                1.63113849               75.76948288                1.00000000                2.05409377                0.45934193               -1.54001139               -3.51425415                7.58857007               -0.04394880
              23.76701633                1.09102655               75.33159339                1.00000000                0.43101739                0.40387946               -1.37334972               -0.13412024                0.00523522               -0.09911707
              14.16582114                7.46246784               79.04600490                0.00010000               -0.05472798               -0.04444843                0.15452260               -0.00764840                0.15297804                0.78822896
              15.16527386                6.96931051               78.61045806                0.00010000               -0.06293191               -0.08017436                0.24138689                0.00073148                0.34269198                0.00236283
              16.16456250                6.47603196               78.17831608                0.00010000               -0.07472720               -0.10249661                0.32603431               -0.01592276                0.91028461               -0.66657304
              17.16377931                5.98229191               77.75410433                0.00010000               -0.08133055               -0.61867196                0.42556306               -0.29556044                1.24792333                0.02285932
              18.16293589                5.48793843               77.32904564                0.00010000               -0.09358074               -1.06753050                0.48440526               -0.19116649                1.03566947                0.76605156
              19.16190770                4.99270622               76.90135930                0.00010000                0.00118909               -1.75349735                0.57081778                0.22166621                1.04027265                1.84345382
              20.16295967                4.49202150               76.47759345                0.00010000                2.72378498               -3.87468471                0.64739058               -5.44170272                8.75472863                4.09264099
              21.21638340                3.84287886               76.20678615                0.00010000                4.97102558               -2.53673997               -1.10688617              -10.00524575               14.23613747                0.72005523
              22.26238018                3.23589942               75.89998542                0.00010000                4.39379258               -0.65281855               -1.77528110               -8.38834517               13.21488844               -1.15730961
              23.30425925                2.63442646               75.60799432                0.00010000                2.19002788                1.76729244               -0.73744378               -6.20378607                7.29501127               -3.67212286
              24.30618074                2.09376574               75.16989955                1.00000000                0.19214889                3.09958664               -0.58153636               -3.03363652                0.06955537               -1.45677230
              14.65904860                8.46213843               78.90990752                0.00010000               -0.04438506               -0.01963199                0.10090886               -0.00318850                0.25796145                0.66776876
              15.65860475                7.96856966               78.47077938                0.00010000               -0.05761908               -0.07458976                0.19418043                0.01363497                0.43772100               -0.35405545
              16.65789622                7.47508702               78.03492816                0.00010000               -0.32336901               -0.13417055                0.27048686               -0.47110061                1.96686187               -1.17771049
              17.65213737                6.97135477               77.62644450                0.00010000               -0.18436556               -0.93034265               -0.05425933               -1.14645515                3.48945301               -0.05183544
              18.65420891                6.46825396               77.22043436                0.00010000                0.73919602               -1.83888918               -0.37391740               -1.08380954                3.83818556                1.27613288
              19.66692129                5.95958235               76.81970789                0.00010000                2.49654160               -3.27949727               -0.74651009               -2.02574680                5.12318422                3.08950090
              20.70413974                5.41743305               76.44288555                0.00010000                3.67672568               -5.54333952               -1.35642270               -4.84433401                6.68165620                5.44749187
              21.74045581                4.82415356               76.08286638                0.00010000                3.12401027               -1.48246862               -1.97417728               -8.52577376                7.73418317                1.17712056
              22.76661995                4.23104779               75.73822935                0.00010000                2.01541506                0.39155196               -2.10315494               -8.28362299                6.80384474               -1.28766621
              23.78076411                3.66648434               75.37344784                0.00010000                1.05225447                3.20525873               -4.74122817               -5.78904070                2.23295855               -3.68539613
              24.78766504                3.15301829               74.98131530                0.00010000                0.69009298                4.84659290               -2.81528886               -3.24965543                0.85649114               -1.18885437
              15.15289491                9.46207520               78.77230862                0.00010000               -0.02969324                0.00290510                0.04625491               -0.00233360               -0.00696076                0.57363940
              16.15259797                8.96781872               78.32571473                0.00010000               -0.02697612               -0.07186134                0.16402657                0.00118938                0.37174240               -0.53004813
              17.15235538                8.47334855               77.88646057                0.00010000               -0.24573515               -0.20190821                0.22784815               -0.74857408                3.01418599               -1.69235615
              18.14768327                7.96368505               77.49288853                0.00010000                0.03383644               -0.68911591               -0.42171848               -1.54155294                5.43313268               -0.62551589
              19.15303211                7.45116064               77.10193366                0.00010000                1.22652004               -1.48950667               -1.06864146               -2.04606282                5.73444276                0.34053883
              20.17221367                6.92711627               76.71602293                0.00010000                2.42348368               -2.51106788               -1.76054867               -3.54449371                6.04353923                1.27833252
              21.20150179                6.38115471               76.33621665                0.00010000                3.00197555               -2.53245410               -2.47308746               -6.43763075                6.12511021                1.38663527
              22.23225318                5.81322949               75.96065367                0.00010000                2.64375776               -0.51528799               -3.07276854               -8.23482141                5.56205912                0.93904289
              23.25437694                5.24373046               75.58124439                0.00010000                1.71273808                1.58854799               -3.59959744               -7.46789439                3.92262335               -0.18444826
              24.26650794                4.69853164               75.18758672                0.00010000                0.68714000                3.12849858               -3.31325090               -4.53838186                1.80895186               -0.98155491
              25.26811974                4.19069760               74.76971467                0.00010000                0.16117973                3.69273233               -3.51264431               -2.69006390                0.97066645               -2.65223845
              15.64751491               10.46219653               78.63391530                0.00010000               -0.01597090                0.02122225               -0.01032817               -0.00177434                0.00277980                0.58297523
              16.64735520                9.96713244               78.18244048                0.00010000               -0.02282505               -0.06286164                0.12661594               -0.03933553                0.11623701               -0.42599386
              17.64705841                9.47104885               77.73308522                0.00010000               -0.19304883               -0.20130961                0.24187437               -0.96812511                3.71233081               -1.77006320
              18.64349422                8.95757245               77.35378288                0.00010000                0.13990160               -0.50161450               -0.68508837               -2.07351317                7.11052717               -1.08083244
              19.64985644                8.43846382               76.97312703                0.00010000                1.12715660               -0.93141600               -1.57264113               -2.87915942                6.96957878               -0.46880964
              20.66603735                7.90936100               76.59319446                0.00010000                1.97087358               -1.18387680               -2.46365781               -4.38185703                6.77421829                0.00672870
              21.68927391                7.36678397               76.21311595                0.00010000                2.35731387               -0.75478648               -3.32854043               -6.14101130                6.23859335                0.28720884
              22.71318363                6.81384780               75.82952562                0.00010000                2.13430029                0.54589552               -4.08890576               -7.12685183                5.16277232                0.34748606
              23.73195991                6.26281875               75.43678693                0.00010000                1.49228494                2.10582026               -4.58031442               -6.40483212                3.58326681                0.24582126
              24.74302933                5.72905431               75.02874078                0.00010000                0.87859600                3.14171385               -4.82008350               -3.87356946                1.82220708               -0.09882461
              25.74953184                5.22687293               74.60358096                0.00010000                0.65025056                3.41143615               -4.74567784               -1.77962022                1.03006689               -0.97048768
              16.14298761               11.46249965               78.49617433                0.00010000               -0.00286696                0.03873414               -0.06788073               -0.00133985               -0.00002615                0.64891304
              17.14295894               10.96656148               78.03949206                0.00010000               -0.02173731               -0.05092872                0.09292376               -0.05345075                0.02938459               -0.40857484
              18.14255287               10.46932236               77.58332147                0.00010000               -0.20804548               -0.15443324                0.25220884               -1.04377441                4.24606530               -1.53267797
              19.13879803                9.95365276               77.21125187                0.00010000                0.05537545               -0.24122938               -0.85690661               -2.28697859                8.28653557               -1.31286161
              20.14366038                9.43253232               76.83739469                0.00010000                0.87291757               -0.30086965               -1.91173611               -3.13127155                7.98464906               -0.95270415
              21.15625639                8.90343873               76.46167493                0.00010000                1.52671899               -0.18135847               -2.95165841               -4.27720465                7.52776363               -0.60123332
              22.17419476                8.36605898               76.08242500                0.00010000                1.87124877                0.34563332               -3.95631508               -5.35519988                6.74773894               -0.29451173
              23.19368136                7.82414740               75.69628884                0.00010000                1.84395143                1.30697417               -4.84727289               -5.74107550                5.54822218               -0.05208010
              24.21107378                7.28584686               75.29887311                0.00010000                1.56505063                2.38010953               -5.52455945               -4.93320888                3.95299411                0.07688198
              25.22498237                6.76136591               74.88604553                0.00010000                1.29081555                3.11424989               -5.88663224               -2.85655257                2.06609402               -0.06470065
              26.23689010                6.25892632               74.45437683                0.00010000                1.19077221                3.03537648               -5.87993216               -1.25790428                1.00873976               -0.86293943
              16.63936444               12.46297122               78.35879138                0.00010000                0.00990366                0.05509827               -0.12487409               -0.00051776                0.00216519                0.68644389
              17.63946348               11.96611386               77.89671299                0.00010000               -0.01364004               -0.03862566                0.06146183               -0.05263592                0.02915137               -0.41613370
              18.63909164               11.46796019               77.43516596                0.00010000               -0.24593963               -0.12712477                0.25215682               -0.96634651                4.74555919               -1.46963257
              19.63454468               10.95274786               77.06778382                0.00010000               -0.08233021                0.04338563               -0.96444803               -2.12320941                9.25575156               -1.33749750
              20.63744503               10.43244643               76.69873471                0.00010000                0.62109597                0.20662656               -2.13001862               -2.85440818                8.87952694               -1.11554259
              21.64696660                9.90573383               76.32650005                0.00010000                1.20081053                0.48466717               -3.27377041               -3.68129020                8.29230168               -0.84536166
              22.66146125                9.37369664               75.94897964                0.00010000                1.58038171                0.98784458               -4.37904745               -4.29064229                7.40580798               -0.57334364
              23.67857424                8.83998728               75.56291502                0.00010000                1.73079894                1.70017048               -5.37926687               -4.33008631                6.13357649               -0.33772843
              24.69607722                8.31042094               75.16425194                0.00010000                1.71222904                2.43086185               -6.16796972               -3.55567782                4.44609073               -0.22631332
              25.71281882                7.79133931               74.74876147                0.00010000                1.65878539                2.86373170               -6.62267093               -2.00370460                2.37205082               -0.41525325
              26.72925293                7.28758046               74.31279102                0.00010000                1.64341142                2.68127474               -6.63074068               -0.84955557                1.13372855               -1.11576786
              17.13669197               13.46360161               78.22152619                0.00010000                0.02252871                0.06996759               -0.18379855                0.00013835                0.00624574                0.68650507
              18.13691725               12.96578897               77.75382746                0.00010000               -0.00500152               -0.02655956                0.03489976               -0.04696821                0.06167283               -0.45179331
              19.13659194               12.46677986               77.28729966                0.00010000               -0.25348263               -0.11047175                0.25239478               -0.74718327                5.31987274               -1.26523604
              20.13184760               11.95452048               76.92523285                0.00010000               -0.15028447                0.26958463               -1.03913321               -1.63847908               10.21972763               -1.18714286
              21.13358625               11.43666485               76.56013975                0.00010000                0.47663881                0.55015512               -2.27347677               -2.22597636                9.70262819               -0.99890052
              22.14138038               10.91313208               76.19109717                0.00010000                1.02711036                0.87512849               -3.48413880               -2.77584389                9.02074152               -0.79456773
              23.15412845               10.38581587               75.81574506                0.00010000                1.44874743                1.31472217               -4.65493553               -3.08571641                8.06060487               -0.58969520
              24.17035533                9.85815081               75.43085610                0.00010000                1.72398730                1.84161859               -5.72234122               -2.96065031                6.72274654               -0.42036017
              25.18860820                9.33446410               75.03229174                0.00010000                1.86967179                2.33693432               -6.57624538               -2.30449436                4.92698663               -0.37037355
              26.20774876                8.81864055               74.61543389                0.00010000                1.94042398                2.60545176               -7.07415138               -1.22476723                2.65460533               -0.57949405
              27.22741668                8.31255182               74.17592177                0.00010000                1.96679177                2.37538199               -7.07536330               -0.47731757                1.25956959               -1.21717253
              17.63499249               14.46437057               78.08393091                0.00010000                0.03533727                0.08343354               -0.23776982               -0.00004597                0.03328240                0.60262657
              18.63534587               13.96558267               77.61060096                0.00010000                0.02119879               -0.01483564                0.00778106               -0.03864061                0.36140958               -0.46153123
              19.63541647               13.46575075               77.14396882                0.00010000               -0.17278782               -0.10588624                0.21416373               -0.43627618                6.05724420               -1.02777598
              20.63189011               12.95813955               76.78521706                0.00010000               -0.05512821                0.38568450               -1.11107580               -0.90141868               11.07903764               -0.75404340
              21.63431390               12.44344953               76.42419324                0.00010000                0.52042989                0.70675021               -2.39465810               -1.28214895               10.45939838               -0.60677211
              22.64229871               11.92323640               76.05808812                0.00010000                1.02071398                1.06250760               -3.64860817               -1.57036222                9.66113615               -0.48682094
              23.65472818               11.39999108               75.68501258                0.00010000                1.42071472                1.47032227               -4.86164386               -1.69248961                8.64486252               -0.36838530
              24.67071300               10.87681966               75.30181966                0.00010000                1.73847074                1.89422932               -5.97206998               -1.56093612                7.26377127               -0.27267606
              25.68949760               10.35715963               74.90425909                0.00010000                1.97613768                2.25373790               -6.86753077               -1.13869048                5.38479570               -0.25437004
              26.71023576                9.84344835               74.48711804                0.00010000                2.11932211                2.43240175               -7.39124771               -0.54514205                2.92340256               -0.40395093
              27.73188404                9.33508810               74.04489123                0.00010000                2.16482863                2.25600122               -7.36937749               -0.15490290                1.39172654               -0.88436357
              18.13426684               15.46527029               77.94484096                0.00010000                0.04974149                0.08997174               -0.30233612               -0.05036780                0.28154485                0.53166564
              19.13476426               14.96549226               77.46785786                0.00010000                0.05213430               -0.00904121               -0.01848377               -0.08856835                0.80860498               -0.45806072
              20.13530953               14.46466214               77.00162329                0.00010000                0.06780942               -0.10886166                0.17829886               -0.17359873                7.09171938               -1.01612065
              21.13612045               13.96223417               76.65123353                0.00010000                0.37684485                0.40946108               -1.22992629               -0.27008031               12.00773675               -0.35154078
              22.14284643               13.45079986               76.29311476                0.00010000                0.86555711                0.73503232               -2.54952234               -0.53934474               11.01987155               -0.31097823
              23.15343159               12.93438223               75.92945536                0.00010000                1.19244893                1.11458328               -3.83908333               -0.66558900               10.14450441               -0.26674454
              24.16669540               12.41522232               75.55840409                0.00010000                1.42682320                1.52312372               -5.08817957               -0.72061971                9.09149512               -0.23433049
              25.18196805               11.89603540               75.17706180                0.00010000                1.62551475                1.92157419               -6.23829399               -0.65866789                7.72024035               -0.21823565
              26.19920570               11.37953886               74.78132725                0.00010000                1.84746980                2.23792274               -7.17784314               -0.46653073                5.87291815               -0.24806827
              27.21891745               10.86728858               74.36590009                0.00010000                2.09167045                2.38402368               -7.74686226               -0.22518152                3.34444408               -0.36792848
              28.24103911               10.35767184               73.92345968                0.00010000                2.21216600                2.25837390               -7.72923429               -0.04616747                1.72590056               -0.74554574
              13.60818130                5.60660921               80.32051203                0.00010000               -0.06864809               -0.03794424                0.14908676                0.01907837               -0.39104639                0.47977199
              14.60749482                5.10989469               79.88936223                0.00010000               -0.09300158               -0.08199527                0.29144593                0.02736835               -0.47854287                0.05509433
              15.60632127                4.61298476               79.45596605                0.00010000               -0.13972550               -0.12141141                0.43061680                0.02771448               -0.50361626               -0.04380182
              16.60470031                4.11574789               79.02416977                0.00010000               -0.19368464               -0.16375221                0.56759930                0.00291660               -0.46037476               -0.26807310
              17.60244757                3.61783091               78.59182078                0.00010000               -0.24562932               -0.20343125                0.70690590               -0.01334336               -0.44478712               -0.29459647
              18.59978772                3.11934866               78.16080235                0.00010000               -0.85441478               -0.26096897                0.85431478               -0.60949874                0.62956732               -0.56184589
              19.58535928                2.60886273               77.75073692                0.00010000               -2.10360640                0.51748385                0.60435822               -4.25483909                8.32232565               -2.27341773
              20.55771559                2.01597272               77.46533612                0.00010000               -0.02692427               -0.88562032               -0.56962641               -4.12593851               15.60618740               -0.22531938
              21.58482079                1.40674960               77.18673334                0.00010000                5.04012285               -1.59683288               -1.59941129               -4.13108360               15.98119498               -0.04471172
              22.65851805                0.78174565               76.90683195                1.00000000                4.02132254                0.61569178               -2.35697438               -4.12030675                7.80269817                0.02750487
              23.66524724                0.24217531               76.47151947                1.00000000                0.67291936                0.52138869               -2.06185627               -0.06053087               -0.02067081               -0.02070307
              14.10508660                6.60622976               80.18223934                0.00010000               -0.05058711               -0.03242305                0.10568467               -0.00271426                0.01667903                0.66694532
              15.10458072                6.10907474               79.75094748                0.00010000               -0.07073915               -0.07849500                0.24951349                0.00644537                0.08869611                0.07854963
              16.10367181                5.61177065               79.32064897                0.00010000               -0.11371623               -0.11927535                0.39070140                0.00511305                0.16044518               -0.22564997
              17.10230640                5.11411037               78.89068382                0.00010000               -0.15790289               -0.16623695                0.53859851               -0.01033411                0.23482604               -0.20693892
              18.10051375                4.61579660               78.46209458                0.00010000               -0.20647876               -0.20793275                0.67703277               -0.02690218                0.22151492               -0.21631591
              19.09817682                4.11673897               78.03237715                0.00010000               -0.30074484               -0.26188011                0.82947996               -0.19281881                0.26909662               -0.40285860
              20.09449886                3.61403757               77.60559926                0.00010000                0.96679729                0.06887927                1.00169741               -4.87474686                7.95183315               -1.33466512
              21.11751277                3.00711652               77.33003718                0.00010000                3.30623172               -2.02023150               -0.48685163               -6.66769874               15.01986214               -0.27861952
              22.16062349                2.39078127               77.04158614                0.00010000                4.10446799               -1.28852399               -1.35240329               -5.50897197               14.53382380               -0.75993730
              23.19960213                1.78790257               76.75385698                1.00000000                2.17943942                0.51485380               -1.71456770               -3.01894350                7.36390496                0.00475100
              24.20421228                1.24738920               76.31810770                1.00000000                0.46101507                0.42610442               -1.42930248               -0.10950964                0.01770101               -0.08695654
              14.60243706                7.60596074               80.04706779                0.00010000               -0.03542171               -0.01781673                0.06093645               -0.00552810                0.14894552                0.77923485
              15.60208284                7.10832479               79.61270763                0.00010000               -0.05245808               -0.07038911                0.20863652                0.00101805                0.33723730                0.00579602
              16.60138790                6.61059925               79.18172704                0.00010000               -0.08075835               -0.11135068                0.35355687               -0.01722179                0.91211950               -0.65972380
              17.60046768                6.11242315               78.75880893                0.00010000               -0.10534862               -0.62072065                0.51047232               -0.28085652                1.24589250               -0.17105348
              18.59928093                5.61367225               78.33470395                0.00010000               -0.13886503               -1.05005240                0.64104931               -0.18358181                1.04034050                0.37892530
              19.59769038                5.11411106               77.90826076                0.00010000               -0.08970656               -1.67329639                0.80345302                0.22169757                1.07141982                1.23433790
              20.59748680                4.61024031               77.48580352                0.00010000                2.49637672               -3.58192762                0.98489202               -4.71472964                7.85680872                3.11836677
              21.64761791                3.97556809               77.19742428                0.00010000                4.81842538               -2.47778477               -0.83119508               -8.83651298               12.92758695               -0.02592978
              22.69385530                3.38097912               76.88273355                0.00010000                4.69566745               -0.72120584               -1.63811668               -7.47000915               13.20056808               -1.94816461
              23.74153126                2.79204273               76.59989197                0.00010000                2.51142504                1.47444302               -1.09673932               -6.10550563                7.61675903               -5.03299097
              24.74408380                2.25069740               76.16365974                1.00000000                0.25525447                3.00158921               -0.83170159               -4.01749939                0.07748109               -3.39321232
              15.10024794                8.60587343               79.91049723                0.00010000               -0.02853599                0.00219576                0.01975832               -0.00095695                0.25036847                0.65566938
              16.09996258                8.10766696               79.47261857                0.00010000               -0.05094602               -0.06834536                0.17369996                0.01169600                0.42133731               -0.33755248
              17.09922902                7.60954363               79.03784203                0.00010000               -0.31731540               -0.14615520                0.30925584               -0.45159017                1.74732434               -1.16330763
              18.09361627                7.10169596               78.62652528                0.00010000               -0.20374038               -0.91765265                0.06420706               -1.08811841                3.05253726               -0.41843291
              19.09515421                6.59479555               78.21777307                0.00010000                0.62132236               -1.75853604               -0.17070057               -0.99836389                3.36692556                0.55577165
              20.10604272                6.08327305               77.81391640                0.00010000                2.17965118               -3.04051497               -0.44288969               -1.78937139                4.50372736                1.97276508
              21.13874723                5.54239901               77.43146133                0.00010000                3.20004915               -5.03189898               -0.97403362               -4.19167230                6.00491970                3.88101623
              22.17004370                4.95756083               77.06610471                0.00010000                2.80007200               -1.37124857               -1.55111735               -7.42741924                7.27542289                0.02780365
              23.19474867                4.37635716               76.71719919                0.00010000                1.88650216                0.34378355               -2.06871470               -7.58523768                6.74912815               -2.43268572
              24.20777374                3.81739143               76.34374355                0.00010000                0.59021427                2.84503143               -2.65695276               -6.01501833                4.10958004               -7.37329475
              25.20655296                3.30742098               75.94259564                0.00010000               -0.12207847                4.66390551               -3.25476523               -3.56585650                2.40621127               -6.07914904
              15.59883086                9.60600466               79.77241602                0.00010000               -0.01843033                0.02051037               -0.02184636               -0.00057221               -0.00360028                0.55733831
              16.59864656                9.10695789               79.32734617                0.00010000               -0.02518833               -0.07065947                0.16054825               -0.00236049                0.34567406               -0.50717413
              17.59832710                8.60767615               78.88903851                0.00010000               -0.25965836               -0.21326556                0.28361479               -0.71473635                2.60953531               -1.63457779
              18.59345339                8.09407010               78.48940059                0.00010000               -0.02952689               -0.68502136               -0.28342167               -1.45765739                4.64271385               -0.88112204
              19.59773656                7.57850153               78.09248756                0.00010000                1.04230448               -1.41646639               -0.83871475               -1.86562674                4.89674020               -0.20635932
              20.61429948                7.05330076               77.70031146                0.00010000                2.08145059               -2.31854819               -1.42142824               -3.13083538                5.17369455                0.44740523
              21.63936557                6.50960233               77.31415701                0.00010000                2.54059491               -2.29492829               -2.02059781               -5.59405470                5.33966347                0.36406631
              22.66511138                5.94814312               76.93315039                0.00010000                2.14771859               -0.45127809               -2.55880578               -6.99499168                5.04266852               -0.31836287
              23.68231994                5.38785479               76.54955647                0.00010000                1.25278446                1.37738423               -2.96583404               -6.33076448                3.99520539               -1.97419325
              24.69016707                4.84894336               76.15472109                0.00010000                0.51938181                2.89358526               -3.16881255               -3.72646953                2.08144710               -3.26145878
              25.69270758                4.34397551               75.73788706                0.00010000                0.25405086                3.14573068               -3.22053746               -1.62848944                1.04976252               -4.36371406
              16.09833004               10.60628364               79.63353467                0.00010000               -0.00861628                0.03571744               -0.06430972               -0.00126493                0.00339111                0.56260208
              17.09824388               10.10625377               79.18376060                0.00010000               -0.02539829               -0.06684313                0.13590480               -0.03877370                0.10729208               -0.40605317
              18.09782208                9.60527832               78.73591487                0.00010000               -0.23030702               -0.21776394                0.31881204               -0.91244072                3.17386157               -1.68097785
              19.09363774                9.08799553               78.34770530                0.00010000                0.03944680               -0.50055190               -0.53875419               -1.93342190                6.03246717               -1.22577355
              20.09861101                8.56646622               77.95866616                0.00010000                0.93437350               -0.88524295               -1.33758281               -2.59353546                5.87917160               -0.82556836
              21.11232521                8.03690208               77.57052356                0.00010000                1.67063835               -1.09896475               -2.11228493               -3.84330627                5.68544294               -0.55095932
              22.13202378                7.49650045               77.18268102                0.00010000                1.97830979               -0.70539850               -2.84086969               -5.25711502                5.24321999               -0.48239658
              23.15189140                6.94853526               76.79246051                0.00010000                1.76546841                0.43102476               -3.45945360               -5.92724445                4.42703087               -0.71140766
              24.16733315                6.40390484               76.39548707                0.00010000                1.26161173                1.71161996               -3.86852865               -5.07389730                3.19229419               -1.17012482
              25.17712364                5.87526314               75.98625114                0.00010000                0.82928622                2.51811114               -4.01562628               -2.86000545                1.64638374               -1.85444988
              26.18391887                5.37033559               75.56074607                0.00010000                0.67952324                2.50832015               -4.02565678               -1.24619811                0.85138857               -2.78867159
              16.59886530               11.60671901               79.49527164                0.00010000                0.00111010                0.05129520               -0.11119656               -0.00011835                0.00072481                0.62343822
              17.59887640               11.10562102               79.04052962                0.00010000               -0.02643895               -0.05880100                0.11303563               -0.05065096                0.03193162               -0.38403700
              18.59833652               10.60332087               78.58632940                0.00010000               -0.26396723               -0.17990601                0.33973086               -0.96492584                3.61176965               -1.44804110
              19.59359706               10.08405906               78.20343554                0.00010000               -0.06886124               -0.24853604               -0.71316163               -2.09798837                7.00481470               -1.36286210
              20.59695930                9.56079667               77.81945723                0.00010000                0.69010365               -0.28913462               -1.68999748               -2.79306958                6.70572562               -1.14306116
              21.60739913                9.03132147               77.43401007                0.00010000                1.28153965               -0.17672811               -2.61652838               -3.72788104                6.25530654               -0.93857845
              22.62259009                8.49549436               77.04564153                0.00010000                1.58814834                0.27647162               -3.47235013               -4.56056127                5.55489791               -0.80402782
              23.63916210                7.95676362               76.65170283                0.00010000                1.57620164                1.06696190               -4.19437662               -4.75353005                4.54440976               -0.77321147
              24.65411412                7.42208719               76.24866719                0.00010000                1.36870563                1.89227197               -4.70435530               -3.95673182                3.23271085               -0.89715057
              25.66653621                6.89930558               75.83291959                0.00010000                1.17622910                2.36714556               -4.95095954               -2.22313007                1.69551971               -1.25973997
              26.67763870                6.39414191               75.40174820                0.00010000                1.11024951                2.27287549               -4.89988809               -0.94593857                0.85738843               -2.03375791
              17.10052365               12.60730954               79.35736123                0.00010000                0.01053522                0.06582461               -0.15914334                0.00127220                0.00251283                0.65714947
              18.10062900               12.10507775               78.89749773                0.00010000               -0.02190629               -0.04953136                0.09277622               -0.04769719                0.03309115               -0.38566377
              19.10008552               11.60168020               78.43822847                0.00010000               -0.32134150               -0.15676233                0.34939527               -0.86897177                4.04022679               -1.38452867
              20.09420217               11.08302481               78.05882280                0.00010000               -0.22991530                0.02970495               -0.83200056               -1.90864879                7.83298586               -1.32045146
              21.09548721               10.56068353               77.67844394                0.00010000                0.44338649                0.20217677               -1.93575128               -2.51874228                7.46416055               -1.18017669
              22.10306990               10.03336752               77.29535885                0.00010000                0.99415944                0.45361267               -2.97815267               -3.19986890                6.88316910               -1.00432300
              23.11537040                9.50202988               76.90766544                0.00010000                1.35790371                0.87317893               -3.93928784               -3.66136222                6.05781641               -0.84388102
              24.13022797                8.96987450               76.51272075                0.00010000                1.51430718                1.43993496               -4.76154420               -3.61464509                4.94886273               -0.74209500
              25.14565655                8.44175028               76.10736334                0.00010000                1.51891739                1.98671291               -5.36423893               -2.89641886                3.55100393               -0.76989893
              26.16060632                7.92260605               75.68836010                0.00010000                1.48354473                2.27310549               -5.66311872               -1.59496217                1.88448531               -1.04518721
              27.17532744                7.41579310               75.25277703                0.00010000                1.47211211                2.07223053               -5.59412566               -0.65945704                0.91559273               -1.72493929
              17.60335433               13.60803550               79.21955793                0.00010000                0.01974694                0.07791537               -0.20795056                0.00205010                0.00799292                0.65674710
              18.60355180               13.10463040               78.75441082                0.00010000               -0.01721510               -0.04035778                0.07778609               -0.04064358                0.06344024               -0.41631407
              19.60301002               12.60018562               78.29042026                0.00010000               -0.35655212               -0.14315906                0.36045353               -0.63174057                4.55200927               -1.18998682
              20.59642075               12.08465316               77.91543931                0.00010000               -0.33841434                0.26694502               -0.92061893               -1.41453442                8.68987024               -1.13470350
              21.59624174               11.56484021               77.53820375                0.00010000                0.28173223                0.55869097               -2.11292975               -1.93881294                8.19009990               -0.98776664
              22.60205540               11.04039372               77.15752564                0.00010000                0.83070625                0.84713586               -3.23992387               -2.41126649                7.51480577               -0.83356947
              23.61285586               10.51295794               76.77123865                0.00010000                1.25466967                1.21038488               -4.28112923               -2.64714625                6.60854756               -0.68895055
              24.62714879                9.98556232               76.37671550                0.00010000                1.52991670                1.62559572               -5.17948786               -2.49442428                5.42516411               -0.58778962
              25.64345420                9.46182145               75.97078390                0.00010000                1.67226754                1.99471720               -5.84671296               -1.90205257                3.92469792               -0.60074485
              26.66059414                8.94476769               75.54998835                0.00010000                1.73106280                2.16523072               -6.17976260               -0.98960986                2.09888684               -0.83776859
              27.67807545                8.43558652               75.11106663                0.00010000                1.74813105                1.93419903               -6.08670240               -0.36974650                1.00898347               -1.41892730
              18.10737486               14.60886785               79.08147311                0.00010000                0.02911459                0.08825981               -0.25162166                0.00167335                0.02655442                0.56835132
              19.10766600               14.10427059               78.61098539                0.00010000                0.00265428               -0.03204509                0.06363886               -0.03095264                0.33501877               -0.42286560
              20.10742794               13.59881702               78.14678158                0.00010000               -0.32045547               -0.13898347                0.33475587               -0.29193784                5.22412742               -0.96053127
              21.10125689               13.08836371               77.77463506                0.00010000               -0.32287744                0.44100811               -1.00246072               -0.71990989                9.46931494               -0.70891894
              22.10097039               12.57185735               77.40085646                0.00010000                0.27349701                0.74509160               -2.26283387               -1.09979101                8.86921839               -0.57652388
              23.10672683               12.05031024               77.02257201                0.00010000                0.81442434                1.05548842               -3.44972861               -1.36701159                8.08250075               -0.47678768
              24.11725888               11.52623758               76.63803092                0.00010000                1.23745704                1.39389856               -4.54852289               -1.45807955                7.11689412               -0.38284437
              25.13147598               11.00238642               76.24467885                0.00010000                1.55756194                1.73084500               -5.50218094               -1.32279930                5.88478440               -0.31374838
              26.14841012               10.48164463               75.83927350                0.00010000                1.77865385                1.99975106               -6.21731817               -0.94625175                4.30428435               -0.31739174
              27.16704905                9.96591066               75.41793464                0.00010000                1.89423651                2.10955574               -6.57492294               -0.44315831                2.31680189               -0.46744466
              28.18629485                9.45447708               74.97654064                0.00010000                1.92457979                1.92813626               -6.45617002               -0.11518850                1.10900395               -0.88725422
              18.61258230               15.60980070               78.94179240                0.00010000                0.04012683                0.09328497               -0.30547733               -0.06037584                0.27103959                0.49065156
              19.61298357               15.10398949               78.46804050                0.00010000                0.02479245               -0.02810989                0.04891846               -0.08798044                0.75554996               -0.41563404
              20.61307815               14.59740595               78.00416201                0.00010000               -0.20006711               -0.14110655                0.31442221                0.03921226                6.16769767               -0.93869544
              21.60898223               14.09347332               77.63943269                0.00010000               -0.03893814                0.51096136               -1.12301306               -0.11066224               10.29628051               -0.32085949
              22.61229939               13.57974204               77.26814379                0.00010000                0.56763535                0.78846938               -2.42663466               -0.46559225                9.36019185               -0.28394793
              23.62033494               13.06150349               76.89190589                0.00010000                0.96593523                1.11932514               -3.65432553               -0.58449626                8.49910877               -0.24630587
              24.63161809               12.54083591               76.50899582                0.00010000                1.24754105                1.45983356               -4.79232970               -0.63029239                7.49327504               -0.21970134
              25.64528576               12.02017922               76.11707897                0.00010000                1.46934105                1.77928009               -5.78636421               -0.56999384                6.26231648               -0.20764849
              26.66100491               11.50181647               75.71306160                0.00010000                1.68063803                2.01718475               -6.54293922               -0.40154110                4.70418927               -0.23684367
              27.67889852               10.98695881               75.29301689                0.00010000                1.88169634                2.10481429               -6.93854788               -0.19841482                2.66020160               -0.34488397
              28.69863884               10.47414925               74.85138055                0.00010000                1.97403239                1.96721625               -6.82183070               -0.04655687                1.37669601               -0.66122652
              14.03469251                5.74988205               81.32143928                0.00010000               -0.04461716               -0.00714970                0.04028336                0.03030788               -0.39386654                0.47750213
              15.03424634                5.24907344               80.89200114                0.00010000               -0.07754025               -0.06746860                0.23728525                0.03726513               -0.48521680                0.05626126
              16.03314171                4.74808297               80.46027522                0.00010000               -0.14059280               -0.12200157                0.42877390                0.03718224               -0.51418471               -0.03959108
              17.03143449                4.24676321               80.03013106                0.00010000               -0.20935000               -0.18129484                0.61888509                0.01227833               -0.47005448               -0.25605937
              18.02895471                3.74478560               79.59945277                0.00010000               -0.27584799               -0.23905167                0.80874429               -0.00141086               -0.44589481               -0.28920419
              19.02591753                3.24227737               79.17023843                0.00010000               -0.67394868               -0.31406474                1.01908799               -0.41502290                0.41939495               -0.56441992
              20.01547574                2.73142359               78.75757848                0.00010000               -1.58613108                0.17432577                0.83045371               -3.82290617                7.39719621               -1.84950482
              20.99419491                2.14772457               78.46091325                0.00010000                0.33520805               -1.04967595               -0.32709777               -3.64852538               14.17709343               -0.38616761
              22.02217990                1.54914489               78.17158573                0.00010000                4.92698276               -1.62396813               -1.42078091               -3.73812265               14.69009434               -0.21400431
              23.09273456                0.93173966               77.88385258                1.00000000                3.83354590                0.64338382               -2.24530618               -3.77954950                7.22792773                0.00394517
              24.09885082                0.39209763               77.45207976                1.00000000                0.61162541                0.50495243               -1.83454215                0.03760665               -0.02054152               -0.04694062
              14.53580421                6.74981055               81.18278583                0.00010000               -0.02856751               -0.00436963                0.00702851                0.00021275                0.01320610                0.66127823
              15.53551853                6.24839875               80.75322198                0.00010000               -0.05677812               -0.06590439                0.20586689                0.00827106                0.08292320                0.07990968
              16.53466864                5.74686296               80.32461844                0.00010000               -0.11562862               -0.12192714                0.40051120                0.00566934                0.15755689               -0.21774131
              17.53320596                5.24495026               79.89641383                0.00010000               -0.17425620               -0.18669205                0.60156641               -0.00910566                0.23521920               -0.19078605
              18.53118352                4.74239508               79.46952461                0.00010000               -0.23788281               -0.24735745                0.80056245               -0.02386856                0.23365234               -0.20875186
              19.52844830                4.23913673               79.04168297                0.00010000               -0.33302214               -0.32118249                1.02190190               -0.14546172                0.31080212               -0.39963855
              20.52452308                3.73316685               78.61705589                0.00010000                1.02003483               -0.14484150                1.27485610               -4.32261659                7.13722480               -1.12647477
              21.54884900                3.13722781               78.32622290                0.00010000                3.41340238               -2.07159162               -0.30113086               -5.82257162               13.57269614               -0.60973721
              22.59279112                2.53290521               78.02834309                0.00010000                4.23068494               -1.39109082               -1.28500860               -4.86551749               13.52227617               -1.13614408
              23.63346270                1.93817350               77.73519152                1.00000000                2.30388935                0.60702089               -1.98361939               -2.64121891                6.92700921               -0.00565210
              24.63886891                1.39714715               77.30300734                1.00000000                0.54062139                0.46579625               -1.55041980               -0.03543440                0.01657605               -0.10844210
              15.03752037                7.74979466               81.04722363                0.00010000               -0.01610164                0.00465175               -0.02667484               -0.00347652                0.14446156                0.77106395
              16.03735936                7.24775535               80.61463079                0.00010000               -0.04083953               -0.06093401                0.17612256                0.00089743                0.33138112                0.01018769
              17.03670358                6.74564443               80.18538722                0.00010000               -0.08195525               -0.11767851                0.37557533               -0.02293114                0.91302840               -0.65219961
              18.03572025                6.24302937               79.76431378                0.00010000               -0.12063536               -0.62779061                0.58481727               -0.28774325                1.25190796               -0.35701384
              19.03429088                5.73983845               79.34186662                0.00010000               -0.17418622               -1.04046485                0.78504197               -0.21014292                1.06645461                0.00285795
              20.03223653                5.23585372               78.91742836                0.00010000               -0.16792766               -1.60748866                1.02409820                0.17737913                1.14298395                0.63474745
              21.03093232                4.72852676               78.49729129                0.00010000                2.28842899               -3.32334800                1.30152889               -4.10171197                6.91174740                2.12540909
              22.07800511                4.10629274               78.19016225                0.00010000                4.64957680               -2.41221410               -0.65604953               -7.79131370               11.44670410               -0.70964371
              23.12392386                3.52132308               77.86722308                0.00010000                4.88315672               -0.86670277               -1.47116515               -6.56200547               12.71114698               -2.66941362
              24.17566824                2.94388008               77.58605953                1.00000000                2.81354787                1.30079128               -1.68370158               -5.79064794                7.54138901               -5.76392661
              25.18019482                2.40141355               77.15326552                1.00000000                0.45265741                3.00304158               -1.22496118               -4.28584407                0.07743960               -4.46633950
              15.53981329                8.74990359               80.91030269                0.00010000               -0.01265878                0.01949348               -0.05578255               -0.00024025                0.24183315                0.64480231
              16.53968670                8.24718007               80.47425338                0.00010000               -0.04386468               -0.06110733                0.15305536                0.00677047                0.40320498               -0.31844746
              17.53893600                7.74450939               80.04111328                0.00010000               -0.32148134               -0.15301402                0.34175780               -0.44987668                1.53503921               -1.14569724
              18.53325708                7.23239445               79.62772864                0.00010000               -0.23898448               -0.90733878                0.16749856               -1.07776772                2.64370836               -0.77409506
              19.53415631                6.72158578               79.21702035                0.00010000                0.50252492               -1.68490414                0.00324581               -0.98211625                2.94074962               -0.15344697
              20.54330758                6.20698695               78.81085010                0.00010000                1.89467589               -2.81982569               -0.19601017               -1.65521570                3.93668573                0.86914952
              21.57204983                5.66669989               78.42340488                0.00010000                2.84594157               -4.56552052               -0.69147566               -3.67398101                5.28529288                2.32574306
              22.60022641                5.08898353               78.05184404                0.00010000                2.59569240               -1.28931533               -1.33891295               -6.57133741                6.61698766               -0.96911044
              23.62396367                4.51557116               77.69685505                0.00010000                1.86664278                0.23178175               -1.96223031               -6.80038583                6.27622306               -3.47665983
              24.63755926                3.96418932               77.32030878                0.00010000                0.70607013                2.34573951               -2.22055002               -5.71125585                3.89354718               -8.64480396
              25.63808508                3.45720799               76.91621999                0.00010000                0.05258146                4.19296668               -2.36710645               -3.56872211                2.68828849               -7.72472658
              16.04296260                9.75018452               80.77187169                0.00010000               -0.00736381                0.03446853               -0.08449229                0.00074652                0.00033051                0.54155703
              17.04288896                9.24653320               80.32892569                0.00010000               -0.02354674               -0.06760716                0.15448353               -0.00831153                0.31878164               -0.48076294
              18.04249167                8.74258415               79.89213287                0.00010000               -0.29002308               -0.21854922                0.33161210               -0.69978307                2.21297513               -1.56804646
              19.03708850                8.22488260               79.48722009                0.00010000               -0.12178095               -0.66862099               -0.16483378               -1.41542941                3.88456491               -1.14117594
              20.04005605                7.70614037               79.08515937                0.00010000                0.84648042               -1.33014998               -0.64950477               -1.74800432                4.11380773               -0.76360030
              21.05401811                7.17945721               78.68759437                0.00010000                1.77000402               -2.11718773               -1.16221219               -2.82501220                4.36967276               -0.38883831
              22.07545613                6.63721635               78.29580469                0.00010000                2.18444887               -2.05241884               -1.71408090               -4.93996242                4.58834041               -0.62945985
              23.09770709                6.08050643               77.90947756                0.00010000                1.86271083               -0.39581641               -2.25599940               -6.12829234                4.48537883               -1.42437059
              24.11271034                5.52595871               77.52192771                0.00010000                1.10496040                1.23671885               -2.66149823               -5.58300329                3.73965937               -3.22081583
              25.11980630                4.99079487               77.12421047                0.00010000                0.50363522                2.47887433               -2.92875708               -3.37735406                2.14036834               -4.60898114
              26.12278305                4.48527289               76.70530392                0.00010000                0.29767533                2.50151866               -3.04091672               -1.57796458                1.13810797               -5.69389547
              16.54713087               10.75059296               80.63262911                0.00010000               -0.00100230                0.04786676               -0.11464641               -0.00032539                0.00392713                0.54085531
              17.54712085               10.24582793               80.18515857                0.00010000               -0.02699640               -0.06947934                0.14207956               -0.04018517                0.10010364               -0.38417439
              18.54659094                9.74013840               79.73946146                0.00010000               -0.28642865               -0.22681095                0.38237970               -0.87076122                2.64073565               -1.58693112
              19.54139227                9.21902203               79.34300780                0.00010000               -0.09846676               -0.48022867               -0.41322429               -1.82388107                4.97792026               -1.38812847
              20.54462161                8.69498278               78.94637537                0.00010000                0.71695375               -0.81235235               -1.14444516               -2.36172619                4.84230613               -1.21204828
              21.55573135                8.16464320               78.55094876                0.00010000                1.37898759               -0.98126666               -1.84634046               -3.40855872                4.67757989               -1.13819303
              22.57220136                7.62565151               78.15629855                0.00010000                1.65934234               -0.61111744               -2.50677358               -4.57160887                4.33997675               -1.25518578
              23.58891820                7.08106720               77.76033655                0.00010000                1.49069058                0.39582523               -3.06935796               -5.07545831                3.74155862               -1.68097832
              24.60201517                6.54030553               77.35941636                0.00010000                1.08899049                1.50344348               -3.46583620               -4.27497464                2.79616457               -2.36230929
              25.61069801                6.01376681               76.94842825                0.00010000                0.77772874                2.16336450               -3.65049439               -2.35308567                1.49692505               -3.19741865
              26.61756974                5.50723836               76.52306782                0.00010000                0.68717394                2.04736617               -3.63117494               -0.97296526                0.79907101               -3.94349418
              17.05248616               11.75114186               80.49395040                0.00010000                0.00536576                0.06174781               -0.15098798                0.00071606                0.00092307                0.59623147
              18.05253981               11.24514361               80.04175277                0.00010000               -0.03019089               -0.06542706                0.12940189               -0.04783584                0.03328739               -0.35959855
              19.05188234               10.73804793               79.59011608                0.00010000               -0.33866560               -0.19798246                0.41024709               -0.89427117                2.97649801               -1.36432174
              20.04576650               10.21527802               79.19698864                0.00010000               -0.23409904               -0.23434838               -0.58794090               -1.92789776                5.73437435               -1.44048121
              21.04720036                9.68989332               78.80359474                0.00010000                0.47058549               -0.24432024               -1.50330691               -2.49377790                5.46824697               -1.37957072
              22.05517821                9.15983188               78.40934436                0.00010000                1.01997973               -0.12556995               -2.35674361               -3.26110950                5.06254267               -1.33163548
              23.06759995                8.62499400               78.01297799                0.00010000                1.31828432                0.27851938               -3.13040368               -3.91773138                4.47066250               -1.36134733
              24.08154390                8.08842293               77.61240131                0.00010000                1.34556448                0.95327614               -3.77252985               -4.00155099                3.66022059               -1.51116730
              25.09451124                7.55602758               77.20478601                0.00010000                1.21339305                1.63003646               -4.21605244               -3.24589959                2.62505203               -1.81837069
              26.10581176                7.03406216               76.78702634                0.00010000                1.09347034                1.98000016               -4.40788250               -1.77052676                1.38445261               -2.29363238
              27.11638065                6.52622021               76.35637906                0.00010000                1.05688892                1.82624458               -4.33507548               -0.72613528                0.70641338               -2.99961151
              17.55914168               12.75182791               80.35560851                0.00010000                0.01163750                0.07414057               -0.18924311                0.00214210                0.00258489                0.62669220
              18.55925806               12.24451938               79.89856852                0.00010000               -0.02852863               -0.05842894                0.11824436               -0.04326209                0.03520563               -0.35593833
              19.55857111               11.73617875               79.44215387                0.00010000               -0.41345632               -0.18104586                0.42660412               -0.77315136                3.32405275               -1.29927970
              20.55098893               11.21433506               79.05114381                0.00010000               -0.41894587                0.03680616               -0.71269857               -1.69936785                6.40143638               -1.33640542
              21.55019219               10.69009638               78.66001969                0.00010000                0.22097731                0.23018393               -1.76390148               -2.20508527                6.06915075               -1.29987960
              22.55540848               10.16213180               78.26693700                0.00010000                0.75317404                0.47078265               -2.73782230               -2.77055526                5.53392081               -1.23573320
              23.56525567                9.63122190               77.87019388                0.00010000                1.12225575                0.83386898               -3.61488303               -3.12447409                4.80858013               -1.19730285
              24.57785359                9.10013272               77.46768414                0.00010000                1.31011402                1.30069908               -4.34305517               -3.02730827                3.88748022               -1.22635173
              25.59145795                8.57290626               77.05696716                0.00010000                1.36206240                1.72557305               -4.85207979               -2.37239214                2.77249051               -1.37379524
              26.60509484                8.05336681               76.63549909                0.00010000                1.36364888                1.91242366               -5.07382637               -1.27555036                1.47060714               -1.71009104
              27.61873093                7.54376325               76.20090850                0.00010000                1.36360911                1.70947212               -4.95695880               -0.50739947                0.73383625               -2.32094140
              18.06714605               13.75262467               80.21736718                0.00010000                0.01776758                0.08376070               -0.22825757                0.00290371                0.00997877                0.62622953
              19.06732373               13.24397504               79.75538318                0.00010000               -0.02712110               -0.05118527                0.11223119               -0.03589694                0.06395465               -0.38068308
              20.06660363               12.73442701               79.29450874                0.00010000               -0.47311048               -0.16901887                0.44515348               -0.51413265                3.76292312               -1.11513573
              21.05786152               12.21601415               78.90682047                0.00010000               -0.56508581                0.28163634               -0.80833571               -1.18587118                7.12769603               -1.11191251
              22.05530191               11.69449700               78.51788116                0.00010000                0.03900342                0.59413172               -1.95887411               -1.65987429                6.67201654               -1.02842333
              23.05864159               11.16924753               78.12629869                0.00010000                0.59038164                0.85942958               -3.02577999               -2.07299192                6.04030540               -0.94442357
              24.06710955               10.64167138               77.73012248                0.00010000                1.03358888                1.16775618               -3.98735346               -2.25535328                5.22798496               -0.87773454
              25.07931337               10.11443692               77.32726634                0.00010000                1.33598790                1.50242468               -4.79015452               -2.09099085                4.22919396               -0.85676550
              26.09382931                9.59053904               76.91535748                0.00010000                1.50651993                1.78139119               -5.35629215               -1.56283720                3.02821202               -0.93514948
              27.10944376                9.07231063               76.49183864                0.00010000                1.58052392                1.88520472               -5.59996098               -0.79597892                1.61305310               -1.18999970
              28.12543978                8.56040965               76.05418772                0.00010000                1.59960204                1.66329258               -5.45089389               -0.28403828                0.79104075               -1.70468885
              18.57649903               14.75350313               80.07889848                0.00010000                0.02387461                0.09100349               -0.26090658                0.00152457                0.02061176                0.53245797
              19.57673778               14.24349568               79.61187374                0.00010000               -0.01248411               -0.04528378                0.10772290               -0.02614167                0.30701703               -0.38270929
              20.57624935               13.73279838               79.15066394                0.00010000               -0.47681251               -0.16498276                0.42951205               -0.14301178                4.36110555               -0.89259035
              21.56720153               13.21996779               78.76516785                0.00010000               -0.62440128                0.51037791               -0.89318022               -0.53083036                7.80733168               -0.68177850
              22.56376132               12.70197901               78.37893656                0.00010000               -0.02136340                0.80246197               -2.12098822               -0.91861241                7.25084649               -0.57905111
              23.56677426               12.17932039               77.98909355                0.00010000                0.55989504                1.07704092               -3.25533093               -1.17409255                6.51054370               -0.51412496
              24.57495922               11.65457702               77.59404212                0.00010000                1.01959272                1.36135552               -4.28020911               -1.24304487                5.63538027               -0.45889326
              25.58716611               11.13018122               77.19177604                0.00010000                1.36841361                1.63226399               -5.14108585               -1.11038486                4.58630451               -0.42851286
              26.60232750               10.60853409               76.77991273                0.00010000                1.60692698                1.83433684               -5.75397625               -0.77940272                3.31626993               -0.46088660
              27.61930465               10.09107091               76.35561958                0.00010000                1.72623128                1.89578862               -6.01849863               -0.35731063                1.77548710               -0.61194839
              28.63685212                9.57702910               75.91576783                0.00010000                1.75474690                1.71789246               -5.84204948               -0.08388379                0.86315360               -0.97433417
              19.08719144               15.75444474               79.93873142                0.00010000                0.03142055                0.09416144               -0.30091527               -0.06829719                0.25838237                0.44678530
              20.08750565               15.24306936               79.46883623                0.00010000                0.00399225               -0.04263198                0.10051563               -0.08908218                0.69942766               -0.37060002
              21.08727128               14.73112736               79.00791173                0.00010000               -0.47206845               -0.16710180                0.41888761                0.25981087                5.20957579               -0.85937459
              22.07806428               14.22622170               78.62877327                0.00010000               -0.48471094                0.62539128               -1.00766125                0.05721889                8.52295592               -0.29542288
              23.07757707               13.71054624               78.24458206                0.00010000                0.22487269                0.85672232               -2.28083064               -0.39009337                7.66748601               -0.27017771
              24.08256173               13.19078835               77.85636885                0.00010000                0.69053806                1.14679571               -3.45642958               -0.50364015                6.85698142               -0.24708748
              25.09138783               12.66889849               77.46255749                0.00010000                1.02934358                1.43214691               -4.51982127               -0.54244727                5.94010429               -0.23454473
              26.10314860               12.14708220               77.06133452                0.00010000                1.29818659                1.69009804               -5.41900566               -0.48538656                4.88652297               -0.23457133
              27.11735156               11.62722578               76.65046847                0.00010000                1.53269675                1.86916927               -6.06964690               -0.34038325                3.63462205               -0.26949080
              28.13380254               11.11022640               76.22712913                0.00010000                1.72470808                1.91554957               -6.36660284               -0.17312535                2.05174117               -0.36887779
              29.15184572               10.59476750               75.78702307                0.00010000                1.80431838                1.77384014               -6.19081072               -0.04653007                1.08080953               -0.63715426
              14.45918025                5.89346615               82.32131770                0.00010000               -0.02257069                0.02048394               -0.05968959                0.04102773               -0.39913245                0.47626205
              15.45895454                5.38857824               81.89410794                0.00010000               -0.06362965               -0.05349545                0.18544796                0.04722269               -0.49620643                0.05807390
              16.45790765                4.88350651               81.46454152                0.00010000               -0.14164358               -0.12026875                0.42185752                0.04649068               -0.53034107               -0.03485044
              17.45612167                4.37806117               81.03654747                0.00010000               -0.22426714               -0.19492353                0.65844450                0.01812685               -0.48707846               -0.24616569
              18.45342231                3.87190316               80.60799567                0.00010000               -0.30358760               -0.26954480                0.89146929                0.00503571               -0.45008071               -0.27953058
              19.45004992                3.36517118               80.18118411                0.00010000               -0.53969647               -0.36149043                1.15713042               -0.26810063                0.25319573               -0.56566602
              20.44262838                2.85291781               79.76734600                0.00010000               -1.13998525               -0.11225504                1.13051842               -3.36955081                6.39658420               -1.56810601
              21.42725021                2.27763008               79.45879417                0.00010000                0.65274824               -1.19573010               -0.11069434               -3.15522163               12.61171343               -0.51014633
              22.45568335                1.68895480               79.15831772                0.00010000                4.76661842               -1.65337633               -1.25611114               -3.28246482               13.23742067               -0.26301640
              23.52258258                1.07914669               78.86192583                1.00000000                3.63493633                0.64358977               -2.19372311               -3.38912634                6.53928505               -0.10545948
              24.52838207                0.53938132               78.43482863                1.00000000                0.57994933                0.46532651               -1.67504662                0.07647210               -0.01429177               -0.11441939
              14.96447843                6.89367098               82.18237991                0.00010000               -0.00718412                0.01995113               -0.08402667                0.00381656                0.00833095                0.65655556
              15.96440658                6.38804329               81.75506482                0.00010000               -0.04236631               -0.05405498                0.16336379                0.01125845                0.07475778                0.08204198
              16.96363110                5.88230382               81.32865920                0.00010000               -0.11509852               -0.12230468                0.40419385                0.00632314                0.15199043               -0.20867807
              17.96210461                5.37611193               80.90271514                0.00010000               -0.18567191               -0.20465514                0.65234392               -0.00956753                0.23807104               -0.17659099
              18.95991766                4.86920771               80.47810583                0.00010000               -0.26215144               -0.28347430                0.90758702               -0.02412620                0.25942936               -0.19865478
              19.95686158                4.36155628               80.05281518                0.00010000               -0.36071172               -0.37661503                1.19361974               -0.11684912                0.37715301               -0.39697982
              20.95270343                3.85179526               79.63109638                0.00010000                1.04089560               -0.32591516                1.51019657               -3.77620191                6.26465535               -0.96857613
              21.97767950                3.26567278               79.32401456                0.00010000                3.46984836               -2.09379962               -0.21155607               -5.00021134               11.97962812               -0.83692129
              23.02210039                2.67242104               79.01588597                0.00010000                4.28992802               -1.49379604               -1.17214844               -4.17962878               12.23402265               -1.28272264
              24.06347806                2.08558258               78.71418459                1.00000000                2.34058821                0.62501267               -2.04640953               -2.23262179                6.30709294               -0.12537044
              25.06891216                1.54403459               78.28709930                1.00000000                0.54341005                0.43883177               -1.49700720               -0.01287261                0.00303940               -0.16682612
              15.47051197                7.89386517               82.04653429                0.00010000                0.00349022                0.02252123               -0.10757308               -0.00156285                0.13882292                0.76441121
              16.47054687                7.38749714               81.61623008                0.00010000               -0.02732470               -0.05200934                0.14381038                0.00023751                0.32419669                0.01580479
              17.46996547                6.88106042               81.18923854                0.00010000               -0.07602192               -0.12098929                0.39073774               -0.03528198                0.91277543               -0.64379482
              18.46902643                6.37396806               80.77050528                0.00010000               -0.12350164               -0.64020950                0.64653182               -0.31739956                1.27023507               -0.53847007
              19.46749544                5.86623367               80.35040479                0.00010000               -0.19505229               -1.03869222                0.91350252               -0.26995508                1.12516954               -0.37326924
              20.46512539                5.35763888               79.92874272                0.00010000               -0.22537978               -1.55331273                1.22904449                0.08480739                1.26548473                0.02170852
              21.46298785                4.84639950               79.51183410                0.00010000                2.07474075               -3.06973906                1.58436490               -3.55645337                5.90511632                1.06377616
              22.50662020                4.23575408               79.18430329                0.00010000                4.45965585               -2.34047315               -0.55819850               -6.80334200                9.81585511               -1.24283469
              23.55218096                3.65907888               78.85331025                0.00010000                4.98481983               -1.01508545               -1.29714957               -5.71995751               11.74760444               -3.14169401
              24.60631660                3.09164694               78.56621793                1.00000000                2.95198254                1.03809171               -1.85812559               -5.40596184                7.10157300               -6.10768405
              25.61122061                2.54815796               78.13916052                1.00000000                0.49040159                2.84267308               -1.26576830               -4.36969104                0.05649435               -5.02900066
              15.97718322                8.89412141               81.90938158                0.00010000                0.00328697                0.03221061               -0.12519750               -0.00095564                0.23167650                0.63623026
              16.97721609                8.38700310               81.47567968                0.00010000               -0.03643377               -0.05298559                0.13192389               -0.00116147                0.38246136               -0.29669410
              17.97645454                7.87988404               81.04467718                0.00010000               -0.33163582               -0.15466904                0.36719239               -0.46843184                1.32648315               -1.12461584
              18.97058337                7.36330774               80.62987525                0.00010000               -0.28033987               -0.90003201                0.25001767               -1.11792054                2.25300395               -1.12400896
              19.97084774                6.84843386               80.21783798                0.00010000                0.39042654               -1.61795832                0.14194671               -1.03373626                2.54099125               -0.86576879
              20.97839190                6.33049002               79.80999619                0.00010000                1.63057070               -2.61067719               -0.00274835               -1.60555807                3.36901097               -0.25553674
              22.00345916                5.79040048               79.41763182                0.00010000                2.52706893               -4.11400213               -0.48061357               -3.26826831                4.46671338                0.76307093
              23.02893328                5.21886331               79.03932645                0.00010000                2.41746160               -1.22954414               -1.19244545               -5.81027056                5.74467875               -1.79446645
              24.05180839                4.65211933               78.67795459                0.00010000                1.86732342                0.08991444               -1.79534370               -6.11598196                5.64324885               -4.27396027
              25.06627975                4.10634442               78.29933255                0.00010000                0.83439563                1.84986624               -2.03637072               -5.39748284                3.56709950               -9.45945331
              26.06849630                3.60088805               77.89525351                0.00010000                0.22165543                3.75459066               -1.98757486               -3.44252628                2.48199255               -8.96352218
              16.48472947                9.89450938               81.77072618                0.00010000                0.00315440                0.04503130               -0.14163410                0.00112708                0.00432165                0.52838797
              17.48476101                9.38643743               81.33043584                0.00010000               -0.02186353               -0.06299523                0.14685639               -0.01724162                0.29064902               -0.45186777
              18.48429220                8.87796704               80.89567075                0.00010000               -0.33214096               -0.21637776                0.37098184               -0.70684922                1.81983698               -1.49777150
              19.47811819                8.35596742               80.48610392                0.00010000               -0.23268815               -0.64216630               -0.07198841               -1.41968315                3.14225895               -1.40568404
              20.47963844                7.83387450               80.07949746                0.00010000                0.64647099               -1.23219917               -0.50603170               -1.69368284                3.34855872               -1.33138105
              21.49104761                7.30542534               79.67706722                0.00010000                1.48053774               -1.90508968               -0.97584112               -2.60966606                3.55959130               -1.23442224
              22.50924919                6.76411946               79.27987539                0.00010000                1.88241604               -1.80885250               -1.51168666               -4.41428821                3.76918868               -1.58440016
              23.52869593                6.21116320               78.88803040                0.00010000                1.65655140               -0.34356836               -2.06337969               -5.42853993                3.78373687               -2.39495321
              24.54238022                5.66087717               78.49632651                0.00010000                1.04511448                1.08405156               -2.49488951               -4.95812979                3.25455612               -4.19822139
              25.54959822                5.12864426               78.09614595                0.00010000                0.54513041                2.10772398               -2.73400999               -3.02482355                1.90759579               -5.66361710
              26.55328283                4.62324977               77.67706873                0.00010000                0.36846023                1.97512609               -2.70171763               -1.43320679                1.04553458               -6.73484941
              16.99334965               10.89502204               81.63124175                0.00010000                0.00639448                0.05774286               -0.15993238               -0.00040692                0.00435641                0.52097577
              17.99341360               10.38574320               81.18660219                0.00010000               -0.02810436               -0.07091619                0.14499443               -0.04250534                0.09151488               -0.36230797
              18.99278756                9.87555648               80.74356246                0.00010000               -0.35656795               -0.23125028                0.43117002               -0.84701811                2.10912509               -1.49464293
              19.98628224                9.35046442               80.33944081                0.00010000               -0.26356959               -0.44269972               -0.31407083               -1.75394526                3.93431607               -1.56247129
              20.98751617                8.82378988               79.93577725                0.00010000                0.48356920               -0.71567825               -0.99834076               -2.18730569                3.81954421               -1.61598189
              21.99595362                8.29238823               79.53359675                0.00010000                1.09596780               -0.83624095               -1.66177039               -3.06736718                3.67664316               -1.73686722
              23.00943553                7.75422343               79.13254555                0.00010000                1.38255740               -0.48736863               -2.29827569               -4.03495416                3.41844893               -2.00721861
              24.02360477                7.21199194               78.73107335                0.00010000                1.28646005                0.40147384               -2.85693715               -4.42802505                2.98744174               -2.55167014
              25.03516473                6.67380036               78.32617035                0.00010000                0.99029538                1.36459038               -3.26742700               -3.69415652                2.28460481               -3.34014590
              26.04341068                6.14849890               77.91324125                0.00010000                0.77282112                1.88589153               -3.46164873               -2.01879073                1.25522923               -4.20818740
              27.05062115                5.64039057               77.48812257                0.00010000                0.72104749                1.65296151               -3.40411368               -0.82189826                0.69747530               -4.88835907
              17.50327901               11.89566424               81.49225188                0.00010000                0.00974539                0.07022801               -0.18591307                0.00077093                0.00085990                0.56992611
              18.50337646               11.38501911               81.04311765                0.00010000               -0.03241936               -0.07073137                0.14090715               -0.04740255                0.03273018               -0.33680167
              19.50263062               10.87334203               80.59453434                0.00010000               -0.42852849               -0.21272631                0.46397186               -0.83509792                2.33933084               -1.28736113
              20.49480589               10.34711343               80.19167672                0.00010000               -0.43310549               -0.19997739               -0.48648317               -1.78491271                4.46805458               -1.53685826
              21.49396851                9.81956094               79.78939109                0.00010000                0.22304180               -0.16951835               -1.35805691               -2.24260245                4.24128730               -1.64267882
              22.49926673                9.28870052               79.38687520                0.00010000                0.74889414               -0.03448510               -2.17356212               -2.87841755                3.88332352               -1.75057562
              23.50894639                8.75437209               78.98303346                0.00010000                1.06458857                0.33579580               -2.91829702               -3.40742518                3.39350702               -1.92678307
              24.52055850                8.21919268               78.57625224                0.00010000                1.15218721                0.92452448               -3.54356964               -3.43017920                2.76697528               -2.21495619
              25.53199014                7.68816898               78.16434614                0.00010000                1.10368525                1.49512684               -3.98100174               -2.73519556                1.99358760               -2.63518285
              26.54263220                7.16636209               77.74476194                0.00010000                1.05356898                1.75465152               -4.16567533               -1.45967682                1.06280556               -3.15744507
              27.55306152                6.65630900               77.31504669                0.00010000                1.04293133                1.55875231               -4.05705222               -0.57709973                0.56833336               -3.76996747
              18.01465533               12.89642660               81.35357637                0.00010000                0.01324251                0.08029428               -0.21472226                0.00234228                0.00222677                0.59713497
              19.01478775               12.38432857               80.89986262                0.00010000               -0.03320206               -0.06538003                0.13703431               -0.04058806                0.03459189               -0.32876378
              20.01399129               11.87130196               80.44676055                0.00010000               -0.52113386               -0.19845975                0.48473908               -0.68315587                2.60187425               -1.22209364
              21.00436507               11.34646487               80.04456883                0.00010000               -0.64571251                0.06387180               -0.61182289               -1.50530404                4.96554366               -1.37486321
              22.00107704               10.82039951               79.64316591                0.00010000               -0.03954767                0.28969644               -1.62238215               -1.92655024                4.67687485               -1.45286833
              23.00357412               10.29169853               79.24060240                0.00010000                0.48589152                0.53240914               -2.56003122               -2.40533542                4.19493109               -1.50562342
              24.01079487                9.76093934               78.83536778                0.00010000                0.88150871                0.85914601               -3.40598192               -2.68572863                3.57533789               -1.58548323
              25.02120430                9.23048243               78.42585965                0.00010000                1.12482681                1.25712145               -4.10819538               -2.56486381                2.84414188               -1.72787729
              26.03329140                8.70370290               78.01032175                0.00010000                1.24364122                1.60019586               -4.59410892               -1.97172501                2.01151812               -1.96498080
              27.04607712                8.18359193               77.58688357                0.00010000                1.29469716                1.72425577               -4.79014840               -1.03722607                1.06673566               -2.32954132
              28.05918535                7.67156562               77.15363785                0.00010000                1.31082252                1.51622110               -4.64154428               -0.39580211                0.55462850               -2.86223263
              18.52752190               13.89727012               81.21499278                0.00010000                0.01674368                0.08630888               -0.24428361                0.00320037                0.01181217                0.59798902
              19.52768934               13.38371151               80.75665544                0.00010000               -0.03453486               -0.05826068                0.13738322               -0.03220785                0.06145798               -0.34799149
              20.52683120               12.86937284               80.29932333                0.00010000               -0.60435436               -0.18698701                0.50603519               -0.39779912                2.96428099               -1.04609557
              21.51560225               12.34839087               79.89927259                0.00010000               -0.83136795                0.31552342               -0.70753534               -0.96260677                5.55241501               -1.11045503
              22.51020384               11.82535487               79.49902627                0.00010000               -0.24910305                0.65879531               -1.82136176               -1.40287869                5.14616778               -1.10129872
              23.51062019               11.29934870               79.09701004                0.00010000                0.31220332                0.91295272               -2.85472511               -1.77709164                4.56668397               -1.09598739
              24.51644791               10.77155501               78.69149158                0.00010000                0.79387368                1.18426752               -3.78574343               -1.92622324                3.85886556               -1.11155211
              25.52649766               10.24433511               78.28091241                0.00010000                1.14991157                1.46327759               -4.55925686               -1.76274741                3.05409890               -1.16880710
              26.53944614                9.72017290               77.86365805                0.00010000                1.37636502                1.68065035               -5.09540483               -1.29436610                2.15556252               -1.30426275
              27.55402496                9.20084721               77.43798913                0.00010000                1.48759763                1.73946356               -5.30716692               -0.64564493                1.14396001               -1.56692409
              28.56919810                8.68663342               77.00204875                0.00010000                1.51731316                1.52947215               -5.12308784               -0.21757432                0.58301741               -2.00793211
              19.04183656               14.89815277               81.07625498                0.00010000                0.02043190                0.09002001               -0.26861698                0.00197909                0.01469861                0.50341828
              20.04204088               14.38316336               80.61313985                0.00010000               -0.02403084               -0.05294997                0.14045876               -0.02440429                0.27944764               -0.34779334
              21.04135595               13.86756222               80.15537182                0.00010000               -0.64549875               -0.18249788                0.49884464                0.00567035                3.48794347               -0.83068854
              22.02913091               13.35277534               79.75677145                0.00010000               -0.96471597                0.59815799               -0.78947954               -0.34090148                6.12462087               -0.66773466
              23.02206163               12.83357542               79.35843670                0.00010000               -0.36493795                0.88463071               -1.98237154               -0.74840348                5.61670876               -0.60215357
              24.02183215               12.30995758               78.95746539                0.00010000                0.26111844                1.13312189               -3.08533369               -1.00358932                4.93072457               -0.57874064
              25.02728400               11.78462469               78.55242674                0.00010000                0.77496562                1.37796309               -4.08112769               -1.06014968                4.15784505               -0.56741757
              26.03733146               11.25974799               78.14185714                0.00010000                1.18039908                1.60178665               -4.91275314               -0.93506040                3.30422041               -0.57838250
              27.05089198               10.73731591               77.72419398                0.00010000                1.46861177                1.75711374               -5.49406148               -0.64550972                2.35167393               -0.63892325
              28.06670370               10.21838120               77.29756467                0.00010000                1.61847281                1.78574675               -5.72415595               -0.29035326                1.25211723               -0.78801268
              29.08326143                9.70215506               76.85969965                0.00010000                1.65577377                1.61311306               -5.51172648               -0.05916017                0.62888923               -1.09380433
              19.55754032               15.89907052               80.93577409                0.00010000                0.02514941                0.09177496               -0.29405551               -0.07142610                0.23894213                0.41498232
              20.55779181               15.38265251               80.47005081                0.00010000               -0.01038421               -0.05108479                0.13677337               -0.09228945                0.64462603               -0.33396172
              21.55733263               14.86572288               80.01253976                0.00010000               -0.75103966               -0.18393376                0.49394656                0.48274435                4.24739251               -0.78842670
              22.54277102               14.36035403               79.61927947                0.00010000               -0.96395506                0.75786891               -0.89296160                0.23024118                6.73157384               -0.27418210
              23.53805353               13.84304748               79.22252718                0.00010000               -0.16359424                0.94720623               -2.13025996               -0.31795399                5.95976846               -0.26557987
              24.53949913               13.32201114               78.82277730                0.00010000                0.37004913                1.20535571               -3.27356953               -0.42996220                5.20805126               -0.26066908
              25.54545451               12.79911427               78.41859940                0.00010000                0.78030546                1.44895790               -4.30751813               -0.46496320                4.39196421               -0.26539873
              26.55510524               12.27637084               78.00869885                0.00010000                1.12241116                1.66228532               -5.17734013               -0.41257692                3.52893142               -0.27983396
              27.56790274               11.75531517               77.59166867                0.00010000                1.41367523                1.79992647               -5.79620456               -0.28935883                2.59174717               -0.32155318
              28.58337875               11.23656214               77.16568484                0.00010000                1.62822170                1.81809461               -6.05836281               -0.15346938                1.46558006               -0.41264694
              29.60046717               10.71889568               76.72756433                0.00010000                1.70884246                1.67406241               -5.84632250               -0.04607242                0.80262120               -0.63678701
              14.88112939                6.03728286               83.32024549                0.00010000               -0.00309995                0.04422064               -0.14819518                0.05098950               -0.40799929                0.47619653
              15.88109839                5.52832114               82.89571010                0.00010000               -0.05170173               -0.04036951                0.13705176                0.05698879               -0.51333257                0.06045499
              16.88009536                5.01915062               82.46871237                0.00010000               -0.14298075               -0.11582404                0.40952528                0.05544768               -0.55361268               -0.02995473
              17.87823878                4.50950455               82.04329995                0.00010000               -0.23894523               -0.20439148                0.68532838                0.01939822               -0.51129373               -0.23825771
              18.87531645                3.99897465               81.61728216                0.00010000               -0.33038322               -0.29617869                0.95949945                0.00542969               -0.45725929               -0.26496808
              19.87163111                3.48770191               81.19338104                0.00010000               -0.47595412               -0.40633894                1.27276801               -0.18372716                0.15624402               -0.56130757
              20.86579737                2.97256070               80.78018885                0.00010000               -0.80868336               -0.32534744                1.40772591               -2.74910918                5.38669394               -1.42724019
              21.85545745                2.40708085               80.45869936                0.00010000                0.89996396               -1.21005920                0.08987817               -2.37117892               11.01524913               -0.60133825
              22.88379665                1.82874807               80.14646351                0.00010000                4.57759578               -1.64898315               -1.24514080               -2.74790608               11.48195415               -0.04647605
              23.94700936                1.22511294               79.83997812                1.00000000                3.44813667                0.62610453               -2.20510511               -3.03582270                5.74745129               -0.13386183
              24.95275938                0.68526789               79.41857882                1.00000000                0.57500216                0.42108562               -1.58922746                0.04958469               -0.00946464               -0.11499545
              15.39060101                7.03772507               83.18110530                0.00010000                0.01333962                0.03991751               -0.16529245                0.00803129                0.00086857                0.65283478
              16.39073440                6.52791745               82.75648926                0.00010000               -0.02714378               -0.04322779                0.12256939                0.01539775                0.06205065                0.08488149
              17.39005813                6.01799238               82.33270231                0.00010000               -0.11068295               -0.12000337                0.39992971                0.00658594                0.14213469               -0.19855456
              18.38852074                5.50746063               81.90946071                1.00000000               -0.18930317               -0.22023444                0.68781249               -0.01297923                0.24510893               -0.16380228
              19.38627207                4.99601286               81.48767635                1.00000000               -0.27599636               -0.31668678                0.99396956               -0.02908698                0.30428162               -0.18478236
              20.38300082                4.48363852               81.06555537                0.00010000               -0.38276294               -0.42975134                1.34276902               -0.11099181                0.46854008               -0.39083155
              21.37861681                3.96930722               80.64725982                1.00000000                1.03255768               -0.46469283                1.71650637               -3.04907766                5.29670007               -0.88669284
              22.40365197                3.39498026               80.32199178                0.00010000                3.43423682               -2.04783489               -0.65809230               -3.98301856                9.70755768               -0.42161560
              23.44730154                2.81225824               80.00490012                0.00010000                4.23696278               -1.61637437               -0.89772995               -3.52208116               10.66604081               -1.29957063
              24.48839123                2.23137398               79.69426333                1.00000000                2.28993675                0.57327533               -1.89908026               -1.89697125                5.58116438               -0.13293262
              25.49310028                1.68947874               79.27306720                1.00000000                0.47090544                0.37057236               -1.28860200               -0.05551607                0.00000701               -0.13836112
              15.90090526                8.03808122               83.04507216                0.00010000                0.02337794                0.03556180               -0.18010487                0.00001818                0.13063839                0.75979103
              16.90113904                7.52745659               82.61750699                0.00010000               -0.01106851               -0.04385128                0.11174552               -0.00123696                0.31334674                0.02300286
              17.90068389                7.01675055               82.19320197                0.00010000               -0.05901658               -0.12037588                0.39652082               -0.05723869                0.90927160               -0.63362640
              18.89995871                6.50509986               81.77724442                0.00010000               -0.10635330               -0.65725002                0.68950105               -0.37370140                1.30148129               -0.71816244
              19.89855682                5.99264091               81.36013667                1.00000000               -0.19208965               -1.04175635                1.01332202               -0.37049247                1.22389618               -0.75551630
              20.89611691                5.47910689               80.94200925                0.00010000               -0.25413718               -1.50433996                1.40436919               -0.07404655                1.44548882               -0.62091542
              21.89347408                4.96326684               80.52897859                0.00010000                1.83645721               -2.76936062                1.82009197               -2.97728520                4.84348201               -0.07850031
              22.93284606                4.36612415               80.17899828                0.00010000                4.17436109               -2.28065847               -0.19421925               -5.78505066                7.90902337               -0.63879512
              23.97696130                3.79642058               79.84128009                0.00010000                4.95016864               -1.25912737               -0.99556310               -5.00123502               10.60384270               -3.68143379
              25.03184943                3.23657844               79.54889702                1.00000000                2.92391192                0.68491310               -1.57329148               -5.02650739                6.55122259               -6.36726276
              26.03543954                2.69267933               79.12795016                1.00000000                0.35901088                2.52752949               -0.96821512               -4.25077514                0.04167413               -5.50544110
              16.41185062                9.03843631               82.90779874                0.00010000                0.01897048                0.04054505               -0.18714362               -0.00336612                0.21881260                0.63114973
              17.41204033                8.52704042               82.47689186                0.00010000               -0.02902687               -0.04416305                0.11022337               -0.01165599                0.35761262               -0.27187707
              18.41127008                8.01558486               82.04845713                0.00010000               -0.34419870               -0.15035547                0.38423528               -0.50941740                1.11590251               -1.09991969
              19.40515635                7.49431563               81.63272900                0.00010000               -0.32074460               -0.89482531                0.30635979               -1.21294294                1.86985059               -1.47056528
              20.40485519                6.97517774               81.21985928                0.00010000                0.28688023               -1.55337196                0.23992221               -1.16284057                2.15295661               -1.58744645
              21.41089396                6.45355172               80.81079513                0.00010000                1.35993222               -2.39693397                0.13761210               -1.62713151                2.80017131               -1.42828571
              22.43205384                5.91392001               80.41379261                0.00010000                2.19516289               -3.63261122               -0.27727596               -2.88909975                3.49765413               -0.79573694
              23.45479722                5.34936709               80.02799513                0.00010000                2.23843584               -1.26318455               -0.94367468               -5.13798356                4.79541234               -2.43311783
              24.47682255                4.78707569               79.66094818                0.00010000                1.84025559               -0.13210300               -1.57173228               -5.57851149                4.94554898               -5.07738814
              25.49160233                4.24507224               79.27958137                0.00010000                0.95302219                1.35176879               -1.93073999               -5.08398992                3.09552165              -10.23295960
              26.49588300                3.74002933               78.87646850                0.00010000                0.42806705                3.25137528               -1.83255045               -3.18385898                2.23160913              -10.07188733
              16.92362970               10.03889212               82.76903901                0.00010000                0.01276616                0.05252301               -0.19184369                0.00044507                0.00789035                0.51965960
              17.92375737                9.52657333               82.33186282                0.00010000               -0.02046867               -0.05702354                0.13765645               -0.02792857                0.26012974               -0.42097284
              18.92322033                9.01374344               81.89955251                0.00010000               -0.38251959               -0.21014529                0.39934535               -0.73526163                1.42488342               -1.42757119
              19.91610697                8.48720335               81.48578032                0.00010000               -0.35782041               -0.60579170               -0.00630859               -1.47312595                2.40176346               -1.67088179
              20.91606392                7.96157347               81.07503873                0.00010000                0.43625172               -1.12041100               -0.40697975               -1.70168949                2.57939608               -1.90628399
              21.92483201                7.43116821               80.66807755                0.00010000                1.19063985               -1.67269264               -0.85078146               -2.46784490                2.71499189               -2.08781936
              22.93987672                6.89061462               80.26557096                0.00010000                1.60493497               -1.57854733               -1.37475658               -3.96339226                2.89086268               -2.54387032
              23.95693071                6.34086046               79.86820996                0.00010000                1.49045989               -0.37775662               -1.93385566               -4.82955396                2.97198787               -3.32880801
              24.96968592                5.79377852               79.47202992                0.00010000                1.01426423                0.92036431               -2.41349094               -4.42649153                2.62938400               -5.13703671
              25.97721599                5.26361382               79.06953027                0.00010000                0.60811339                1.79574105               -2.66210602               -2.69118226                1.57164517               -6.63033958
              26.98184819                4.75770684               78.65126957                0.00010000                0.46321928                1.57319386               -2.56455723               -1.29701739                0.89210170               -7.76284832
              17.43649710               11.03948677               82.62943046                0.00010000                0.01333298                0.06568234               -0.19857841               -0.00157645                0.00444433                0.50510742
              18.43663043               10.52589995               82.18805846                0.00010000               -0.02811374               -0.07130867                0.14434225               -0.04751131                0.08088040               -0.34140350
              19.43593483               10.01138195               81.74808486                0.00010000               -0.43833143               -0.23204113                0.46527716               -0.84052981                1.57641478               -1.41042502
              20.42786380                9.48219980               81.33672638                0.00010000               -0.45391370               -0.38952557               -0.24063767               -1.72242841                2.89036529               -1.74086019
              21.42685655                8.95276952               80.92640855                0.00010000                0.23160579               -0.59611928               -0.89446472               -2.06691136                2.78431451               -2.02417166
              22.43249592                8.42009787               80.51771335                0.00010000                0.81185927               -0.66767466               -1.54510821               -2.80250741                2.64167943               -2.34032948
              23.44309374                7.88234906               80.11033304                0.00010000                1.12731566               -0.34892565               -2.18946862               -3.60347903                2.42701929               -2.75446195
              24.45504223                7.34181196               79.70319780                0.00010000                1.12228148                0.42385276               -2.78042304               -3.91130380                2.12401747               -3.39294510
              25.46553937                6.80548298               79.29406782                0.00010000                0.94040678                1.26970025               -3.23197232               -3.23187624                1.64715162               -4.23604379
              26.47385037                6.28098707               78.87919528                0.00010000                0.81086225                1.68285600               -3.43739819               -1.74192201                0.92499056               -5.12081601
              27.48175661                5.77149321               78.45498555                0.00010000                0.79062452                1.37993737               -3.33068437               -0.68290401                0.55688134               -5.77313751
              17.95077180               12.04020576               82.49023213                0.00010000                0.01401480                0.07714720               -0.21457531               -0.00003051                0.00046643                0.54664812
              18.95091195               11.52514715               82.04457092                0.00010000               -0.03309585               -0.07468156                0.14674822               -0.04839315                0.02882810               -0.31644870
              19.95010989               11.00910262               81.59939552                0.00010000               -0.53205535               -0.22170299                0.49943789               -0.78833730                1.70143548               -1.21872348
              20.94027085               10.47941284               81.18725897                0.00010000               -0.66411311               -0.14789371               -0.40675596               -1.67104418                3.20208225               -1.64177527
              21.93682763                9.94965109               80.77643360                0.00010000               -0.05342671               -0.06828388               -1.24866445               -2.03792846                3.00099279               -1.91434711
              22.93920231                9.41781471               80.36587312                0.00010000                0.46327143                0.08933102               -2.05574628               -2.57028389                2.66956561               -2.17578159
              23.94609305                8.88363610               79.95461205                0.00010000                0.81842041                0.43525225               -2.81580669               -3.00328715                2.25615696               -2.48819998
              24.95557072                8.34933752               79.54152992                0.00010000                0.98901156                0.95515251               -3.47519990               -2.98616697                1.79143871               -2.88851672
              25.96587328                7.81917253               79.12516597                0.00010000                1.03983007                1.44058809               -3.95091280               -2.34707757                1.27771593               -3.38497799
              26.97636732                7.29727094               78.70371283                0.00010000                1.06522662                1.62808689               -4.15585711               -1.23019281                0.68550649               -3.92806236
              27.98717782                6.78530559               78.27523802                0.00010000                1.08104965                1.40116645               -4.02274500               -0.46861865                0.40501224               -4.47597495
              18.46661371               13.04102971               82.35131406                0.00010000                0.01520036                0.08500368               -0.23470286                0.00191953                0.00161640                0.57048515
              19.46676571               12.52440632               81.90130920                0.00010000               -0.03556584               -0.07045870                0.14827018               -0.03857152                0.03081467               -0.30494734
              20.46590239               12.00694790               81.45184865                0.00010000               -0.64356313               -0.21043919                0.52241161               -0.60010921                1.87961243               -1.15452323
              21.45389445               11.47924193               81.03890735                0.00010000               -0.91031390                0.10947870               -0.52711600               -1.33040089                3.53051696               -1.42469141
              22.44769611               10.95140384               80.62757204                0.00010000               -0.33946118                0.37745730               -1.50680810               -1.68486166                3.27087115               -1.61861849
              23.44710522               10.42188449               80.21573638                0.00010000                0.19045388                0.63250418               -2.43754915               -2.10210451                2.82304557               -1.78773151
              24.45150519                9.89105411               79.80207424                0.00010000                0.63386215                0.93726369               -3.30050752               -2.33390229                2.29087834               -1.97975737
              25.45978247                9.36091501               79.38552023                0.00010000                0.95796015                1.28628838               -4.03664602               -2.20506076                1.73875322               -2.22116058
              26.47066439                8.83429474               78.96508498                0.00010000                1.16654922                1.57045150               -4.55974657               -1.66878281                1.19170898               -2.52734171
              27.48311345                8.31354880               78.53969613                0.00010000                1.28252761                1.65100549               -4.77657274               -0.86066288                0.62742046               -2.90485814
              28.49631494                7.79951654               78.10807762                0.00010000                1.32014932                1.44418106               -4.61003790               -0.31307312                0.36231341               -3.36123860
              18.98405697               14.04190584               82.21248151                0.00010000                0.01653639                0.08802338               -0.25585564                0.00369259                0.01194138                0.57166867
              19.98422234               13.52373798               81.75813085                0.00010000               -0.03924379               -0.06309384                0.15286697               -0.02839104                0.05447740               -0.31817194
              20.98327210               13.00489384               81.30462944                0.00010000               -0.75077267               -0.19898603                0.54491019               -0.28306717                2.16770050               -0.98601390
              21.96920688               12.48160242               80.89266976                0.00010000               -1.13921360                0.36821481               -0.61681811               -0.74794912                3.97994227               -1.12014948
              22.96048783               11.95720023               80.48145392                0.00010000               -0.58484678                0.75155961               -1.69800577               -1.17160858                3.60607815               -1.18769179
              23.95750995               11.43046480               80.06920419                0.00010000               -0.00516670                1.00469134               -2.72458784               -1.52626893                3.06006531               -1.26238767
              24.96038449               10.90238138               79.65440761                0.00010000                0.53594627                1.25333723               -3.67363897               -1.65911617                2.44157116               -1.35867711
              25.96822887               10.37506328               79.23608121                0.00010000                0.97396703                1.49560541               -4.48174816               -1.50495008                1.82443606               -1.48851225
              26.97986383                9.85058156               78.81344939                0.00010000                1.28516948                1.67251347               -5.05474219               -1.08915951                1.23440473               -1.67248433
              27.99393226                9.33029105               78.38569530                0.00010000                1.45585258                1.70330715               -5.28702261               -0.53322413                0.64552472               -1.93494612
              29.00898088                8.81418921               77.95172597                0.00010000                1.50486202                1.50604482               -5.08766538               -0.16793443                0.36215513               -2.30058956
              19.50302327               15.04279018               82.07352614                0.00010000                0.01866198                0.09001618               -0.27639740                0.00342045                0.01399048                0.48020395
              20.50320989               14.52314445               81.61468292                0.00010000               -0.03233307               -0.05848911                0.16266033               -0.02059230                0.25273480               -0.31832659
              21.50237661               14.00296817               81.16064083                0.00010000               -0.82904124               -0.19354497                0.54244863                0.15900773                2.62033505               -0.77544688
              22.48662907               13.48660622               80.74937826                0.00010000               -1.34875243                0.70598064               -0.68984329               -0.15158457                4.44690614               -0.66098446
              23.47540156               12.96643503               80.33928913                0.00010000               -0.76151816                0.99267198               -1.84684854               -0.59205627                3.96931371               -0.63405903
              24.47139870               12.44197832               79.92738687                0.00010000               -0.08385912                1.22431762               -2.94244040               -0.85867953                3.31714670               -0.65366953
              25.47372438               11.91612085               79.51241957                0.00010000                0.50422915                1.44319119               -3.95731649               -0.91150703                2.63110735               -0.68640867
              26.48148329               11.39082712               79.09352098                0.00010000                0.99645298                1.63693963               -4.82539802               -0.79733790                1.96727828               -0.73716074
              27.49365344               10.86774501               78.67003150                0.00010000                1.36790169                1.76318899               -5.44561402               -0.54377413                1.33871984               -0.82288948
              28.50884132               10.34761495               78.24113646                0.00010000                1.57532507                1.77210417               -5.69778104               -0.24106837                0.69977973               -0.96688359
              29.52515994                9.82963743               77.80553330                0.00010000                1.63186201                1.60565984               -5.46883624               -0.03983777                0.38210219               -1.21233857
              20.02341685               16.04370616               81.93285031                0.00010000                0.02156452                0.09159810               -0.29360274               -0.07443815                0.22562295                0.39439021
              21.02363250               15.52256820               81.47157170                0.00010000               -0.02131881               -0.05762470                0.16334169               -0.09190062                0.59753755               -0.30666185
              22.02299048               15.00102294               81.01779066                0.00010000               -1.04620793               -0.19452386                0.54190032                0.71907818                3.30083472               -0.72441736
              23.00270834               14.49572203               80.61091404                0.00010000               -1.48579350                0.91158074               -0.77835767                0.40946413                4.95295099               -0.25673459
              23.99327461               13.97705367               80.20197686                0.00010000               -0.60289018                1.06186444               -1.97609883               -0.25123961                4.24262585               -0.26609095
              24.99065053               13.45495115               79.79089746                0.00010000                0.00154749                1.29728306               -3.11094132               -0.36524047                3.52594894               -0.28012692
              25.99330556               12.93124520               79.37640713                0.00010000                0.50037140                1.51243473               -4.16553177               -0.39933595                2.79237774               -0.30201107
              27.00065796               12.40780208               78.95778771                0.00010000                0.94474825                1.69749617               -5.07546721               -0.35252554                2.11221146               -0.32985483
              28.01220052               11.88584534               78.53454438                0.00010000                1.32802542                1.81003289               -5.73820414               -0.24873906                1.49521709               -0.37668312
              29.02721847               11.36573313               78.10596188                0.00010000                1.59693158                1.81181865               -6.02791916               -0.13943153                0.84557948               -0.45750661
              30.04413915               10.84630240               77.67009662                0.00010000                1.69206809                1.66649695               -5.80050056               -0.04515162                0.50711017               -0.63336799
              15.30009104                6.18127046               84.31835380                0.00010000                0.01299668                0.06305508               -0.22116369                0.05954297               -0.42146322                0.47713187
              16.30022100                5.66822904               83.89684897                0.00010000               -0.04227438               -0.02850101                0.09377915                0.06581182               -0.53813277                0.06307201
              17.29924555                5.15492754               83.47273203                0.00010000               -0.14474981               -0.10844043                0.39160275                0.06295200               -0.58438824               -0.02608811
              18.29732601                4.64097450               83.05025404                0.00010000               -0.25247553               -0.20830760                0.69669086                0.01506919               -0.53662036               -0.23201751
              19.29419604                4.12581542               82.62718565                0.00010000               -0.35289491               -0.31578707                1.00386201                0.00235337               -0.45614385               -0.24622276
              20.29026811                3.60959637               82.20663947                0.00010000               -0.45760525               -0.44849343                1.36388059               -0.14113791                0.12171424               -0.53901022
              21.28504393                3.09023105               81.79550051                0.00010000               -0.44937880               -0.49593970                1.61070633               -1.81318623                4.45175665               -1.32221596
              22.28128053                2.53901848               81.46059173                0.00010000                0.94998683               -0.20769400                0.10071416               -2.66296763                9.28218589               -1.93737795
              23.30404367                1.97115206               81.13341491                0.00010000                4.20678778               -1.95390174               -1.49050538               -2.64537397                9.80477078                0.20423341
              24.36541629                1.36789903               80.81782372                1.00000000                3.34738546                0.61059998               -2.18831374               -3.00057271                4.97917654               -0.07070522
              25.37099138                0.82810466               80.40304408                1.00000000                0.55750906                0.37913701               -1.48397360                0.05188069               -0.00593388               -0.07177314
              15.81372789                7.18190101               84.17907406                0.00010000                0.03226963                0.05485468               -0.23313505                0.01250388               -0.01067891                0.64982165
              16.81405058                6.66794403               83.75751621                0.00010000               -0.01127736               -0.03372195                0.08458248                0.02025572                0.04172198                0.08807510
              17.81350234                6.15384313               83.33665779                0.00010000               -0.10089120               -0.11472303                0.38587771                0.00576655                0.12438191               -0.18810849
              18.81203276                5.63889142               82.91647139                1.00000000               -0.17968516               -0.23189851                0.70105522               -0.01951164                0.25455506               -0.15266917
              19.80990864                5.12265755               82.49798522                1.00000000               -0.26919227               -0.34375043                1.04394959               -0.03837441                0.37413808               -0.16771842
              20.80664891                4.60511144               82.07967057                1.00000000               -0.38538096               -0.48077843                1.45778543               -0.12303772                0.61184098               -0.37094010
              21.80220102                4.08527166               81.66542651                0.00010000                0.37707206               -0.59671718                1.93249147               -1.51726904                3.83215533               -0.83461643
              22.81419035                3.53694154               81.31085271                0.00010000                3.04743201               -1.10218259               -0.62186791               -3.12199903                7.77341292               -0.68993146
              23.86314966                2.95161304               80.99793137                0.00010000                4.63719544               -2.08749584               -0.43293788               -3.63105517                9.69505131               -1.18610764
              24.90693426                2.37400503               80.67620299                1.00000000                2.40774519                0.55423073               -1.82031696               -1.72311602                4.67035995               -0.06967346
              25.91130456                1.83189603               80.26132726                1.00000000                0.43702973                0.32715886               -1.13374313               -0.06307818               -0.00192554               -0.09948713
              16.32825507                8.18236755               84.04293219                0.00010000                0.04289192                0.04382762               -0.24123775                0.00097189                0.11803417                0.75759605
              17.32868399                7.66755460               83.61846499                0.00010000                0.00792051               -0.03671458                0.08045355               -0.00375545                0.29511081                0.03210173
              18.32841349                7.15263308               83.19716896                0.00010000               -0.02813176               -0.11540099                0.39016709               -0.08924776                0.89559150               -0.61993000
              19.32812136                6.63633653               82.78429530                1.00000000               -0.06024749               -0.67654479                0.70231309               -0.45735988                1.33287268               -0.89506938
              20.32720854                6.11894041               82.37067123                1.00000000               -0.14640562               -1.04373357                1.05962717               -0.52118119                1.35507065               -1.13961702
              21.32519325                5.59998081               81.95683011                1.00000000               -0.21700434               -1.46277163                1.51461365               -0.34153065                1.69163815               -1.28179956
              22.32286845                5.07829671               81.54823593                0.00010000                1.36529604               -2.36891439                2.00922858               -1.44973710                4.09865370               -1.25060532
              23.35249917                4.51697483               81.18041890                0.00010000                3.57453153               -2.79761350                0.83773599               -4.26994841                5.89297818               -0.36823724
              24.39435908                3.92940214               80.83339898                0.00010000                4.90859079               -1.58956532               -0.25238124               -5.10038570                9.35601180               -4.56023732
              25.45067098                3.37898365               80.53475210                1.00000000                2.97943719                0.35234720               -1.47075519               -4.45093539                5.85164337               -6.68290533
              26.45394782                2.83464784               80.11979621                1.00000000                0.32768396                2.21174288               -0.80225071               -4.03109801                0.03736694               -6.10024901
              16.84337323                9.18277756               83.90563871                0.00010000                0.03367207                0.04516500               -0.23902351               -0.00755348                0.20197568                0.63100657
              17.84370995                8.66720974               83.47788414                0.00010000               -0.02188870               -0.03516134                0.08808626               -0.02381658                0.32714927               -0.24339962
              18.84293545                8.15153511               83.05236189                0.00010000               -0.35658608               -0.14225992                0.39096674               -0.56951656                0.89692478               -1.07105453
              19.83657823                7.62536053               82.63600245                0.00010000               -0.35473585               -0.88920637                0.33259952               -1.36031786                1.47975067               -1.80666967
              20.83584074                7.10178288               82.22263643                0.00010000                0.19418868               -1.48704286                0.28761169               -1.38919611                1.76511592               -2.30541439
              21.84046200                6.57585601               81.81274844                0.00010000                1.01857554               -2.16150367                0.21357687               -1.71337634                2.27675856               -2.62898675
              22.85621225                6.03789337               81.41208630                0.00010000                1.86119765               -3.07975437               -0.10861180               -2.54005766                2.69643011               -2.48663012
              23.87768595                5.48098927               81.02045296                0.00010000                2.14604404               -2.37952342               -0.58131111               -4.44470367                3.95204176               -3.64558592
              24.89913313                4.91982174               80.64651994                0.00010000                1.74919550               -0.21926736               -1.44093489               -5.03243918                4.07104876               -6.19351617
              25.91266986                4.38105198               80.26071775                0.00010000                1.01105472                0.87199557               -1.87832313               -4.62851776                2.55268143              -11.03952431
              26.91935422                3.87613089               79.85860250                0.00010000                0.66843593                2.74139571               -1.80838627               -2.80718732                1.95604160              -11.24040813
              17.35923965               10.18327085               83.76688930                0.00010000                0.02104569                0.05767488               -0.23280517               -0.00148250                0.01059356                0.51760938
              18.35945011                9.66685137               83.33318897                0.00010000               -0.01836452               -0.05013525                0.12641787               -0.04080596                0.22632921               -0.38848940
              19.35887236                9.14978788               82.90365766                0.00010000               -0.43914364               -0.20150733                0.41378031               -0.77932412                1.02433837               -1.35929941
              20.35066724                8.61855240               82.48597774                0.00010000               -0.49716143               -0.55959821                0.03462925               -1.57003486                1.65292641               -1.92536895
              21.34892913                8.08919955               82.07135787                0.00010000                0.20739951               -0.99356485               -0.34785430               -1.77134569                1.79321048               -2.46929817
              22.35481523                7.55675073               81.66005159                0.00010000                0.90024468               -1.40349702               -0.78746683               -2.40486029                1.84974873               -2.95497389
              23.36693403                7.01670162               81.25238026                0.00010000                1.34307498               -1.39001407               -1.30780467               -3.55435748                1.96998377               -3.60833497
              24.38167673                6.46938436               80.84935328                0.00010000                1.33567828               -0.50880927               -1.90625876               -4.35102206                2.03238003               -4.47027293
              25.39364759                5.92501680               80.44805669                0.00010000                1.00573757                0.80608500               -2.47029844               -3.99918237                1.85298809               -6.17482974
              26.40179148                5.39642356               80.04290383                0.00010000                0.69993311                1.54240194               -2.75256738               -2.36090746                1.15724414               -7.60227612
              27.40764626                4.88947575               79.62577758                0.00010000                0.58547774                1.24142417               -2.62003198               -1.15358003                0.72882598               -8.77371384
              17.87618253               11.18393106               83.62727018                0.00010000                0.01942678                0.07213735               -0.22869241               -0.00384678                0.00406921                0.49565828
              18.87637680               10.66620703               83.18948904                0.00010000               -0.02672964               -0.07059883                0.13946909               -0.05432837                0.06749181               -0.32234575
              19.87564794               10.14750497               82.75286800                0.00010000               -0.53054743               -0.22920504                0.48129583               -0.84697790                1.04328131               -1.33395018
              20.86576585                9.61416856               82.33462806                0.00010000               -0.67162241               -0.32277218               -0.18575426               -1.72255830                1.84338321               -1.91136061
              21.86221549                9.08191158               81.91788796                0.00010000               -0.04515644               -0.45445234               -0.82122082               -1.99687069                1.72296364               -2.42013702
              22.86486272                8.54778607               81.50269459                0.00010000                0.51379861               -0.47944342               -1.48221089               -2.60770678                1.54656815               -2.94278415
              23.87249146                8.01009309               81.08875618                0.00010000                0.87438071               -0.19173682               -2.16952673               -3.27471357                1.33087916               -3.52112959
              24.88235034                7.47081309               80.67546489                0.00010000                0.98094104                0.48577745               -2.83219843               -3.49965114                1.12164082               -4.25775462
              25.89211029                6.93594344               80.26153090                0.00010000                0.93212107                1.22177301               -3.35548167               -2.85995624                0.87726859               -5.13828331
              26.90099276                6.41190002               79.84449329                0.00010000                0.90339761                1.54382204               -3.60489932               -1.52526309                0.51551816               -6.03815952
              27.91017824                5.90095937               79.42150889                0.00010000                0.91854781                1.21108406               -3.48644859               -0.57080826                0.38278765               -6.68112742
              18.39461077               12.18471360               83.48796037                0.00010000                0.01788640                0.08279323               -0.23555873               -0.00167811               -0.00022554                0.52849957
              19.39478963               11.66543940               83.04605262                0.00010000               -0.03197489               -0.07686695                0.14626321               -0.05085812                0.02216007               -0.29914646
              20.39397127               11.14520378               82.60452310                0.00010000               -0.64900887               -0.22636955                0.51588276               -0.75024947                1.06909618               -1.16093252
              21.38180946               10.61209696               82.18354160                0.00010000               -0.92985274               -0.08041559               -0.34003620               -1.58035524                1.94107619               -1.74280312
              22.37537422               10.08011051               81.76441780                0.00010000               -0.36649367                0.05476205               -1.15958342               -1.87425782                1.73362024               -2.17671179
              23.37447958                9.54716186               81.34576027                0.00010000                0.15192581                0.24133804               -1.98483856               -2.32867543                1.38637559               -2.59205187
              24.37841273                9.01286689               80.92671733                0.00010000                0.56768859                0.57277768               -2.80334380               -2.68624191                1.00937822               -3.04222867
              25.38583336                8.47909991               80.50674824                0.00010000                0.84744042                1.03474226               -3.54841828               -2.63981745                0.68397096               -3.55149771
              26.39536154                7.94945226               80.08532789                0.00010000                1.02184639                1.44646060               -4.11428656               -2.04802555                0.43789334               -4.11909870
              27.40627028                7.42730000               79.66164480                0.00010000                1.13749189                1.58061398               -4.38031752               -1.05573454                0.23003192               -4.69103302
              28.41811138                6.91369743               79.23459179                0.00010000                1.18410969                1.34467630               -4.24608458               -0.38573727                0.20750411               -5.19235869
              18.91469738               13.18558692               83.34888231                0.00010000                0.01720846                0.08889127               -0.24807064                0.00084121                0.00077744                0.54792977
              19.91486946               12.66466969               82.90282802                0.00010000               -0.03559933               -0.07325198                0.15123376               -0.03840114                0.02442058               -0.28450563
              20.91398539               12.14297757               82.45720878                0.00010000               -0.78087211               -0.21717010                0.53824892               -0.52172054                1.16821962               -1.09604410
              21.89925202               11.61256025               82.03402651                0.00010000               -1.21599788                0.17100033               -0.44892932               -1.17017994                2.10888796               -1.47422870
              22.88966543               11.08300682               81.61302975                0.00010000               -0.68595912                0.48867204               -1.40131039               -1.47653313                1.84190350               -1.77926660
              23.88553284               10.55261283               81.19185142                0.00010000               -0.14184275                0.76442925               -2.35203013               -1.85349749                1.38376294               -2.06317133
              24.88682858               10.02154864               80.76935763                0.00010000                0.37178919                1.05846272               -3.28025664               -2.05576537                0.90034140               -2.36609549
              25.89296862                9.49150793               80.34512673                0.00010000                0.80605558                1.37321013               -4.11275787               -1.92823714                0.50686170               -2.70402467
              26.90294969                8.96487265               79.91912682                0.00010000                1.13321374                1.61622189               -4.73781993               -1.44185186                0.25438303               -3.07760831
              27.91563289                8.44351230               79.49135212                0.00010000                1.33594700                1.67039750               -5.02906050               -0.73155790                0.11504897               -3.46953769
              28.92966863                7.92785290               79.06143709                0.00010000                1.40357341                1.47342602               -4.87303853               -0.25251574                0.13713040               -3.85988681
              19.43646205               14.18649142               83.20987567                0.00010000                0.01689042                0.09005678               -0.26272687                0.00356516                0.01099656                0.54673264
              20.43663096               13.66397436               82.75971278                0.00010000               -0.04078763               -0.06568596                0.15858371               -0.02598127                0.04507384               -0.29031325
              21.43564630               13.14086037               82.31022153                0.00010000               -0.91271735               -0.20427600                0.56057189               -0.16877378                1.38798848               -0.93253028
              22.41837661               12.61551696               81.88693623                0.00010000               -1.49276613                0.43755593               -0.52629803               -0.54038562                2.43011883               -1.13109228
              23.40579098               12.08988395               81.46506615                0.00010000               -0.97543994                0.86822396               -1.57382205               -0.96463309                2.04886435               -1.27220605
              24.39886781               11.56245045               81.04251828                0.00010000               -0.36943301                1.12890476               -2.61947942               -1.31679988                1.48921975               -1.42574365
              25.39840232               11.03403614               80.61801880                0.00010000                0.25383961                1.36741755               -3.63776805               -1.44714343                0.92011380               -1.60173636
              26.40394460               10.50656412               80.19127744                0.00010000                0.80589125                1.58951650               -4.54934110               -1.30814848                0.47016691               -1.80268545
              27.41452014                9.98177670               79.76256321                0.00010000                1.23571363                1.74452373               -5.23291809               -0.93774828                0.19759651               -2.03331099
              28.42865888                9.46070795               79.33224868                0.00010000                1.49298589                1.76323259               -5.54718218               -0.45230727                0.07541490               -2.29443808
              29.44437986                8.94316595               78.90029544                0.00010000                1.57209842                1.58423713               -5.36254572               -0.13214071                0.10853033               -2.58330474
              19.95980281               15.18738806               83.07072703                0.00010000                0.01780704                0.09092832               -0.27999294                0.00418806                0.01806129                0.45650167
              20.95998088               14.66335597               82.61639305                0.00010000               -0.03677540               -0.06163257                0.17278830               -0.01623784                0.22556997               -0.28905547
              21.95906730               14.13889205               82.16622079                0.00010000               -1.02800753               -0.19627518                0.56038140                0.31580423                1.77457594               -0.72593017
              22.93942073               13.62131137               81.74297459                0.00010000               -1.78140092                0.83154062               -0.58426698                0.03732349                2.80196275               -0.65447281
              23.92343929               13.10037130               81.32149972                0.00010000               -1.21880442                1.12331249               -1.69975832               -0.44943998                2.31131751               -0.66564858
              24.91504464               12.57519092               80.89861658                0.00010000               -0.48336230                1.34684924               -2.81244721               -0.73771392                1.64155640               -0.72743696
              25.91377204               12.04889699               80.47328041                0.00010000                0.20102260                1.55313896               -3.89915191               -0.79415818                0.99887755               -0.80332736
              26.91906510               11.52329826               80.04534917                0.00010000                0.81394243                1.73380779               -4.87674566               -0.69331253                0.50185460               -0.89262921
              27.93005089               10.99976312               79.61528170                0.00010000                1.30661976                1.84895253               -5.61526518               -0.47042744                0.20503204               -1.00220421
              28.94519749               10.47877695               79.18360905                0.00010000                1.60294602                1.85266153               -5.95571099               -0.20731317                0.07177221               -1.13935818
              29.96210981                9.95953764               78.75032293                0.00010000                1.69123177                1.69678666               -5.74042668               -0.02592888                0.09895421               -1.31705821
              20.48460999               16.18830999               82.92990204                0.00010000                0.01922194                0.09219312               -0.29312627               -0.07611118                0.21869835                0.37231846
              21.48480220               15.66274170               82.47331764                0.00010000               -0.03014981               -0.06142685                0.17847955               -0.08662373                0.54904480               -0.27839562
              22.48400699               15.13693487               82.02337777                0.00010000               -1.35791844               -0.19571840                0.56109830                0.96427208                2.38251142               -0.66553738
              23.45764384               14.63214778               81.60371232                0.00010000               -2.05421808                1.08364069               -0.65192404                0.59307668                3.22213932               -0.24211050
              24.44292263               14.11235020               81.18300520                0.00010000               -1.10279972                1.19788970               -1.80154052               -0.18968307                2.52095505               -0.26948032
              25.43558784               13.58938743               80.76055847                0.00010000               -0.42554070                1.41965107               -2.95183131               -0.30824409                1.78110778               -0.30159481
              26.43441181               13.06509892               80.33528876                0.00010000                0.18121911                1.62019275               -4.08182348               -0.34338072                1.08006848               -0.33905277
              27.43921222               12.54124027               79.90718951                0.00010000                0.76105495                1.79420074               -5.10898125               -0.30244600                0.55482502               -0.37810594
              28.44963291               12.01875575               79.47690458                0.00010000                1.27629376                1.89926217               -5.90040269               -0.21575218                0.26249198               -0.42735616
              29.46473810               11.49776118               79.04512645                0.00010000                1.63534936                1.89842334               -6.28970515               -0.12864224                0.13558099               -0.49484522
              30.48233990               10.97710169               78.61155432                0.00010000                1.76018007                1.75640464               -6.07845745               -0.04294041                0.16179848               -0.61109255
              15.71570977                6.32538497               85.31582222                0.00010000                0.02477294                0.07581382               -0.27319787                0.06565040               -0.43999048                0.47851958
              16.71595750                5.80824811               84.89758569                0.00010000               -0.03536236               -0.01851745                0.05798111                0.07237923               -0.57112986                0.06543861
              17.71500253                5.29077733               84.47654443                0.00010000               -0.14523796               -0.09840533                0.36794894                0.06787451               -0.62257882               -0.02482487
              18.71305274                4.77242949               84.05723377                0.00010000               -0.25971944               -0.20634971                0.69007663                0.00685277               -0.56446695               -0.22845049
              19.70980814                4.25245105               83.63735940                0.00010000               -0.36511031               -0.32781336                1.01559089               -0.00374604               -0.43611791               -0.21622749
              20.70575054                3.73085953               83.22065865                0.00010000               -0.44639451               -0.48304359                1.41797277               -0.10475170                0.14669538               -0.47173102
              21.70088025                3.20626439               82.81240297                0.00010000               -0.12818852               -0.63849163                1.71402949               -0.83265859                3.42122813               -1.08129421
              22.70318677                2.66781132               82.46071365                0.00010000                1.08899098               -0.64568659                0.16481932               -2.78036959                7.31978398               -2.75358919
              23.72266007                2.10379981               82.11665340                0.00010000                3.68884777               -1.52477979               -1.22474302               -2.72432780                7.80690977                0.51995930
              24.77696372                1.50694031               81.79621185                1.00000000                2.97699665                0.61118282               -2.12205582               -2.68280689                4.37076579               -0.06794985
              25.78220000                0.96726605               81.38889935                1.00000000                0.52362777                0.34708145               -1.34621197                0.09389615               -0.00662705               -0.06737232
              16.23350314                7.32614311               85.17644260                0.00010000                0.04819787                0.06417631               -0.28247722                0.01651211               -0.02771422                0.64691114
              17.23398511                6.80806294               84.75818091                0.00010000                0.00437246               -0.02587110                0.05130485                0.02485795                0.01067359                0.09111245
              18.23359058                6.28979328               84.34041987                0.00010000               -0.08503514               -0.10647379                0.36092996                0.00329667                0.09264106               -0.17845951
              19.23228441                5.77036599               83.92348181                1.00000000               -0.15174633               -0.23810338                0.68608263               -0.02796058                0.25507776               -0.14540438
              20.23055566                5.24917292               83.50855534                1.00000000               -0.22440293               -0.36268416                1.03923072               -0.05108027                0.46280371               -0.14438866
              21.22779635                4.72602909               83.09471108                1.00000000               -0.32389462               -0.52332509                1.49844671               -0.13295063                0.85223892               -0.31971641
              22.22407777                4.19987947               82.68590965                0.00010000               -0.05904951               -0.73347245                2.10026041               -0.68482648                2.88141147               -0.71089425
              23.22661536                3.66135445               82.30955442                0.00010000                2.58872658               -0.93260766                0.79298883               -2.44858285                7.30860219               -1.45006574
              24.27585230                3.08855201               81.99624136                0.00010000                4.58935857               -2.35862703               -0.29060452               -3.06070252               10.15349861               -1.57806409
              25.31840253                2.51305213               81.65785699                1.00000000                2.34804607                0.57326366               -1.86899503               -1.61469001                3.45728786               -0.07270526
              26.32281322                1.97073686               81.25039234                1.00000000                0.44106844                0.30665324               -1.06531563               -0.03659387                0.00392917               -0.09123063
              16.75220036                8.32666850               85.04024741                0.00010000                0.06041343                0.04781121               -0.28651296                0.00102552                0.09920284                0.75801808
              17.75280449                7.80773069               84.61911607                0.00010000                0.02825258               -0.03072436                0.05125435               -0.00728111                0.26541578                0.04331119
              18.75276541                7.28864786               84.20100532                0.00010000                0.01547006               -0.10591051                0.36972567               -0.12817895                0.85995283               -0.60074422
              19.75311389                6.76766742               83.79129068                1.00000000                0.01790119               -0.69330965                0.67542831               -0.56290363                1.33665247               -1.06310695
              20.75312343                6.24519737               83.38132922                1.00000000               -0.03644601               -1.03950546                1.02756289               -0.72092639                1.47712182               -1.50787838
              21.75238497                5.72039302               82.97230152                1.00000000               -0.06325383               -1.41392915                1.49548989               -0.72097636                1.98667284               -1.92374059
              22.75185836                5.19159494               82.56916316                0.00010000                0.65788010               -1.99181935                2.05731396               -0.85168525                4.04921275               -2.36526216
              23.76554257                4.64915917               82.19575300                0.00010000                2.89449914               -2.69167316                1.52043257               -3.10893125                5.45511656               -2.59956570
              24.80974834                4.05662727               81.83623247                0.00010000                4.84712481               -2.00021733                1.35340365               -4.43135735                9.72629718               -4.75199742
              25.86248507                3.51840558               81.51948192                1.00000000                2.81751625                0.15389511               -1.61943008               -3.55286468                4.56044714               -6.98746674
              26.86609866                2.97339911               81.11190514                1.00000000                0.36135929                1.92514690               -0.78655925               -3.67959147                0.04180223               -6.75416143
              17.27139926                9.32709933               84.90301827                0.00010000                0.04608734                0.04721682               -0.27715724               -0.01299396                0.18014728                0.63717148
              18.27186013                8.80744845               84.47865358                0.00010000               -0.01544907               -0.02660224                0.06606147               -0.03565809                0.28995035               -0.21083187
              19.27109028                8.28767507               84.05627646                0.00010000               -0.36916528               -0.12982597                0.38512610               -0.63978688                0.66488169               -1.03809353
              20.26447683                7.75649980               83.63938099                0.00010000               -0.38393757               -0.87985270                0.33040727               -1.54704262                1.06347409               -2.11319754
              21.26341152                7.22838281               83.22561152                0.00010000                0.12512149               -1.41306955                0.28129609               -1.70092150                1.34100427               -2.98200732
              22.26697926                6.69775051               82.81506667                0.00010000                0.74331970               -1.91352243                0.19124122               -1.99600520                1.76258671               -3.77829805
              23.27827792                6.16004309               82.41162037                0.00010000                1.62125779               -2.49084491               -0.11373963               -2.60565873                2.18739088               -4.39230903
              24.29940441                5.60752099               82.01636890                0.00010000                1.98504099               -2.63580496               -0.50780797               -3.75680589                2.94131942               -5.93033981
              25.31797874                5.04854766               81.63212948                0.00010000                1.55844919               -0.06781506               -1.64570243               -4.39720780                2.63608551               -7.56668401
              26.33057339                4.51613004               81.24201490                0.00010000                1.06277898                0.46935880               -1.90464796               -3.95764752                2.12992353              -11.61424598
              27.33923432                4.00923980               80.84030077                0.00010000                0.86609235                2.29635326               -1.89851795               -2.46009666                1.60841044              -12.57560637
              17.79124224               10.32761283               84.76438290                0.00010000                0.02733515                0.06147649               -0.26170638               -0.00434356                0.01201078                0.52424853
              18.79151559                9.80719864               84.33439118                0.00010000               -0.01619581               -0.04295305                0.11271362               -0.05195927                0.18847457               -0.35472054
              19.79091832                9.28605134               83.90782811                0.00010000               -0.50251470               -0.19187793                0.41300710               -0.82785620                0.62045385               -1.29581335
              20.78146530                8.75007037               83.48647291                0.00010000               -0.65320166               -0.50455328                0.06035935               -1.69403368                0.89184906               -2.14882150
              21.77785429                8.21693598               83.06808165                0.00010000               -0.03303528               -0.85379861               -0.31710647               -1.90550093                0.96636108               -2.98090818
              22.78080459                7.68212258               82.65232821                0.00010000                0.60602034               -1.11085029               -0.78570122               -2.47890641                0.94099633               -3.80169592
              23.78997470                7.14177804               82.23941486                0.00010000                1.05486434               -1.12268420               -1.34950540               -3.35082056                0.93871787               -4.74875893
              24.80190188                6.59644307               81.83008479                0.00010000                1.16102199               -0.41295401               -2.03733529               -4.06055829                0.89966884               -5.78681187
              25.81319514                6.05527097               81.42262395                0.00010000                1.03690518                0.84492228               -2.65856087               -3.62863554                0.94556816               -7.26878737
              26.82263998                5.52779275               81.01447892                0.00010000                0.87410304                1.26764320               -3.00905697               -2.11677181                0.66913775               -8.68318570
              27.83067720                5.01932618               80.59886893                0.00010000                0.80372157                0.99083233               -2.86297650               -1.03931484                0.60598146               -9.86625622
              18.31214076               11.32832886               84.62485661                0.00010000                0.02416801                0.07753962               -0.24828100               -0.00691905                0.00312580                0.49452015
              19.31238244               10.80658939               84.19084784                0.00010000               -0.02396641               -0.06867022                0.12981550               -0.06072585                0.05055788               -0.30528050
              20.31166143               10.28383751               83.75771078                0.00010000               -0.63354653               -0.22540737                0.47769125               -0.85480771                0.51874865               -1.26500387
              21.29971151                9.74640873               83.33301130                0.00010000               -0.92060682               -0.24560154               -0.13490163               -1.73991500                0.80230573               -2.05631964
              22.29324930                9.21130684               82.90998414                0.00010000               -0.35762229               -0.29804560               -0.75648658               -1.97240804                0.62592928               -2.77708283
              23.29255906                8.67553350               82.48806913                0.00010000                0.18458603               -0.26528664               -1.45343639               -2.49458649                0.35894993               -3.51305906
              24.29694102                8.13758940               82.06694251                0.00010000                0.60706286                0.02060158               -2.22798131               -3.04768179                0.08982578               -4.28441938
              25.30470032                7.59926191               81.64655383                0.00010000                0.85576626                0.61013309               -3.00699400               -3.17027971               -0.04317351               -5.14512786
              26.31405634                7.06544611               81.22695819                0.00010000                0.97412126                1.19618372               -3.65509704               -2.56197800               -0.04470504               -6.07753140
              27.32418275                6.54148290               80.80709729                0.00010000                1.06624154                1.43993491               -3.99534399               -1.36627946                0.01446041               -7.03631114
              28.33538117                6.02905645               80.38525658                0.00010000                1.11984258                1.11020138               -3.89990199               -0.50480916                0.15868224               -7.70804169
              18.83458280               12.32916362               84.48552096                0.00010000                0.02096221                0.08720760               -0.24745355               -0.00398520               -0.00119828                0.51699918
              19.83479243               11.80582524               84.04749618                0.00010000               -0.02899879               -0.07666709                0.13909113               -0.05376133                0.01337558               -0.28461363
              20.83400283               11.28154319               83.60971318                0.00010000               -0.77973782               -0.22544648                0.51009079               -0.71300183                0.45653124               -1.11088407
              21.81919767               10.74515833               83.18045825                0.00010000               -1.23607344               -0.00230040               -0.26866005               -1.50141937                0.70404971               -1.82649501
              22.80928136               10.21097507               82.75324193                0.00010000               -0.72836856                0.19316596               -1.06436346               -1.74407596                0.43527167               -2.40907985
              23.80463030                9.67681684               82.32617635                0.00010000               -0.19943531                0.41647775               -1.93288473               -2.14457302                0.00713098               -2.98022339
              24.80529265                9.14219007               81.89854518                0.00010000                0.30046397                0.74206601               -2.85717587               -2.44377084               -0.38796675               -3.58066001
              25.81063958                8.60864573               81.47056155                0.00010000                0.72209677                1.15217000               -3.75156887               -2.37726174               -0.60316611               -4.21786281
              26.81973459                8.07919464               81.04288024                0.00010000                1.05322387                1.50305716               -4.47676074               -1.82919769               -0.56667855               -4.88823673
              27.83170405                7.55659145               80.61610648                0.00010000                1.28496647                1.60356377               -4.86940762               -0.93715128               -0.32811345               -5.51842194
              28.84543392                7.04153021               80.19031633                0.00010000                1.37298629                1.37793509               -4.77976686               -0.33080308               -0.03364375               -5.99482224
              19.35873782               13.33007301               84.34635265                0.00010000                0.01898246                0.09160704               -0.25382170               -0.00070283               -0.00031274                0.53025215
              20.35892765               12.80505605               83.90433388                0.00010000               -0.03347609               -0.07292764                0.14588637               -0.03794549                0.01607566               -0.26689003
              21.35806830               12.27932858               83.46261363                0.00010000               -0.93382016               -0.21559841                0.53150312               -0.44438672                0.48728823               -1.04629712
              22.34025124               11.74636272               83.02992876                0.00010000               -1.56795168                0.24370780               -0.35905849               -1.01957231                0.72855126               -1.51219331
              23.32670927               11.21517016               82.59954584                0.00010000               -1.08993241                0.61555337               -1.27798536               -1.29489806                0.39161956               -1.91968377
              24.31845260               10.68386306               82.16869577                0.00010000               -0.52362772                0.91839601               -2.27390681               -1.65140212               -0.14888094               -2.31846287
              25.31623671               10.15243072               81.73646911                0.00010000                0.08489615                1.21168983               -3.32136423               -1.84113953               -0.64483879               -2.73963566
              26.32015052                9.62230531               81.30326507                0.00010000                0.66449755                1.50706988               -4.32486355               -1.72376193               -0.91145054               -3.18778580
              27.32952666                9.09550725               80.87032858                0.00010000                1.14768179                1.72829077               -5.13518600               -1.28205975               -0.85760357               -3.64498803
              28.34310415                8.57355418               80.43911492                0.00010000                1.46804691                1.77769503               -5.57629233               -0.64439157               -0.50674206               -4.06974304
              29.35888760                8.05661515               80.01061685                0.00010000                1.57834470                1.60535339               -5.47984230               -0.21270069               -0.13840274               -4.40783094
              19.88460268               14.33099576               84.20722697                0.00010000                0.01752694                0.09104141               -0.26363873                0.00282398                0.00978575                0.52455771
              20.88477795               13.80436669               83.76130252                0.00010000               -0.03971306               -0.06487867                0.15465554               -0.02323295                0.03355832               -0.26462894
              21.88380842               13.27723122               83.31584088                0.00010000               -1.09066512               -0.20176219                0.55300384               -0.05579523                0.64880340               -0.88599332
              22.86296465               12.75003249               82.88214380                0.00010000               -1.89626769                0.51889802               -0.41731348               -0.34034719                0.93917796               -1.13497612
              23.84588306               12.22328613               82.44997748                0.00010000               -1.43114777                1.00064250               -1.42054614               -0.77855387                0.48084843               -1.34396038
              24.83434169               11.69518476               82.01681460                0.00010000               -0.79277278                1.27631662               -2.51028303               -1.14328582               -0.17100128               -1.57599282
              25.83002761               11.16642387               81.58165225                0.00010000               -0.06269410                1.51768128               -3.65575854               -1.28325064               -0.75798905               -1.83531168
              26.83308781               10.63878713               81.14509438                0.00010000                0.64084603                1.73785762               -4.75301473               -1.16474198               -1.07719814               -2.11382676
              27.84284453               10.11376046               80.70879102                0.00010000                1.23102589                1.89261485               -5.63935850               -0.83371167               -1.02161081               -2.39941951
              28.85770833                9.59214535               80.27475166                0.00010000                1.61067125                1.91979151               -6.11873467               -0.39959029               -0.60958626               -2.66574542
              29.87505795                9.07363727               79.84447505                0.00010000                1.73496276                1.77111217               -6.00093740               -0.10962466               -0.19902201               -2.87719517
              20.41205246               15.33189384               84.06792628                0.00010000                0.01750749                0.09033752               -0.27698753                0.00430985                0.02228572                0.43316908
              21.41222753               14.80375847               83.61813868                0.00010000               -0.03829318               -0.06077918                0.17063267               -0.01203949                0.19717203               -0.26016606
              22.41128659               14.27529334               83.17184846                0.00010000               -1.24190723               -0.19164950                0.55454780                0.47099118                0.97936701               -0.68248000
              23.38738939               13.75674068               82.73769292                0.00010000               -2.26503382                0.96859369               -0.45325000                0.22243588                1.23319416               -0.64365271
              24.36598592               13.23518301               82.30529396                0.00010000               -1.74701220                1.26834901               -1.51133656               -0.31934042                0.65414724               -0.69105584
              25.35244914               12.70938939               81.87113793                0.00010000               -0.95082903                1.49253543               -2.66496415               -0.63756108               -0.12000798               -0.79432658
              26.34696934               12.18278435               81.43443653                0.00010000               -0.14650248                1.70117867               -3.88370450               -0.70393239               -0.79421288               -0.91397652
              27.34951909               11.65706246               80.99598606                0.00010000                0.62624338                1.88860802               -5.05801794               -0.61869821               -1.16669707               -1.04367420
              28.35949420               11.13335955               80.55772619                0.00010000                1.28582187                2.01459919               -6.01344861               -0.42217850               -1.12373279               -1.17949826
              29.37523553               10.61195001               80.12202224                0.00010000                1.71085310                2.03280337               -6.53065132               -0.18750653               -0.68019769               -1.31082461
              30.39371127               10.09203739               79.69072476                0.00010000                1.84757348                1.89902461               -6.38175649               -0.01818962               -0.24452012               -1.41034818
              20.94095961               16.33280252               83.92698778                0.00010000                0.01780520                0.09086739               -0.28697995               -0.07442574                0.21164238                0.34907515
              21.94113766               15.80315110               83.47514129                0.00010000               -0.03567896               -0.06073699                0.17922986               -0.07920108                0.49676781               -0.24924432
              22.94024603               15.27339823               83.02901263                0.00010000               -1.68069851               -0.18951053                0.55471826                1.20860684                1.52763021               -0.61522625
              23.90752369               14.76940436               82.59787556                0.00010000               -2.66992410                1.26636810               -0.49085184                0.77617470                1.59224876               -0.23058949
              24.88684755               14.24865311               82.16594605                0.00010000               -1.67672822                1.34701072               -1.57159198               -0.13228136                0.81076972               -0.27597312
              25.87398913               13.72503547               81.73186083                0.00010000               -0.92858315                1.56460828               -2.75962848               -0.25628504               -0.05066671               -0.32484520
              26.86827589               13.20044744               81.29477066                0.00010000               -0.19252427                1.76630959               -4.02671180               -0.29315422               -0.80481217               -0.37600701
              27.87013864               12.67655929               80.85560809                0.00010000                0.56187651                1.94968243               -5.26215354               -0.25779528               -1.22572780               -0.42405038
              28.87951342               12.15405244               80.41653633                0.00010000                1.25708546                2.06928905               -6.28620693               -0.18597208               -1.19065815               -0.47307000
              29.89528035               11.63280142               79.98016778                0.00010000                1.75029841                2.08514155               -6.86927666               -0.11725160               -0.72165168               -0.52329878
              30.91451938               11.11161777               79.54852747                0.00010000                1.92390328                1.95803734               -6.72866460               -0.03755350               -0.26483087               -0.56271665
              16.12776429                6.46960008               86.31288984                0.00010000                0.03119032                0.08139553               -0.29841776                0.06799863               -0.46272949                0.47944964
              17.12807619                5.94834737               85.89800860                0.00010000               -0.03092009               -0.01114736                0.03256106                0.07506294               -0.61132279                0.06700477
              18.12714589                5.42668016               85.48009101                0.00010000               -0.14272478               -0.08671058                0.33961581                0.06893787               -0.66633455               -0.02742562
              19.12522170                4.90390940               85.06405557                0.00010000               -0.25485441               -0.19829734                0.66391795               -0.00134416               -0.59276584               -0.23120945
              20.12204880                4.37909899               84.64749747                0.00010000               -0.35316271               -0.32990312                0.98695487               -0.00396017               -0.39719804               -0.18959363
              21.11815844                3.85205690               84.23499893                0.00010000               -0.43176507               -0.49826600                1.40743467               -0.05726504                0.21439608               -0.37247827
              22.11341350                3.32159182               83.82978110                0.08928941                0.26336718               -0.72982304                1.77894026               -0.13234707                2.61601378               -0.63349146
              23.12342579                2.78626516               83.46388811                0.00010000                0.56350833               -1.33642821                0.54601229               -2.30033438                5.18534731               -2.32598662
              24.12468367                2.22237533               83.10892005                0.00010000                2.85799329               -2.19026300               -0.16647450                2.17256874                8.26377447               -0.54843132
              25.18058565                1.64324975               82.77538261                1.00000000                3.04000837                0.60311095               -2.00399696               -1.79586516                3.30567418               -0.10685511
              26.18548383                1.10377124               82.37611984                1.00000000                0.48981797                0.32943835               -1.25128928                0.13501122               -0.00979260               -0.04147601
              16.64969699                7.47041404               86.17342452                0.00010000                0.05897944                0.06760798               -0.30754230                0.01906216               -0.05064985                0.64329469
              17.65028678                6.94823590               85.75854231                0.00010000                0.01786308               -0.01996133                0.02549188                0.02786120               -0.03289814                0.09349204
              18.65005425                6.42581306               85.34387639                0.00010000               -0.06439711               -0.09592819                0.32617470               -0.00087137                0.04151873               -0.17051968
              19.64899884                5.90192643               84.93019305                1.00000000               -0.10594016               -0.23670920                0.64133536               -0.03521436                0.22981736               -0.14610410
              20.64793545                5.37579996               84.51876984                1.00000000               -0.13297308               -0.36861615                0.96978710               -0.05804279                0.52706265               -0.12477399
              21.64633938                4.84707424               84.10963950                1.00000000               -0.14747734               -0.54532532                1.41614726               -0.12860293                1.12124645               -0.24907663
              22.64498590                4.31429359               83.70743172                1.00000000                0.18456541               -0.81555346                2.00698908               -0.35928241                2.83161376               -0.44906790
              23.65003069                3.77290087               83.32671249                0.00010000                3.64655777               -1.40480614                1.79545463               -2.13572419                6.69057319               -1.34696288
              24.71791706                3.20047270               82.99211928                0.00010000                3.59491774               -1.19506260               -0.63855517                0.84262134                7.32241887               -0.30332365
              25.72192904                2.64928086               82.63882309                1.00000000                0.41976981                0.59133256               -1.90794283               -0.38927375                2.31656454               -0.13529814
              26.72631245                2.10706563               82.24002095                1.00000000                0.43834094                0.29424658               -1.01967050                0.00115570                0.02862666               -0.03758023
              17.17250182                8.47095224               86.03720194                0.00010000                0.07325835                0.04857275               -0.31071993                0.00001764                0.07335028                0.76080343
              18.17323440                7.94794814               85.61949008                0.00010000                0.04680559               -0.02589549                0.02643194               -0.01133350                0.22148721                0.05661657
              19.17343793                7.42476160               85.20456347                0.00010000                0.06480531               -0.09313044                0.33552060               -0.16607462                0.79055637               -0.57427822
              20.17453051                6.89917522               84.79780387                0.00010000                0.11511004               -0.70060418                0.60819619               -0.67605590                1.27612920               -1.21009600
              21.17574013                6.37172667               84.39122249                1.00000000                0.12811257               -1.02048285                0.91073559               -0.94925667                1.50090577               -1.83209590
              22.17709276                5.84115040               83.98673990                1.00000000                0.23305444               -1.34054448                1.30806095               -1.15402116                2.16677905               -2.49462057
              23.18040122                5.30528075               83.58938221                1.00000000                0.87197174               -1.72490489                1.76478469               -1.46547160                3.84387094               -3.32801523
              24.19453219                4.75816903               83.21082756                0.00010000                4.23774447               -2.24250912                1.33657890               -2.04170656                6.39422849               -4.60129183
              25.26515611                4.19847407               82.86046706                0.00010000                3.58375275               -0.91880628                0.87297132               -4.74004262                6.79428026               -5.35333601
              26.26620725                3.65507640               82.50236350                1.00000000                0.23906532                0.22445971               -1.75986416               -3.18249498                2.04943567               -7.29305409
              27.26993742                3.10965617               82.10406503                1.00000000                0.37301660                1.52946730               -0.77623020               -3.11011064                0.03611877               -7.39861608
              17.69570554                9.47138549               85.90009556                0.00010000                0.05452187                0.04826170               -0.29740535               -0.01867540                0.15316417                0.65015439
              18.69625076                8.94771799               85.47920537                0.00010000               -0.00999282               -0.01927216                0.04526112               -0.04475275                0.24617341               -0.17416534
              19.69550569                8.42395045               85.06006441                0.00010000               -0.38690528               -0.11621520                0.36495748               -0.70209321                0.42222454               -0.99983024
              20.68851265                7.88791434               84.64261059                0.00010000               -0.42652745               -0.86147784                0.31413448               -1.74199842                0.60852022               -2.36094579
              21.68697514                7.35539030               84.22826235                0.00010000                0.05961117               -1.32589492                0.24187465               -2.04950340                0.81893284               -3.55629707
              22.68970488                6.82026335               83.81657326                0.00010000                0.58413482               -1.67180232                0.07904671               -2.51928184                1.07910845               -4.77606898
              23.69865783                6.27979549               83.40981151                0.00010000                1.31491765               -1.94382173               -0.30677601               -3.23310365                1.42938844               -6.13871753
              24.71600323                5.72805069               83.01029680                0.00010000                1.37755030               -1.73529184               -0.87141367               -3.78850490                1.41302765               -7.77017343
              25.72620884                5.18209657               82.61360589                0.00010000                1.55469067               -0.68308642               -1.69502531               -5.56359621                1.51097138               -9.91253017
              26.74709704                4.65377005               82.22262479                0.00010000                1.43709285                0.13005280               -2.07994681               -3.58597966                1.49081549              -12.59719559
              27.75495070                4.13765497               81.82063214                0.00010000                0.78536507                1.87693238               -2.12662146               -2.55908576                1.03915837              -14.09981989
              18.21946332               10.47191748               85.76165517                0.00010000                0.03110702                0.06489559               -0.27575991               -0.00762546                0.01191530                0.54043162
              19.21977439                9.94756270               85.33544324                0.00010000               -0.01318080               -0.03607847                0.09642598               -0.05985762                0.14849306               -0.31981328
              20.21919971                9.42243729               84.91191780                0.00010000               -0.57618548               -0.18153116                0.39596994               -0.86316312                0.22705811               -1.24043459
              21.20825068                8.88194566               84.48718493                0.00010000               -0.83993267               -0.44287569                0.09299417               -1.81012846                0.12859079               -2.31435824
              22.20240105                8.34520877               84.06501574                0.00010000               -0.29743736               -0.70903318               -0.28197149               -2.07651031                0.07360351               -3.39329138
              23.20230194                7.80771435               83.64433756                0.00010000                0.27753766               -0.82933032               -0.80734795               -2.67129897               -0.10279203               -4.52509205
              24.20795181                7.26640431               83.22539015                0.00010000                0.70795383               -0.72605511               -1.48322725               -3.35528521               -0.29790067               -5.74119150
              25.21646101                6.72346320               82.80860658                0.00010000                1.01065083               -0.03084619               -2.28201738               -3.80620060               -0.33425741               -7.02918441
              26.22816482                6.18481235               82.39488547                0.00010000                1.12341205                0.60199764               -3.00545461               -3.06609265               -0.11892541               -8.34416793
              27.23892925                5.65767746               81.98272269                0.00010000                1.14105198                0.78880907               -3.44691954               -2.08654955                0.09525025              -10.03315048
              28.25098586                5.14719482               81.56851805                0.00010000                1.20566089                0.88480847               -3.36352204               -0.94413272                0.37069444              -11.31672445
              18.74426259               11.47268341               85.62230456                0.00010000                0.02712062                0.08200332               -0.25576631               -0.01004683                0.00160619                0.50256494
              19.74453379               10.94699642               85.19208535                0.00010000               -0.02015617               -0.06508054                0.11542458               -0.06365237                0.03123536               -0.28954725
              20.74385946               10.42031982               84.76242183                0.00010000               -0.74975907               -0.21770225                0.45660958               -0.84997323                0.02435175               -1.20846940
              21.72953861                9.87905683               84.33193003                0.00010000               -1.20916107               -0.16480340               -0.06316651               -1.74995864               -0.20410866               -2.15505244
              22.71967624                9.34120964               83.90275823                0.00010000               -0.72276275               -0.14207790               -0.66104737               -1.97097938               -0.50913648               -3.05993035
              23.71508336                8.80367675               83.47362586                0.00010000               -0.19364797               -0.03917966               -1.41881220               -2.44591169               -0.94892142               -4.00122578
              24.71580328                8.26527439               83.04419655                0.00010000                0.31939155                0.26613855               -2.32830044               -2.89632948               -1.32002012               -4.99576394
              25.72147119                7.72743377               82.61532501                0.00010000                0.74347225                0.72841096               -3.28763488               -2.90819521               -1.41483506               -6.03473832
              26.73067273                7.19413652               82.18842896                0.00010000                1.07561957                1.17523903               -4.13530256               -2.37846575               -1.14483194               -7.14550715
              27.74298358                6.66954623               81.76458641                0.00010000                1.31802930                1.36182408               -4.65327663               -1.27213556               -0.60308423               -8.23203539
              28.75703331                6.15535114               81.34351085                0.00010000                1.40497346                1.06229481               -4.63599356               -0.51786219               -0.10303382               -8.99329796
              19.27063636               12.47355754               85.48301130                0.00010000                0.02285656                0.09012729               -0.24938732               -0.00634137               -0.00248956                0.51292985
              20.27086493               11.94626109               85.04883444                0.00010000               -0.02482667               -0.07354339                0.12580276               -0.05390449                0.00207209               -0.27163557
              21.27013983               11.41808325               84.61472492                0.00010000               -0.92516158               -0.21979451                0.48498302               -0.66673443               -0.10915606               -1.06846332
              22.25236170               10.87864959               84.17816840                0.00010000               -1.58891392                0.07870015               -0.16580337               -1.41819074               -0.46746801               -1.87836814
              23.23836155               10.34236721               83.74313053                0.00010000               -1.15213703                0.33339784               -0.92279068               -1.63321326               -0.88301600               -2.59110666
              24.22931896                9.80693076               83.30710258                0.00010000               -0.60466774                0.59642852               -1.85753511               -2.00457692               -1.48359050               -3.32276162
              25.22626820                9.27172708               82.86957381                0.00010000                0.00580079                0.91872384               -2.94442832               -2.26700615               -1.97504939               -4.09846974
              26.22943497                8.73803142               82.43171686                0.00010000                0.61074236                1.28928089               -4.07174812               -2.20005051               -2.11808291               -4.91399191
              27.23848304                8.20831713               81.99579267                0.00010000                1.14184768                1.59627905               -5.05565017               -1.69212146               -1.78951700               -5.73993423
              28.25227193                7.68491394               81.56425665                0.00010000                1.52678820                1.69630119               -5.67273885               -0.88250985               -1.02391676               -6.48767668
              29.26901881                7.16844072               81.13899646                0.00010000                1.67468818                1.50932065               -5.70122663               -0.30415227               -0.34047294               -6.98380585
              19.79872867               13.47448595               85.34380587                0.00010000                0.02013313                0.09257029               -0.25133602               -0.00252466               -0.00164115                0.51816907
              20.79893000               12.94552555               84.90574575                0.00010000               -0.02961977               -0.06920588                0.13323847               -0.03693618                0.00675069               -0.25083439
              21.79813627               12.41592393               84.46783885                0.00010000               -1.10195817               -0.20887868                0.50343351               -0.36267262               -0.13230760               -1.00136548
              22.77689083               11.88063083               84.02684534                0.00010000               -1.97027292                0.32018455               -0.22941658               -0.86922348               -0.56145940               -1.52963957
              23.75873081               11.34787760               83.58747004                0.00010000               -1.56294444                0.74447016               -1.09582841               -1.13249603               -1.06283785               -2.02852424
              24.74563194               10.81560532               83.14637329                0.00010000               -0.96841562                1.07788386               -2.16131852               -1.48873326               -1.79128344               -2.54680423
              25.73936250               10.28364886               82.70293035                0.00010000               -0.23759055                1.38177024               -3.39248217               -1.68456854               -2.38886193               -3.10559600
              26.74088013                9.75321939               82.25862945                0.00010000                0.52926382                1.67675874               -4.66258645               -1.58799333               -2.57898195               -3.69354918
              27.74994778                9.22606210               81.81642310                0.00010000                1.21648280                1.90367848               -5.77088844               -1.18997578               -2.20752386               -4.27113284
              28.76520979                8.70347226               81.37982627                0.00010000                1.69744667                1.97858882               -6.47175789               -0.60066757               -1.28061727               -4.76152425
              29.78389671                8.18553755               80.95184025                0.00010000                1.86869196                1.85367083               -6.51573995               -0.19677950               -0.48414744               -5.06937842
              20.32850667               14.47540895               85.20460289                0.00010000                0.01815504                0.09023409               -0.25765164                0.00155490                0.00817077                0.50649033
              21.32868822               13.94487697               84.76280589                0.00010000               -0.03627898               -0.06058336                0.14217962               -0.02155647                0.02225882               -0.24062162
              22.32778109               13.41390567               84.32128161                0.00010000               -1.28323287               -0.19266149                0.52348767                0.05702249               -0.01475768               -0.84353660
              23.30302356               12.88505328               83.87858996                0.00010000               -2.35219729                0.60378626               -0.26094771               -0.14503909               -0.43727080               -1.12649383
              24.28073715               12.35725661               83.43665523                0.00010000               -1.96252705                1.13520093               -1.19614203               -0.61092202               -1.07616057               -1.39685827
              25.26377302               11.82848843               82.99231262                0.00010000               -1.28871954                1.43264214               -2.35447109               -1.00120761               -1.93642871               -1.71057783
              26.25496276               11.29936249               82.54490363                0.00010000               -0.42555803                1.69250920               -3.69620462               -1.16223467               -2.64126976               -2.06356249
              27.25526186               10.77156659               82.09621715                0.00010000                0.47339500                1.93458448               -5.08285374               -1.07052180               -2.88680733               -2.43597767
              28.26443066               10.24639070               81.64977604                0.00010000                1.27606305                2.11828772               -6.29412831               -0.77442992               -2.49429759               -2.79520231
              29.28078312                9.72448571               81.20987398                0.00010000                1.82609855                2.18360383               -7.05677154               -0.37456913               -1.45683969               -3.08247062
              30.30095263                9.20551413               80.78027670                0.00010000                2.01695025                2.08703541               -7.09228366               -0.10127523               -0.58368160               -3.21959136
              20.85982372               15.47629063               85.06518728                0.00010000                0.01784242                0.08797690               -0.26783025                0.00378189                0.02583643                0.41276672
              21.86000214               14.94431388               84.61980571                0.00010000               -0.03616548               -0.05626859                0.15806159               -0.00977193                0.17058558               -0.23286051
              22.85910041               14.41207070               84.17731175                0.00010000               -1.46815145               -0.18018325                0.52560689                0.62184563                0.27518588               -0.64419767
              23.83063911               13.89270656               83.73390959                0.00010000               -2.80115935                1.10587147               -0.26572912                0.40213662               -0.19522409               -0.62552223
              24.80307722               13.37058161               83.29127299                0.00010000               -2.35685972                1.41349715               -1.23650190               -0.20163993               -0.97431777               -0.70827341
              25.78350192               12.84425816               82.84531730                0.00010000               -1.50187859                1.64781458               -2.45401564               -0.55528473               -1.98177480               -0.85375953
              26.77303965               12.31749905               82.39560632                0.00010000               -0.55302141                1.87740132               -3.87616751               -0.63707626               -2.79915338               -1.02070957
              27.77244149               11.79191108               81.94418882                0.00010000                0.42502026                2.09743128               -5.35614835               -0.57005229               -3.11331602               -1.19679373
              28.78154005               11.26842786               81.49501272                0.00010000                1.30767392                2.26416940               -6.65743854               -0.39686679               -2.72521874               -1.36608212
              29.79859497               10.74714434               81.05299602                0.00010000                1.91371558                2.32592126               -7.47570502               -0.18093984               -1.60798439               -1.49619243
              30.81981437               10.22727826               80.62268780                0.00010000                2.12193973                2.23639060               -7.48214383               -0.01804366               -0.67380492               -1.50604902
              21.39253581               16.47716849               84.92416244                0.00010000                0.01769030                0.08778542               -0.27583099               -0.07047938                0.20556515                0.32844165
              22.39271271               15.94375160               84.47690224                0.00010000               -0.03552410               -0.05622823                0.16724780               -0.07226667                0.44726956               -0.22203887
              23.39182533               15.41030201               84.03447213                0.00010000               -2.00786631               -0.17686934                0.52488518                1.44344772                0.78420248               -0.57244845
              24.35255539               14.90717071               83.59389528                0.00010000               -3.33362906                1.44641542               -0.25874546                0.95285479                0.14241603               -0.22534649
              25.32515275               14.38552656               83.15157336                0.00010000               -2.34027449                1.49449431               -1.23362261               -0.07874674               -0.85228597               -0.28906228
              26.30574990               13.86144473               82.70536590                0.00010000               -1.52922163                1.71865658               -2.47948633               -0.20600424               -1.98178944               -0.35343553
              27.29456831               13.33691051               82.25475453                0.00010000               -0.64089461                1.94114682               -3.95596493               -0.24360890               -2.91662685               -0.41656074
              28.29293200               12.81351522               81.80194644                0.00010000                0.33458735                2.16041406               -5.51236317               -0.21277006               -3.31147932               -0.47175503
              29.30126006               12.29167408               81.35118044                0.00010000                1.26909594                2.32462249               -6.90345879               -0.15355313               -2.95129479               -0.51805328
              30.31831392               11.77100414               80.90774092                0.00010000                1.95319191                2.38598046               -7.81063034               -0.09971133               -1.78643037               -0.54652829
              31.34032390               11.25024195               80.47698103                0.00010000                2.20099759                2.29636840               -7.83194505               -0.02526597               -0.80516846               -0.48657389
              16.53621767                6.61390460               87.30985386                0.00010000                0.03122065                0.07923034               -0.29235600                0.06530721               -0.48669349                0.47862921
              17.53652988                6.08852078               86.89823691                0.00010000               -0.02944059               -0.00694852                0.02039255                0.07221273               -0.65417438                0.06746217
              18.53562886                5.56265805               86.48333675                0.00010000               -0.13694580               -0.07476337                0.30981980                0.06461388               -0.71156384               -0.03448898
              19.53379096                5.03553034               86.07051213                0.00010000               -0.23540214               -0.18347329                0.61851477               -0.00754571               -0.62642814               -0.24222186
              20.53092082                4.50611445               85.65709850                0.00010000               -0.30180672               -0.31620210                0.90871045                0.00288787               -0.36615810               -0.17646520
              21.52775483                3.97412882               85.24880734                0.00010000               -0.33047399               -0.48222369                1.29040994               -0.01059798                0.34562080               -0.29274547
              22.52431134                3.43829334               84.84798178                0.00010000               -0.00000300               -0.69963301                1.70423179                0.00827168                2.12633906               -0.36429325
              23.52775477                2.89564283               84.47163389                0.00010000                2.60648625               -0.81670793                0.93482516               -0.79458210                4.06628857               -1.22349711
              24.57644106                2.32643271               84.11332391                0.00010000                2.40613241                0.45058167               -0.05540196               -2.51112809                6.12343197               -1.19261037
              25.57587742                1.77792224               83.75613191                1.00000000                0.20443137                0.54430317               -1.81628626               -0.29444665                1.73373184               -0.21625646
              26.58052969                1.23863430               83.36387357                1.00000000                0.46522738                0.34057673               -1.24898762                0.11723904               -0.05076577                0.02821822
              17.06225456                7.61469691               87.17029175                0.00010000                0.06207169                0.06544606               -0.30364606                0.01910979               -0.07785059                0.63799264
              18.06287528                7.08845130               86.75869074                0.00010000                0.02578281               -0.01604145                0.01025526                0.02781670               -0.08683406                0.09500594
              19.06277022                6.56191042               86.34694336                0.00010000               -0.04439850               -0.08418903                0.28627343               -0.00609017               -0.03005430               -0.16496343
              20.06198731                6.03369561               85.93630852                0.00010000               -0.05598804               -0.22411964                0.57072556               -0.03857482                0.16218909               -0.15643464
              21.06165046                5.50295243               85.52795108                1.00000000               -0.02139525               -0.35257526                0.84210782               -0.05521674                0.50370938               -0.11376344
              22.06155941                4.96930658               85.12303402                1.00000000                0.09932952               -0.52809844                1.20335964               -0.09247124                1.19201856               -0.19270507
              23.06363705                4.43129701               84.72604943                1.00000000                0.70899272               -0.78192459                1.58379067               -0.07470235                2.64555816               -0.27106640
              24.07573926                3.88747576               84.34546351                1.00000000                2.32765145               -1.10469053                1.39782347               -0.28854721                4.61321578               -0.72077989
              25.11019008                3.33093853               83.98347026                1.00000000                2.05464484                0.08206127               -0.66660385               -1.32267736                2.78502366               -0.01983159
              26.11683216                2.78336528               83.61969813                1.00000000                0.53999734                0.54102761               -1.76742734               -0.24500330                1.45893820               -0.24885817
              27.12099002                2.24204007               83.22999893                1.00000000                0.41578684                0.30906492               -1.04242206                0.01189409                0.14292779                0.05729578
              17.58909108                8.61521352               87.03403301                0.00010000                0.07816149                0.04761374               -0.30947534               -0.00193933                0.04192865                0.76492176
              18.58987270                8.08819995               86.61964470                0.00010000                0.05858308               -0.02196614                0.00889295               -0.01498893                0.16449820                0.07154183
              19.59026274                7.56097427               86.20771573                0.00010000                0.10523823               -0.07931436                0.29174299               -0.18963379                0.68295585               -0.54021900
              20.59197746                7.03104795               85.80345460                0.00010000                0.19713831               -0.68978983                0.51110438               -0.77246772                1.12503746               -1.31496720
              21.59420551                6.49906294               85.39954393                1.00000000                0.27916815               -0.97444034                0.73534136               -1.16520208                1.34816900               -2.07464791
              22.59756083                5.96356685               84.99846274                1.00000000                0.52213052               -1.23375581                1.00237354               -1.54776195                1.97154541               -2.93818201
              23.60464812                5.42265484               84.60445885                1.00000000                1.23907378               -1.50181021                1.20351537               -2.02563637                3.10738168               -3.99667253
              24.62234230                4.87354902               84.22248458                1.00000000                2.47249375               -1.65686283                0.82303585               -2.32247926                4.21595216               -5.22427827
              25.65409800                4.32807394               83.85369189                0.00010000                1.87667556               -0.75299408               -0.56469316               -2.95630652                1.88756690               -6.26737312
              26.65987581                3.78874280               83.48428463                1.00000000                0.46599962                0.02308315               -1.61293243               -2.33635207                1.07680102               -7.75288120
              27.66341799                3.24481560               83.09638054                1.00000000                0.35421763                1.03751564               -0.83985259               -2.24208229                0.14252791               -8.14702291
              18.11624291                9.61564918               86.89707016                0.00010000                0.05718367                0.04994719               -0.29645690               -0.02305408                0.12232211                0.66885272
              19.11681475                9.08801198               86.47955881                0.00010000               -0.00566837               -0.01387756                0.02733559               -0.04874599                0.19792593               -0.13422108
              20.11612955                8.56032413               86.06357561                0.00010000               -0.41827311               -0.10445244                0.33001165               -0.73285541                0.18616053               -0.95634412
              21.10844929                8.01989982               85.64566368                0.00010000               -0.51510153               -0.82920921                0.31341997               -1.89493985                0.13501722               -2.51182603
              22.10582752                7.48346362               85.23044901                0.00010000               -0.07185119               -1.22443341                0.22162713               -2.36500633                0.18227582               -3.96325963
              23.10701226                6.94463147               84.81664761                0.00010000                0.36573172               -1.44993593               -0.03084392               -3.06946526                0.15965334               -5.54085027
              24.11314215                6.40126080               84.40548485                0.00010000                0.84291577               -1.50428358               -0.51471353               -3.75967117                0.17446669               -7.34302419
              25.12387058                5.85433850               83.99894063                0.00010000                1.13640126               -1.13589301               -1.22822942               -4.10015222                0.12942497               -9.12813277
              26.13587018                5.31587865               83.59822898                0.00010000                1.47464366               -0.72546992               -1.82618918               -4.39545179                0.58424348              -11.45250432
              27.15336345                4.78382694               83.20041597                0.00010000                1.40662988               -0.17873368               -2.49642816               -3.10258361                0.24749356              -14.16177943
              28.16400277                4.26279038               82.79776834                0.00010000                1.06393198                1.26486943               -2.60757207               -1.94953718                0.36728316              -15.95945175
              18.64390441               10.61621247               86.75886771                0.00010000                0.03184141                0.06874256               -0.27301262               -0.01058707                0.01032759                0.56487368
              19.64422282               10.08792240               86.33631970                0.00010000               -0.00933067               -0.03023655                0.07800595               -0.06260579                0.10825873               -0.28334388
              20.64371780                9.55888523               85.91574751                0.00010000               -0.66418222               -0.17315634                0.36165139               -0.86421964               -0.12643828               -1.18779128
              21.63093918                9.01446377               85.48833279                0.00010000               -1.07720331               -0.37878014                0.16718790               -1.87336519               -0.59070129               -2.39599506
              22.62217373                8.47457427               85.06244222                0.00010000               -0.62824206               -0.57350923               -0.18496283               -2.21762086               -0.86690662               -3.66949509
              23.61837434                7.93456813               84.63618125                0.00010000               -0.12130316               -0.59437496               -0.77700984               -2.84375268               -1.31057307               -5.05988996
              24.61974767                7.39256917               84.20975032                0.00010000                0.36735357               -0.38851689               -1.60800988               -3.40188295               -1.70093766               -6.54813622
              25.62572141                6.85083116               83.78444444                0.00010000                0.84764265                0.05591814               -2.56768457               -3.53520022               -1.72664938               -8.15391927
              26.63670052                6.31356454               83.36251486                0.00010000                1.25954983                0.28750576               -3.49348536               -2.98174558               -1.34020411               -9.92458496
              27.65091241                5.78516812               82.94554053                0.00010000                1.48999202                0.57406452               -4.15133789               -1.98879135               -0.60364486              -11.78863433
              28.66650036                5.27011299               82.53159849                0.00010000                1.55879543                0.79608512               -4.23593475               -0.93207100               -0.03087777              -13.23304733
              19.17261130               11.61702403               86.61974129                0.00010000                0.02785766                0.08542188               -0.25039200               -0.01256241               -0.00039413                0.51879447
              20.17288988               11.08740724               86.19315634                0.00010000               -0.01537551               -0.05951384                0.09715370               -0.06327981                0.01269014               -0.27298504
              21.17230379               10.55686101               85.76684297                0.00010000               -0.87984698               -0.20641595                0.41823469               -0.81575410               -0.40274198               -1.15719015
              22.15529294               10.01232421               85.33174797                0.00010000               -1.54665286               -0.08940529                0.06597468               -1.71820292               -1.11482968               -2.19108409
              23.14137073                9.47199343               84.89676319                0.00010000               -1.15753118               -0.00665749               -0.48004397               -1.95335560               -1.65451255               -3.24433530
              24.13214231                8.93274397               84.45969289                0.00010000               -0.62646353                0.15230259               -1.31619643               -2.41810496               -2.37165051               -4.39383665
              25.12884146                8.39349046               84.02037650                0.00010000                0.00144476                0.44588551               -2.41542660               -2.79286964               -2.92433979               -5.65533778
              26.13217121                7.85545686               83.58080114                0.00010000                0.65284217                0.81151422               -3.65073690               -2.77620273               -3.02030924               -6.99460459
              27.14189830                7.32162876               83.14425214                0.00010000                1.24339847                1.14186420               -4.81511409               -2.27223465               -2.48256128               -8.39289483
              28.15703918                6.79530823               82.71403176                0.00010000                1.67866590                1.32149683               -5.63731766               -1.29035744               -1.39032594               -9.74055035
              29.17547162                6.27871208               82.29253671                0.00010000                1.84324454                1.17058511               -5.81225897               -0.52739034               -0.43746208              -10.65359980
              19.70288673               12.61792090               86.48053321                0.00010000                0.02335173                0.09103865               -0.24127446               -0.00818055               -0.00395871                0.51603737
              20.70312025               12.08673213               86.05001224                0.00010000               -0.02004940               -0.06696679                0.10793044               -0.05120920               -0.00822815               -0.25801425
              21.70248575               11.55475691               85.61941284                0.00010000               -1.08387793               -0.20582149                0.44477713               -0.60188448               -0.58591993               -1.03362246
              22.68144269               11.01267566               85.17714218                0.00010000               -1.98994428                0.15120789                0.00525444               -1.31089282               -1.50445611               -1.88579530
              23.66268686               10.47444112               84.73478612                0.00010000               -1.64637413                0.45407718               -0.68108854               -1.52538230               -2.18565726               -2.71120673
              24.64851521                9.93761419               84.28902565                0.00010000               -1.07547395                0.74864801               -1.70319779               -1.89649685               -3.08764600               -3.61620454
              25.64117738                9.40148688               83.83965661                0.00010000               -0.32280778                1.07492581               -3.02377231               -2.15954475               -3.78388326               -4.61375587
              26.64205906                8.86706145               83.38912659                0.00010000                0.51135386                1.42385896               -4.49454133               -2.10890668               -3.92053229               -5.68042885
              27.65140446                8.33640182               82.94176724                0.00010000                1.29814409                1.72362342               -5.87532246               -1.65911606               -3.29665381               -6.75148135
              28.66802194                7.81159806               82.50265170                0.00010000                1.88701933                1.86990637               -6.86036851               -0.89208256               -1.90572522               -7.68663100
              29.68914485                7.29352469               82.07629180                0.00010000                2.11229090                1.76176286               -7.12083973               -0.32208302               -0.73639538               -8.26457589
              20.23482524               13.61884480               86.34132593                0.00010000                0.02044460                0.09116295               -0.24078342               -0.00402145               -0.00326389                0.51207376
              21.23502969               13.08606791               85.90699865                0.00010000               -0.02513398               -0.06189128                0.11544704               -0.03380366               -0.00290290               -0.23470498
              22.23432256               12.55274458               85.47268230                0.00010000               -1.28194135               -0.19346595                0.46000993               -0.27380461               -0.64442218               -0.96293225
              23.20939086               12.01534837               85.02534043                0.00010000               -2.41990013                0.38813505               -0.02251905               -0.71333394               -1.68273870               -1.51868544
              24.18592456               11.48107498               84.57762927                0.00010000               -2.11121227                0.85524452               -0.80084745               -0.98405541               -2.48342873               -2.09998158
              25.16716662               10.94771693               84.12546940                0.00010000               -1.48606288                1.22075034               -1.96023691               -1.36182499               -3.54581990               -2.75039577
              26.15620330               10.41498898               83.66861947                0.00010000               -0.60442424                1.54948825               -3.45416489               -1.58312923               -4.37071749               -3.47914985
              27.15507813                9.88393404               83.21001335                0.00010000                0.39880341                1.87233819               -5.11498298               -1.52337734               -4.55972003               -4.25427088
              28.16417937                9.35610123               82.75491082                0.00010000                1.34982632                2.14324790               -6.67372712               -1.16652011               -3.86725605               -5.00506855
              29.18207466                8.83270636               82.30967976                0.00010000                2.04986642                2.28640633               -7.79108358               -0.60524767               -2.25748354               -5.61256591
              30.20517670                8.31394734               81.88030205                0.00010000                2.31020416                2.24366015               -8.10302376               -0.20419924               -0.92550028               -5.92846463
              20.76836010               14.61974416               86.20207394                0.00010000                0.01843095                0.08724121               -0.24498054                0.00036843                0.00594472                0.49355393
              21.76854441               14.08549430               85.76414612                0.00010000               -0.03154517               -0.05314969                0.12360930               -0.01857438                0.01060608               -0.21759010
              22.76772919               13.55088759               85.32631063                0.00010000               -1.48493963               -0.17628583                0.47629694                0.16539635               -0.55240439               -0.80496914
              23.73884561               13.02043836               84.87692485                0.00010000               -2.85459998                0.67882761               -0.01798344                0.03956111               -1.61211495               -1.10206939
              24.71063719               12.49154601               84.42605464                0.00010000               -2.57404516                1.25122136               -0.84499788               -0.46209406               -2.57939608               -1.42951883
              25.68736471               11.96202919               83.96972518                0.00010000               -1.86697535                1.57719936               -2.09630126               -0.88778331               -3.80804422               -1.83341264
              26.67329769               11.43247665               83.50772815                0.00010000               -0.84427269                1.87651422               -3.71849129               -1.08047667               -4.77008247               -2.29844141
              27.67047926               10.90450821               83.04343731                0.00010000                0.30020273                2.17316276               -5.52718574               -1.02208134               -5.02672798               -2.79128035
              28.67930174               10.37926678               82.58290846                0.00010000                1.37958088                2.42661352               -7.22664972               -0.75893883               -4.29565165               -3.25488250
              29.69807087                9.85732619               82.13361622                0.00010000                2.16385761                2.57264311               -8.44027048               -0.37713894               -2.51897642               -3.58987520
              30.72257889                9.33839789               81.70262938                0.00010000                2.45080193                2.56323697               -8.76637864               -0.10908349               -1.07114626               -3.66529987
              21.30333234               15.62058963               86.06256967                0.00010000                0.01824407                0.08384336               -0.25313956                0.00308949                0.02832730                0.39658810
              22.30351478               15.08500491               85.62129991                0.00010000               -0.03229541               -0.04885221                0.13777168               -0.00709071                0.14524130               -0.20740813
              23.30268643               14.54921886               85.18236060                0.00010000               -1.69955597               -0.16295503                0.47798423                0.75639285               -0.28160311               -0.61027008
              24.26952366               14.02892492               84.73237834                0.00010000               -3.37972895                1.22438445                0.02003373                0.56528586               -1.38529614               -0.59855001
              25.23509185               13.50609941               84.28056393                0.00010000               -3.05216700                1.53625592               -0.81525373               -0.09849965               -2.52330266               -0.71871313
              26.20848032               12.97926092               83.82205762                0.00010000               -2.14885494                1.79201803               -2.11886917               -0.48863392               -3.94110618               -0.90952407
              27.19211475               12.45251926               83.35691318                0.00010000               -1.03169736                2.06715863               -3.83072089               -0.58992476               -5.05684530               -1.13068141
              28.18784637               11.92739730               82.88886310                0.00010000                0.20339352                2.35503635               -5.75460520               -0.54409398               -5.40936745               -1.36374451
              29.19618262               11.40463350               82.42457742                0.00010000                1.37771985                2.60445762               -7.57264735               -0.39233892               -4.67912050               -1.57902783
              30.21540077               10.88415922               81.97250814                0.00010000                2.23344975                2.75274374               -8.86751634               -0.18705682               -2.76722265               -1.71780173
              31.24085162               10.36521208               81.54108189                0.00010000                2.54508483                2.74509668               -9.17205542               -0.02686874               -1.21624938               -1.62855155
              21.83959131               16.62142103               85.92147116                0.00010000                0.01820463                0.08314021               -0.26056668               -0.06447978                0.20083885                0.31152584
              22.83977336               16.08451726               85.47848625                0.00010000               -0.03271353               -0.04876583                0.14565024               -0.06376901                0.40204926               -0.19746360
              23.83893704               15.54762849               85.03951033                0.00010000               -2.32512870               -0.15903734                0.47582261                1.64550111                0.21820058               -0.53564814
              24.79327079               15.04492605               84.59270065                0.00010000               -4.03029183                1.60011293                0.09295956                1.10684499               -1.00842673               -0.23275504
              25.75833121               14.52227113               84.14127360                0.00010000               -3.10493059                1.61717271               -0.71820640               -0.02888932               -2.40569540               -0.31601924
              26.73117217               13.99786955               83.68227111                0.00010000               -2.24841969                1.86086366               -2.03993040               -0.15338012               -4.00568772               -0.39482190
              27.71336281               13.47381982               83.21565136                0.00010000               -1.18445174                2.13005560               -3.81267518               -0.18822462               -5.29844736               -0.46819903
              28.70748314               12.95160894               82.74536082                0.00010000                0.06651139                2.42116433               -5.83212697               -0.15951753               -5.78023690               -0.52889513
              29.71469304               12.43135593               82.27846715                0.00010000                1.31340101                2.67224321               -7.76704837               -0.11035207               -5.10797416               -0.57018818
              30.73375116               11.91238106               81.82395517                0.00010000                2.26213781                2.82218421               -9.18059596               -0.06776624               -3.12257417               -0.57200341
              31.75993580               11.39329983               81.39188857                0.00010000                2.61846372                2.80877470               -9.50999110                0.00029457               -1.49339005               -0.38546483
              16.94126433                6.75829688               88.30704272                0.00010000                0.02454908                0.06978591               -0.25464038                0.05697257               -0.50628570                0.47458824
              17.94150982                6.22878894               87.89841645                0.00010000               -0.03124705               -0.00607232                0.02285963                0.06288037               -0.69072053                0.06692496
              18.94063939                5.69877715               87.48628740                0.00010000               -0.12892189               -0.06423435                0.28251490                0.05376175               -0.74886838               -0.04416194
              19.93893138                5.16747218               87.07642587                0.00010000               -0.21044830               -0.16169172                0.55832686               -0.01527944               -0.66530159               -0.26040653
              20.93643042                4.63386452               86.66567168                0.00010000               -0.23719024               -0.27852579                0.79207080               -0.00080580               -0.38599780               -0.17759046
              21.93418758                4.09774864               86.26080713                0.00010000               -0.16583468               -0.41838919                1.07460685                0.00468858                0.37161641               -0.25073514
              22.93311373                3.55817064               85.86386574                0.00010000                0.26109249               -0.57754619                1.33849910                0.05475121                1.70721796               -0.32585716
              23.93940943                3.01413598               85.48258462                0.00010000                1.47702799               -0.65013881                0.81103177               -0.45053581                2.84680756               -0.75377862
              24.96265429                2.45823042               85.10781201                0.00010000                1.26506028                0.14776572               -0.41615827               -1.44432874                1.42272185                0.19537298
              25.96471063                1.91179217               84.73905688                1.00000000                0.31654575                0.43588025               -1.57142620               -0.32042667                0.93695892               -0.23984206
              26.96898521                1.37208488               84.35114008                1.00000000                0.42745706                0.36196838               -1.30417030               -0.01230648               -0.05841853                0.02768449
              17.47134200                7.75899474               88.16735160                0.00010000                0.05564943                0.05876930               -0.26983153                0.01598108               -0.10504530                0.62998050
              18.47189849                7.22872822               87.75874741                0.00010000                0.02466941               -0.01390124                0.00777431                0.02359429               -0.14299013                0.09574967
              19.47183539                6.69813480               87.34960186                0.00010000               -0.03317944               -0.07260900                0.24816871               -0.01125974               -0.11365466               -0.16098900
              20.47123491                6.16585526               86.94160756                0.00010000               -0.02756256               -0.19757309                0.48588405               -0.03919362                0.05362487               -0.17462032
              21.47128414                5.63107926               86.53561200                0.00010000                0.04232484               -0.30643675                0.68703896               -0.05127828                0.36850721               -0.10989802
              22.47208140                5.09356475               86.13370669                1.00000000                0.20917184               -0.44877343                0.92348816               -0.06314577                0.96850180               -0.15581611
              23.47546757                4.55239518               85.73910753                1.00000000                0.63963895               -0.61293834                1.05458017               -0.02584394                1.84556741               -0.21267847
              24.48487418                4.00763459               85.35466896                1.00000000                1.19576670               -0.69648139                0.67696159               -0.12391649                2.38935339               -0.48861609
              25.49938291                3.45970808               84.97878721                1.00000000                0.98524785                0.00687340               -0.37962959               -0.65152577                1.33808056               -0.03762059
              26.50457914                2.91615097               84.60347454                1.00000000                0.45932589                0.37543878               -1.32772243               -0.18297627                0.75341296               -0.25322963
              27.50856943                2.37570457               84.21917251                1.00000000                0.39902875                0.34307080               -1.16093282               -0.06409251                0.27604939                0.04495403
              18.00211700                8.75947227               88.03101243                0.00010000                0.07246439                0.04665542               -0.28155253               -0.00450065                0.00906710                0.76834636
              19.00284165                8.22851092               87.61966793                0.00010000                0.05850735               -0.01848227                0.00116965               -0.01709842                0.10175383                0.08685781
              20.00328715                7.69732497               87.21039833                0.00010000                0.11807050               -0.06715111                0.24562930               -0.18507792                0.54737416               -0.50113505
              21.00520306                7.16352072               86.80802595                0.00010000                0.22041122               -0.65278153                0.40573182               -0.82422441                0.89718631               -1.35027074
              22.00769537                6.62773578               86.40592931                0.00010000                0.32028423               -0.89262186                0.55475983               -1.31974809                1.03963552               -2.19882599
              23.01160874                6.08877317               86.00678737                1.00000000                0.54158177               -1.09184571                0.69625089               -1.80216024                1.44672266               -3.22153580
              24.01852701                5.54591188               85.61345252                1.00000000                0.90047293               -1.23758203                0.70937012               -2.20901266                1.93709904               -4.42542462
              25.02961820                5.00020635               85.22728827                1.00000000                1.12901920               -1.20532064                0.36974162               -2.32852798                2.02214932               -5.60751235
              26.04110739                4.45836789               84.84917319                0.00010000                0.77182114               -0.77422827               -0.37073772               -2.19349713                0.91098947               -7.04467084
              27.04505462                3.91930094               84.47010485                1.00000000                0.37443844               -0.34362015               -1.08365380               -1.57465900                0.48210851               -8.51538815
              28.04859616                3.37894630               84.08726798                1.00000000                0.35415399                0.37717086               -1.00713700               -1.08435529                0.26485427               -9.27275414
              18.53317469                9.75992785               87.89416642                0.00010000                0.05291341                0.05357779               -0.27352768               -0.02448327                0.09057646                0.69020798
              19.53370383                9.22835857               87.47975209                0.00010000               -0.00253334               -0.01063117                0.01406569               -0.04589763                0.14923825               -0.09322094
              20.53312403                8.69679178               87.06666464                0.00010000               -0.46821125               -0.09554294                0.28219772               -0.70941217               -0.00645790               -0.90926106
              21.52433960                8.15279963               86.64887899                0.00010000               -0.67436521               -0.77896251                0.36505728               -1.95130320               -0.28533694               -2.52390994
              22.51963672                7.61322682               86.23269489                0.00010000               -0.32387502               -1.11155478                0.28329948               -2.57763554               -0.49062902               -4.15546280
              23.51786210                7.07172783               85.81595638                0.00010000                0.01087095               -1.26509524               -0.03836048               -3.42048242               -0.85719375               -6.05309999
              24.51985414                6.52764354               85.39951724                0.00010000                0.39927521               -1.26809667               -0.61590131               -4.05284006               -1.14269223               -8.23540245
              25.52584761                5.98352818               84.98573221                0.00010000                0.82821147               -1.08410218               -1.40849378               -4.19373712               -1.16478757              -10.59749641
              26.53641837                5.44422352               84.57708211                0.00010000                1.33299718               -0.90352026               -2.31911915               -3.75461754               -0.82532750              -13.47458381
              27.55250755                4.90927857               84.17269622                0.00010000                1.55866189               -0.55059831               -3.10931590               -2.41287131               -0.64295460              -16.12295024
              28.56759161                4.38324798               83.76848070                0.00010000                1.50840589                0.44096054               -3.37799436               -1.12024715               -0.09927096              -18.33358265
              19.06476590               10.76054383               87.75619492                0.00010000                0.02938687                0.07329681               -0.25345223               -0.01205783                0.00750329                0.59406088
              20.06505976               10.22829829               87.33700336                0.00010000               -0.00540244               -0.02571977                0.05883910               -0.05738179                0.07054610               -0.24510507
              21.06465785                9.69541411               86.91915083                0.00010000               -0.76589053               -0.16405442                0.31378098               -0.81339292               -0.38941260               -1.13642010
              22.04974195                9.14794147               86.49052869                0.00010000               -1.37216918               -0.31869363                0.32281817               -1.84636136               -1.17295760               -2.37098343
              23.03721446                8.60550469               86.06131648                0.00010000               -1.04797895               -0.46238958                0.03695088               -2.27329295               -1.77893178               -3.79215682
              24.02878237                8.06347127               85.62879737                0.00010000               -0.57722987               -0.43861073               -0.62447405               -2.93899032               -2.59742387               -5.44692118
              25.02566987                7.52054994               85.19322995                0.00010000                0.01905547               -0.26911027               -1.64187035               -3.42964306               -3.23179017               -7.33105216
              26.02916348                6.97852431               84.75725289                0.00010000                0.72973935               -0.03343243               -2.87971230               -3.44553507               -3.31519095               -9.44500063
              27.04026465                6.44029749               84.32501576                0.00010000                1.43046220                0.14013677               -4.14271490               -2.94314115               -2.74382429              -11.74700531
              28.05777273                5.90828898               83.89969593                0.00010000                1.89938674                0.41727438               -5.18287051               -1.90735185               -1.53914046              -13.97439031
              29.07825239                5.38776551               83.48379936                0.00010000                2.04796595                0.71689277               -5.56388631               -0.86821831               -0.47014638              -15.57216806
              19.59742460               11.76139379               87.61729672                0.00010000                0.02613064                0.08749107               -0.23273326               -0.01329864               -0.00273046                0.54037022
              20.59768591               11.22784418               87.19402842                0.00010000               -0.01058050               -0.05198997                0.07686605               -0.05610584               -0.00429314               -0.25286151
              21.59721299               10.69351069               86.77078652                0.00010000               -1.01820553               -0.19213175                0.36650113               -0.73923888               -0.70606243               -1.10593548
              22.57732180               10.14642576               86.33324952                0.00010000               -1.92859633               -0.03001225                0.29500956               -1.61871613               -1.82747973               -2.14941914
              23.55864107                9.60397903               85.89315735                0.00010000               -1.66423797                0.08861558               -0.15224249               -1.89598317               -2.74308680               -3.32354963
              24.54403704                9.06295562               85.44730193                0.00010000               -1.12164128                0.26794440               -1.07938340               -2.39022633               -3.87906153               -4.71389718
              25.53620824                8.52226134               84.99588802                0.00010000               -0.34238384                0.53295266               -2.44156338               -2.76381838               -4.74156974               -6.32374857
              26.53718936                7.98285953               84.54231027                0.00010000                0.57913183                0.83431619               -4.07756940               -2.77424330               -4.91533283               -8.10241928
              27.54779088                7.44702625               84.09212668                0.00010000                1.48515634                1.11656667               -5.72417618               -2.32376357               -4.13715429               -9.95856105
              28.56689249                6.91762406               83.65184006                0.00010000                2.17416504                1.36221712               -7.02186084               -1.37901382               -2.39550750              -11.64614792
              29.59127418                6.39758584               83.22726567                0.00010000                2.43816888                1.38091735               -7.54624754               -0.56590523               -0.90218245              -12.77349518
              20.13159914               12.76229365               87.47818581                0.00010000                0.02215978                0.08964554               -0.22388486               -0.00884783               -0.00556732                0.52462874
              21.13182074               12.22725849               87.05099305                0.00010000               -0.01538289               -0.05733030                0.08772419               -0.04462553               -0.01653857               -0.24083831
              22.13129149               11.69157147               86.62362046                0.00010000               -1.24607235               -0.18715989                0.39164599               -0.51121094               -0.91388583               -0.99694201
              23.10689929               11.14734122               86.17827349                0.00010000               -2.42632725                0.20243502                0.28944007               -1.16635932               -2.29915140               -1.83945289
              24.08276494               10.60727700               85.72950876                0.00010000               -2.21018758                0.53152048               -0.27593311               -1.41094352               -3.40951086               -2.76395343
              25.06269554               10.06883015               85.27303862                0.00010000               -1.61376762                0.84711251               -1.40683020               -1.81898453               -4.78761729               -3.86969698
              26.05048959                9.53120900               84.80909836                0.00010000               -0.68909200                1.18664942               -3.04844934               -2.12117790               -5.83862110               -5.15706806
              27.04891370                8.99521063               84.34182603                0.00010000                0.42676328                1.54818606               -5.00655461               -2.11875778               -6.06881756               -6.57000465
              28.05902485                8.46262882               83.87828622                0.00010000                1.53595798                1.88966300               -6.96697308               -1.72659726               -5.16108825               -7.98891691
              29.07963286                7.93553332               83.42704928                0.00010000                2.39929298                2.13161813               -8.51738124               -0.97342829               -3.03417578               -9.21396911
              30.10701071                7.41538386               82.99657966                0.00010000                2.73778517                2.15224186               -9.18277860               -0.37154910               -1.24706553               -9.95048079
              20.66731795               13.76318670               87.33899021                0.00010000                0.01976187                0.08713186               -0.22299004               -0.00480896               -0.00497337                0.51142733
              21.66751557               13.22669757               86.90805469                0.00010000               -0.02059546               -0.05172954                0.09517621               -0.02881441               -0.01023685               -0.21654733
              22.66690604               12.68976750               86.47703904                0.00010000               -1.46132418               -0.17217412                0.40646379               -0.17801609               -0.98586107               -0.92698523
              23.63828909               12.15047446               86.02639496                0.00010000               -2.89863894                0.43163825                0.30820181               -0.55100477               -2.52260486               -1.47353947
              24.60893326               11.61460944               85.57145309                0.00010000               -2.72818693                0.92272916               -0.32783950               -0.84963201               -3.80378585               -2.13164684
              25.58372535               11.07989787               85.10716855                0.00010000               -2.07645291                1.32009060               -1.60586137               -1.26860150               -5.39388761               -2.93645414
              26.56740421               10.54599432               84.63384705                0.00010000               -1.01654830                1.69454749               -3.45939915               -1.53576153               -6.61546651               -3.88105894
              27.56339438               10.01382325               84.15632980                0.00010000                0.27660178                2.08403012               -5.66872838               -1.52707585               -6.91243012               -4.90811584
              28.57293624                9.48481951               83.68294855                0.00010000                1.56372510                2.44988090               -7.87939101               -1.21264893               -5.91058775               -5.90737854
              29.59466889                8.96025642               83.22400460                0.00010000                2.56029399                2.71632529               -9.63096111               -0.65695102               -3.49236112               -6.70474807
              30.62414212                8.44063068               82.78977977                0.00010000                2.94732363                2.80222206              -10.40432310               -0.23794019               -1.49092013               -7.09489640
              21.20448122               14.76403628               87.19970328                0.00010000                0.01824368                0.08192383               -0.22653430               -0.00064678                0.00337059                0.48605885
              22.20466366               14.22622390               86.76527808                0.00010000               -0.02634724               -0.04359921                0.10213672               -0.01539109                0.00058871               -0.19490349
              23.20395427               13.68812799               86.33080755                0.00010000               -1.68132005               -0.15509479                0.41986193                0.26169826               -0.89626441               -0.77114643
              24.17103725               13.15597399               85.87823029                0.00010000               -3.38026910                0.72426482                0.35970750                0.20221821               -2.46352258               -1.05972613
              25.13634889               12.62573158               85.41975527                0.00010000               -3.25493131                1.31894765               -0.29914375               -0.33716994               -3.95572369               -1.44382326
              26.10593863               12.09523197               84.95038660                0.00010000               -2.52499573                1.68119418               -1.66807360               -0.80132216               -5.76254268               -1.95266901
              27.08584898               11.56509995               84.47053381                0.00010000               -1.31958148                2.04839416               -3.67287593               -1.03238383               -7.16649360               -2.55653608
              28.07954700               11.03689123               83.98567343                0.00010000                0.12448648                2.44447104               -6.07140185               -1.01389975               -7.55423719               -3.20752016
              29.08833871               10.51162644               83.50524304                0.00010000                1.55678381                2.82345501               -8.47402300               -0.78275252               -6.49824597               -3.82006664
              30.11068267                9.98985983               83.04106857                0.00010000                2.65823423                3.10964691              -10.37225762               -0.40604864               -3.85081626               -4.24670075
              31.14150339                9.47142830               82.60494912                0.00010000                3.08207166                3.24086839              -11.19943965               -0.13316439               -1.68835558               -4.29143820
              21.74292978               15.76482517               87.06012449                0.00010000                0.01862624                0.07798722               -0.23389133                0.00210090                0.02983233                0.38513136
              22.74311604               15.22582559               86.62256114                0.00010000               -0.02699287               -0.03971205                0.11325461               -0.00543514                0.12371109               -0.18399762
              23.74238992               14.68666560               86.18687143                0.00010000               -1.91930900               -0.14192058                0.41970406                0.85774183               -0.61544047               -0.58182511
              24.70472986               14.16495976               85.73431026                0.00010000               -3.97290174                1.29485018                0.45545595                0.69545613               -2.20220344               -0.56252410
              25.66293189               13.64098839               85.27496792                0.00010000               -3.81996610                1.60276208               -0.17454558               -0.01592570               -3.90832894               -0.72676765
              26.62833054               13.11352175               84.80293992                0.00010000               -2.89173121                1.89446729               -1.58586845               -0.43532174               -5.96795610               -0.96874500
              27.60509726               12.58696221               84.31899190                0.00010000               -1.58703218                2.24851090               -3.69159135               -0.55742056               -7.58663898               -1.25436260
              28.59658990               12.06271267               83.82909671                0.00010000               -0.03923325                2.65253134               -6.23336951               -0.53545566               -8.11241888               -1.55988890
              29.60431260               11.54128861               83.34355978                0.00010000                1.50780773                3.04322149               -8.79243306               -0.40478937               -7.05993988               -1.84045977
              30.62674605               11.02244936               82.87564570                0.00010000                2.70146454                3.34050963              -10.80829342               -0.20411084               -4.21403782               -2.00575747
              31.65834189               10.50544804               82.43924669                0.00010000                3.15958375                3.47454965              -11.63121347               -0.04583548               -1.89975884               -1.81485412
              22.28252241               16.76559603               86.91895111                0.00010000                0.01921147                0.07708536               -0.24202386               -0.05737344                0.19745379                0.29875724
              23.28271453               16.22542966               86.47981525                0.00010000               -0.02737364               -0.03959252                0.11821513               -0.05547396                0.36390615               -0.17602931
              24.28197494               15.68528958               86.04398859                0.00010000               -2.60454716               -0.13760203                0.41539701                1.78056826               -0.08005586               -0.50709608
              25.23062358               15.18187099               85.59575447                0.00010000               -4.72532790                1.69112352                0.62364031                1.21423428               -1.69541277               -0.26238369
              26.18746838               14.65778682               85.13720923                0.00010000               -3.96826025                1.67984295                0.05856682                0.01616541               -3.74909730               -0.36852781
              27.15125838               14.13312131               84.66456729                0.00010000               -3.09793667                1.95995596               -1.35533673               -0.09304907               -6.08624177               -0.46054027
              28.12550965               13.61007016               84.17850102                0.00010000               -1.83734488                2.31079572               -3.52902415               -0.11773417               -7.97076583               -0.54206316
              29.11451148               13.08994186               83.68530390                0.00010000               -0.25017074                2.72291890               -6.18979033               -0.08680641               -8.69525030               -0.60657023
              30.12050623               12.57249087               83.19583948                0.00010000                1.39647713                3.12022564               -8.89932081               -0.04422854               -7.74340150               -0.64080159
              31.14244102               12.05667002               82.72412900                0.00010000                2.70415355                3.42206624              -11.07127607               -0.00908158               -4.79398996               -0.61141564
              32.17458930               11.54091929               82.28678121                0.00010000                3.21482806                3.54712465              -11.93387876                0.04966880               -2.36404043               -0.26749926
              17.34334451                6.90277861               89.30476105                0.00010000                0.01262787                0.05481976               -0.19101165                0.04362654               -0.51502331                0.46603101
              18.34347078                6.36919735               88.89869410                0.00010000               -0.03512156               -0.00825463                0.03813926                0.04780809               -0.70997096                0.06608675
              19.34264207                5.83514591               88.48898704                0.00010000               -0.11850648               -0.05661931                0.25957839                0.03756459               -0.76593576               -0.05232899
              20.34110065                5.29995883               88.08167867                0.00010000               -0.19112372               -0.13557119                0.48914769               -0.02829315               -0.69823752               -0.27910135
              21.33881960                4.76268201               87.67293991                0.00010000               -0.20537776               -0.21851759                0.66571140               -0.02200501               -0.45022281               -0.17625988
              22.33699310                4.22331499               87.27029948                0.00010000               -0.10706957               -0.31049739                0.83528821               -0.02538913                0.22554359               -0.21739283
              23.33667821                3.68129261               86.87475176                0.00010000                0.18757755               -0.38359579                0.89352203               -0.05502869                1.02797673               -0.29533964
              24.34074465                3.13639858               86.48785453                0.00010000                0.58725135               -0.33987982                0.41988801               -0.33494162                1.40888978               -0.45254306
              25.34842324                2.58838978               86.10500074                0.00010000                0.52719346                0.04351548               -0.23793228               -0.63313713                0.66902487                0.06480533
              26.35128852                2.04429009               85.72470338                1.00000000                0.33858410                0.29626247               -1.22319431               -0.24067269                0.44227749               -0.02757225
              27.35519492                1.50312314               85.33779016                1.00000000                0.39063977                0.36881171               -1.31452431               -0.12467899                0.05360467               -0.12255427
              17.87736203                7.90332681               89.16489512                0.00010000                0.04031875                0.04935088               -0.21083011                0.00964519               -0.12629798                0.61831645
              18.87776522                7.36911480               88.75884623                0.00010000                0.01374757               -0.01324564                0.01745091                0.01519961               -0.18893621                0.09623976
              19.87763698                6.83457971               88.35190674                0.00010000               -0.03577726               -0.06285574                0.21758806               -0.01507766               -0.19011736               -0.15681945
              20.87704967                6.29860312               87.94602620                0.00010000               -0.03577560               -0.15938640                0.40288476               -0.03966633               -0.06506051               -0.19282544
              21.87692147                5.76049683               87.54169186                0.00010000                0.01921180               -0.23392420                0.54132372               -0.04879494                0.18174986               -0.10248875
              22.87743391                5.22021002               87.14150378                0.00010000                0.13323300               -0.32142718                0.66969990               -0.05306046                0.61626675               -0.12247190
              23.87958613                4.67745665               86.74714104                1.00000000                0.32063718               -0.37779846                0.64561219               -0.04996222                1.05248486               -0.15407453
              24.88384665                4.13299978               86.35900274                0.00010000                0.42799900               -0.30315238                0.32467734               -0.11558780                1.17534478               -0.20847217
              25.88814611                3.58882493               85.97587766                0.00010000                0.38342303                0.02479199               -0.26813766               -0.23345490                0.78731915               -0.01281902
              26.89151511                3.04725271               85.59314369                1.00000000                0.34844830                0.24616312               -0.89613338               -0.09394975                0.46039799               -0.09238901
              27.89511507                2.50681126               85.20678027                1.00000000                0.35999632                0.34645918               -1.19830275               -0.08444985                0.21379184               -0.11083741
              18.41196141                8.90376563               89.02840196                0.00010000                0.05604565                0.04720198               -0.23062742               -0.00726449               -0.01913550                0.76842950
              19.41252187                8.36893244               88.61966810                0.00010000                0.04453971               -0.01513374                0.00365142               -0.01703780                0.04532509                0.10058955
              20.41285221                7.83388879               88.21262831                0.00010000                0.09341686               -0.05966492                0.20479469               -0.14624184                0.41128748               -0.46245794
              21.41439021                7.29677110               87.81156924                0.00010000                0.16922966               -0.58421186                0.31500617               -0.81113191                0.65275601               -1.28746370
              22.41623680                6.75800353               87.41063913                0.00010000                0.22909316               -0.77648182                0.41345710               -1.39342874                0.70273667               -2.18076949
              23.41897207                6.21688645               87.01238776                0.00010000                0.33262009               -0.93252702                0.47998838               -1.93273738                0.90741080               -3.36167840
              24.42288920                5.67373664               86.61864626                0.00010000                0.40462723               -1.03406659                0.42711828               -2.28122842                1.06992181               -4.80411251
              25.42706462                5.13033553               86.22987941                0.00010000                0.33060006               -1.02879116                0.20657094               -2.28438587                1.02877292               -6.39176581
              26.42950120                4.58888562               85.84627714                0.00010000                0.21792923               -0.91402652               -0.26143854               -1.84343395                0.71441234               -8.18840790
              27.43142320                4.04921335               85.46261156                0.00010000                0.24438130               -0.77379268               -0.66410717               -1.06213185                0.43640545               -9.80756796
              28.43438883                3.51005232               85.07623780                1.00000000                0.29656303               -0.36119546               -1.05554794               -0.14943643                0.23698387              -10.87583567
              18.94688312                9.90427085               88.89159961                0.00010000                0.04181795                0.05988815               -0.23162765               -0.02206249                0.06176497                0.70967330
              19.94730130                9.36881213               88.47984012                0.00010000               -0.00048183               -0.00942369                0.00668238               -0.03642322                0.10503148               -0.05455874
              20.94687348                8.83338641               88.06921957                0.00010000               -0.52944987               -0.09269242                0.22591453               -0.61706205               -0.10328419               -0.86013083
              21.93671230                8.28691888               87.65296482                0.00010000               -0.89679661               -0.70487647                0.50147026               -1.87475232               -0.54182953               -2.35354068
              22.92893755                7.74496720               87.23611500                0.00010000               -0.68331278               -0.98674223                0.47313414               -2.66348925               -1.07796903               -4.09892189
              23.92304604                7.20155948               86.81588040                0.00010000               -0.42125347               -1.13011438                0.09697211               -3.63257784               -1.81094912               -6.34972951
              24.92051248                6.65677532               86.39316683                0.00010000               -0.00180427               -1.20796465               -0.61067124               -4.26841912               -2.36334849               -9.12967575
              25.92300996                6.11242396               85.97077075                0.00010000                0.59435654               -1.24912220               -1.60064917               -4.28318773               -2.48431984              -12.33550499
              26.93239961                5.57054440               85.55184659                0.00010000                1.30479051               -1.26528776               -2.77234889               -3.53836543               -2.11975750              -15.84349922
              27.94910577                5.03177686               85.13822965                0.00010000                1.90243942               -1.13384325               -3.84363762               -2.05171246               -1.38419357              -18.96370584
              28.97044840                4.49958735               84.73020846                0.00010000                2.13426298               -0.50838306               -4.41235978               -0.49386347               -0.35085475              -21.38986337
              19.48243760               10.90496339               88.75379866                0.00010000                0.02402405                0.07848488               -0.21966007               -0.01143447                0.00406905                0.62276449
              20.48267784               10.36874396               88.33749648                0.00010000               -0.00166905               -0.02259021                0.04109975               -0.04577673                0.03896240               -0.20524585
              21.48240422                9.83203494               87.92202313                0.00010000               -0.86817295               -0.15568736                0.25812657               -0.69912142               -0.49475461               -1.08061768
              22.46531438                9.28267357               87.49478916                0.00010000               -1.70388984               -0.26639256                0.59822430               -1.70530227               -1.49046047               -2.21372209
              23.44832642                8.73826868               87.06318123                0.00010000               -1.54009946               -0.38185187                0.43539027               -2.24351876               -2.56116440               -3.74297719
              24.43451239                8.19428416               86.62369177                0.00010000               -1.08350388               -0.36673545               -0.30279531               -2.99534813               -3.88039055               -5.72864364
              25.42665634                7.64957735               86.17691291                0.00010000               -0.34403047               -0.28141213               -1.57081414               -3.52209144               -4.89576247               -8.16753672
              26.42763178                7.10535309               85.72685019                0.00010000                0.63623253               -0.17943135               -3.21930807               -3.56907774               -5.16311621              -10.98384339
              27.43938099                6.56357986               85.27966056                0.00010000                1.68571122               -0.06786613               -5.01140973               -3.07953865               -4.44338246              -13.96977794
              28.46134600                6.02653649               84.84188312                0.00010000                2.47547945                0.16275311               -6.56287650               -1.94054633               -2.62937925              -16.70079216
              29.48889058                5.49988466               84.42032076                0.00010000                2.75445770                0.54372626               -7.38176050               -0.85876441               -0.96908442              -18.57019808
              20.01909328               11.90584054               88.61508662                0.00010000                0.02209302                0.08783008               -0.20494370               -0.01185594               -0.00504594                0.56329721
              21.01931421               11.36836033               88.19469366                0.00010000               -0.00659173               -0.04274364                0.05714742               -0.04454399               -0.01642031               -0.22702916
              22.01896144               10.83027267               87.77417299                0.00010000               -1.14708464               -0.17346989                0.30801752               -0.61229609               -0.81148424               -1.05150556
              22.99637252               10.28159103               87.33764816                0.00010000               -2.32524295                0.00337984                0.66855598               -1.43427612               -2.20530626               -2.00940842
              23.97245658                9.73733016               86.89371834                0.00010000               -2.22710515                0.12988168                0.38405904               -1.79805844               -3.68026280               -3.28365179
              24.95183041                9.19422477               86.43810522                0.00010000               -1.67274301                0.30347357               -0.64952929               -2.37611032               -5.42838479               -4.96707122
              25.93900172                8.65114708               85.97154523                0.00010000               -0.71022615                0.54045700               -2.36553181               -2.82141161               -6.77531986               -7.04242668
              26.93762589                8.10883533               85.49924975                0.00010000                0.53118563                0.81443744               -4.55731141               -2.90484678               -7.15257742               -9.40951962
              27.94962544                7.56918708               85.02976861                0.00010000                1.81820757                1.11108751               -6.88523708               -2.51124753               -6.16864645              -11.87162420
              28.97399004                7.03503192               84.57359454                0.00010000                2.84756583                1.43088257               -8.88101341               -1.55131127               -3.67735764              -14.07152213
              30.00657675                6.51046187               84.14161176                0.00010000                3.25867127                1.60581541               -9.95267058               -0.64439519               -1.49529643              -15.51906843
              20.55716092               12.90671999               88.47605552                0.00010000                0.01939191                0.08576691               -0.19897049               -0.00791377               -0.00714028                0.53627373
              21.55735483               12.36788909               88.05176672                0.00010000               -0.01166623               -0.04541953                0.06789767               -0.03462699               -0.02216214               -0.21809833
              22.55692759               11.82856554               87.62724576                0.00010000               -1.38917352               -0.16274424                0.33226711               -0.39221429               -1.01388200               -0.95597239
              23.52957136               11.28274117               87.18293098                0.00010000               -2.85980396                0.21648741                0.73645618               -0.97735130               -2.70394743               -1.72405791
              24.49973151               10.74086631               86.72926746                0.00010000               -2.81990502                0.54326870                0.36176012               -1.28844343               -4.45946979               -2.73669408
              25.47317326               10.20035363               86.26088904                0.00010000               -2.20569813                0.87075529               -0.90022909               -1.77076667               -6.53770573               -4.08460831
              26.45561755                9.66038649               85.77868763                0.00010000               -1.08392100                1.23926388               -2.96753865               -2.14903982               -8.14299590               -5.74647801
              27.45149484                9.12164183               85.28899550                0.00010000                0.36709504                1.65444985               -5.59022214               -2.22413689               -8.60591281               -7.62400047
              28.46295945                8.58580161               84.80242777                0.00010000                1.87750707                2.09048804               -8.36387232               -1.89101599               -7.44894573               -9.53241592
              29.48904498                8.05515414               84.33230408                0.00010000                3.10916612                2.47800902              -10.74080532               -1.11972314               -4.46057868              -11.18709455
              30.52514277                7.53200097               83.89263622                0.00010000                3.60977871                2.66090380              -12.06088310               -0.45375653               -1.90410440              -12.21600393
              21.09659680               13.90755588               88.33686613                0.00010000                0.01793124                0.08055322               -0.19925275               -0.00454463               -0.00664719                0.51480376
              22.09677611               13.36745193               87.90890217                0.00010000               -0.01658612               -0.03996535                0.07505284               -0.02205107               -0.01526589               -0.19483925
              23.09626508               12.82701778               87.48081157                0.00010000               -1.61256974               -0.14666368                0.34621942               -0.08035291               -1.07315188               -0.88811161
              24.06452472               12.28592078               87.03150447                0.00010000               -3.35949133                0.42936822                0.81642929               -0.38830852               -2.92361676               -1.38634624
              25.02907525               11.74819553               86.57107248                0.00010000               -3.38149076                0.91442025                0.39678248               -0.73229986               -4.92058501               -2.11874900
              25.99689490               11.21163987               86.09335217                0.00010000               -2.71712640                1.34254062               -1.02500065               -1.20505607               -7.28236681               -3.10878518
              26.97473273               10.67593236               85.59943148                0.00010000               -1.45834384                1.79072911               -3.35326975               -1.53260593               -9.11637479               -4.32923029
              27.96772803               10.14192433               85.09663878                0.00010000                0.17800449                2.29745290               -6.30547916               -1.58725417               -9.67106649               -5.69251436
              28.97829282                9.61099684               84.59732300                0.00010000                1.88340958                2.82263058               -9.42599074               -1.31749964               -8.39606479               -7.04229711
              30.00539622                9.08459210               84.11706054                0.00010000                3.27575690                3.27984678              -12.10659940               -0.75067030               -5.03632620               -8.14230482
              31.04380795                8.56367995               83.67221559                0.00010000                3.84117338                3.55506187              -13.62736810               -0.29581975               -2.20530065               -8.71853840
              21.63727792               14.90833106               88.19754326                0.00010000                0.01739950                0.07442745               -0.20343619               -0.00118291                0.00095766                0.48323353
              22.63745191               14.36708978               87.76618885                0.00010000               -0.02131138               -0.03320697                0.08062564               -0.01164199               -0.00655278               -0.17184062
              23.63685169               13.82563227               87.33470787                0.00010000               -1.84122350               -0.13082302                0.35861092                0.33010832               -0.95756512               -0.73827446
              24.60062744               13.29132853               86.88411900                0.00010000               -3.87426360                0.71147434                0.92786409                0.31904152               -2.82350173               -0.99843893
              25.55936642               12.75915472               86.42007177                0.00010000               -3.96460617                1.29572776                0.51813652               -0.24518622               -5.09104648               -1.44303170
              26.52133532               12.22720444               85.93636371                0.00010000               -3.23427198                1.70327221               -0.99316832               -0.73756710               -7.73615981               -2.07787341
              27.49468098               11.69620107               85.43427063                0.00010000               -1.83250214                2.17662197               -3.50154680               -1.00605510               -9.81461469               -2.85565447
              28.48468528               11.16759089               84.92200927                0.00010000               -0.03696484                2.73223622               -6.69618763               -1.03223768              -10.49575383               -3.71534812
              29.49394168               10.64225422               84.41342800                0.00010000                1.83315967                3.31155165              -10.07791838               -0.83488982               -9.15588406               -4.54074800
              30.52134847               10.12075107               83.92617107                0.00010000                3.35544995                3.81957702              -12.97875714               -0.45575684               -5.50015818               -5.12852879
              31.56105068                9.60310221               83.47864059                0.00010000                3.97022107                4.17014821              -14.62025341               -0.17256137               -2.45989576               -5.20589575
              22.17905569               15.90904443               88.05789185                0.00010000                0.01863725                0.07059435               -0.21114860                0.00104616                0.03059118                0.37801424
              23.17924206               15.36678780               87.62356501                0.00010000               -0.02135947               -0.03006630                0.08785018               -0.00405091                0.10616218               -0.16259016
              24.17862850               14.82440132               87.19075468                0.00010000               -2.09294782               -0.11900083                0.35640634                0.89537402               -0.62971180               -0.55645190
              25.13738310               14.30015026               86.74148746                0.00010000               -4.51664394                1.27307143                1.09907520                0.76116037               -2.46087772               -0.51835431
              26.08829562               13.77411009               86.27707301                0.00010000               -4.61429457                1.56316135                0.76719622                0.03625360               -4.99999403               -0.73985792
              27.04509721               13.24570532               85.79034025                0.00010000               -3.70352215                1.90997727               -0.77279535               -0.39125314               -7.98770266               -1.04110506
              28.01422518               12.71946480               85.28308135                0.00010000               -2.20335449                2.38796235               -3.39545788               -0.53031779              -10.36575687               -1.40446140
              29.00103012               12.19656905               84.76419571                0.00010000               -0.28951679                2.97361329               -6.76862960               -0.53412597              -11.24539589               -1.80340349
              30.00843484               11.67722787               84.24872876                0.00010000                1.72014885                3.58631386              -10.35617949               -0.42635902               -9.92035190               -2.17744064
              31.03543310               11.16098364               83.75634227                0.00010000                3.36098064                4.12175339              -13.42576516               -0.22818997               -5.99620059               -2.39971728
              32.07565445               10.64708291               83.30845762                0.00010000                4.02213539                4.48892994              -15.09609402               -0.07507807               -2.74867168               -2.11841496
              22.72181211               16.90974294               87.91663068                0.00010000                0.02018908                0.06985112               -0.22076861               -0.04980582                0.19515546                0.28983743
              23.72201400               16.36648846               87.48085055                0.00010000               -0.02077056               -0.02993370                0.08866296               -0.04733997                0.33318004               -0.15769720
              24.72139670               15.82325225               87.04781827                0.00010000               -2.79360598               -0.11490674                0.34880027                1.79189558                0.00153851               -0.48247376
              25.66614188               15.31678996               86.60517345                0.00010000               -5.34301328                1.66396979                1.40100170                1.23416266               -1.69466433               -0.32986033
              26.61453644               14.79041795               86.14244494                0.00010000               -4.89931672                1.63078576                1.18983551                0.05478310               -4.73286732               -0.46342280
              27.56815555               14.26540399               85.65516437                0.00010000               -4.06627727                1.96986714               -0.33118852               -0.01704763               -8.14100861               -0.56673848
              28.53321089               13.74396032               85.14507088                0.00010000               -2.59579348                2.44955221               -3.02969300               -0.01847008              -10.91101295               -0.65320623
              29.51623968               13.22706316               84.62156502                0.00010000               -0.61054904                3.04941078               -6.55007027                0.02196496              -12.08412654               -0.71967041
              30.52099991               12.71398050               84.10048073                0.00010000                1.53449751                3.67526280              -10.32879033                0.06265608              -10.91727860               -0.74564783
              31.54692963               12.20318614               83.60252965                0.00010000                3.31753325                4.22024978              -13.60035217                0.09466841               -6.85517110               -0.68210565
              32.58735057               11.69288081               83.15321099                0.00010000                4.04209450                4.57978934              -15.33185347                0.13907899               -3.44742620               -0.14865323
              17.74309777                7.04734937               90.30322249                0.00010000               -0.00133619                0.03707998               -0.11271537                0.02731025               -0.50863586                0.45245526
              18.74308441                6.50980642               89.89917923                0.00010000               -0.03808332               -0.01274012                0.06099497                0.02946497               -0.70478973                0.06538128
              19.74233611                5.97189118               89.49147897                0.00010000               -0.10353243               -0.05340370                0.23966854                0.02112927               -0.75543902               -0.05430738
              20.74101376                5.43319508               89.08620882                0.00010000               -0.17654772               -0.10868987                0.41401180               -0.03930722               -0.70680106               -0.29090178
              21.73880515                4.89283542               88.67898591                0.00010000               -0.20635801               -0.15051516                0.54868781               -0.04650543               -0.50463585               -0.17147871
              22.73688660                4.35099218               88.27751289                0.00010000               -0.13434684               -0.19651420                0.63374640               -0.06041029                0.05906469               -0.17232015
              23.73611822                3.80748530               87.88173618                0.00010000                0.02258190               -0.20661061                0.57723604               -0.12016514                0.54461592               -0.22247404
              24.73733824                3.26278869               87.49098238                0.00010000                0.15338574               -0.13484246                0.25331707               -0.25501003                0.71165473               -0.22808174
              25.73918593                2.71777269               87.10305336                0.00010000                0.17142636                0.04026180               -0.17982500               -0.24118666                0.44347010               -0.03767301
              26.74076677                2.17436012               86.71459300                1.00000000                0.23489089                0.20348974               -0.83711669               -0.09418329                0.25637057                0.02176378
              27.74388375                1.63165358               86.32484960                1.00000000                0.31169804                0.33866034               -1.17851299               -0.10181999                0.10319709               -0.17649371
              18.28091383                8.04772017               90.16313500                0.00010000                0.01943278                0.03935039               -0.13678922                0.00109702               -0.13709566                0.60254489
              19.28110816                7.50967902               89.75909643                0.00010000               -0.00303797               -0.01388003                0.03557051                0.00371792               -0.21365279                0.09653056
              20.28085307                6.97135714               89.35395362                0.00010000               -0.04797921               -0.05641013                0.19426310               -0.01475903               -0.23823287               -0.14950881
              21.28014857                6.43210818               88.94966525                0.00010000               -0.07057579               -0.11811284                0.33619444               -0.03966352               -0.15309685               -0.20559118
              22.27944155                5.89133027               88.54643847                0.00010000               -0.05955041               -0.15690846                0.43338436               -0.04773563                0.03764476               -0.09482912
              23.27895756                5.34902704               88.14710069                0.00010000               -0.02116207               -0.19145931                0.48541930               -0.05239279                0.35139446               -0.08823741
              24.27901831                4.80541919               87.75201977                0.00010000                0.03434426               -0.18407321                0.41286396               -0.06356008                0.61123503               -0.09565458
              25.27964445                4.26144026               87.36116251                0.00010000                0.09850189               -0.10928321                0.17984189               -0.10096760                0.73590173               -0.07484545
              26.28098835                3.71817531               86.97342445                0.00010000                0.16200223                0.04290583               -0.20709353               -0.07838400                0.67530134               -0.02753299
              27.28288449                3.17639502               86.58555187                1.00000000                0.22918729                0.18517505               -0.66857173               -0.00399126                0.42184796               -0.03262508
              28.28557209                2.63504018               86.19520645                1.00000000                0.26876018                0.31739125               -1.05348313               -0.02550346                0.21549978               -0.19703920
              18.81920202                9.04813637               90.02639988                0.00010000                0.03197758                0.05022242               -0.16519291               -0.00999883               -0.03788198                0.76265224
              19.81952179                8.50952882               89.61974096                0.00010000                0.02048709               -0.01199995                0.01398913               -0.01485263                0.00723099                0.11084131
              20.81961176                7.97076298               89.21449423                0.00010000                0.03627864               -0.05813975                0.17139309               -0.08077080                0.30640092               -0.43142503
              21.82024737                7.43083283               88.81432608                0.00010000                0.06599152               -0.47996414                0.25708870               -0.73033575                0.46836754               -1.09623377
              22.82093159                6.88969725               88.41419846                0.00010000                0.07512298               -0.63119981                0.32855392               -1.39748098                0.46816156               -1.99192824
              23.82174983                6.34716299               88.01638714                0.00010000                0.07510992               -0.77989034                0.35474197               -2.01298438                0.57766865               -3.37239680
              24.82243379                5.80380384               87.62199489                0.00010000                0.04064762               -0.93179111                0.29625393               -2.39407328                0.69071424               -5.19346666
              25.82256278                5.26060302               87.23141969                0.00010000                0.01148539               -1.07964833                0.13125515               -2.36680184                0.77608119               -7.34583081
              26.82266350                4.71863080               86.84394442                0.00010000                0.06296464               -1.21026001               -0.20320029               -1.84817114                0.80211060               -9.63604650
              27.82382207                4.17806362               86.45682271                0.00010000                0.17099307               -1.28310646               -0.53670979               -0.85260397                0.57504574              -11.65519072
              28.82608336                3.63800140               86.06615702                1.00000000                0.22612867               -1.18362140               -0.92634043                0.54601836                0.33658614              -13.05147843
              19.35792897               10.04872461               89.88953387                0.00010000                0.02555303                0.06878637               -0.17738300               -0.01607863                0.03930683                0.72256743
              20.35818450                9.50943902               89.47988573                0.00010000                0.00023371               -0.00944885                0.00514268               -0.02187579                0.06911272               -0.02139011
              21.35793364                8.97019435               89.07118293                0.00010000               -0.57884590               -0.09573256                0.16791241               -0.45358989               -0.04482215               -0.81247199
              22.34660758                8.42250890               88.65890840                0.00010000               -1.13859375               -0.59245676                0.74337549               -1.64803998               -0.51590598               -1.94114753
              23.33516177                7.87870628               88.24215758                0.00010000               -1.10081437               -0.83277268                0.81480821               -2.64613512               -1.48215808               -3.72787258
              24.32459129                7.33342923               87.81789582                0.00010000               -0.87324771               -1.02447118                0.38330574               -3.81149217               -2.64565529               -6.41309675
              25.31769681                6.78678337               87.38730381                0.00010000               -0.35549253               -1.24915153               -0.51771163               -4.57097646               -3.54056523               -9.99351317
              26.31748144                6.23984730               86.95371923                0.00010000                0.44337568               -1.51172885               -1.81304022               -4.61112683               -3.86684426              -14.25433821
              27.32656433                5.69397011               86.52163513                0.00010000                1.44901872               -1.78254484               -3.33768904               -3.77069126               -3.45102405              -18.75696216
              28.34646182                5.15073289               86.09582347                0.00010000                2.50262879               -1.95776903               -4.77529193               -2.09497424               -2.19377988              -22.75644165
              29.37661690                4.61136775               85.68023351                0.00010000                3.01550857               -1.65215765               -5.73616097               -0.14091115               -0.63733338              -25.65023100
              19.89745164               11.04951210               89.75180172                0.00010000                0.01629006                0.08391311               -0.17648042               -0.00819415                0.00077292                0.64553426
              20.89761454               10.50933984               89.33782536                0.00010000                0.00092173               -0.02028318                0.02703826               -0.02885716                0.01553301               -0.16453587
              21.89747008                9.96884833               88.92431336                0.00010000               -0.94199513               -0.14681971                0.20110040               -0.51304918               -0.36465555               -1.01501332
              22.87877464                9.41898369               88.50249318                0.00010000               -2.01907585               -0.22065681                1.02922681               -1.43718900               -1.39517811               -1.87929508
              23.85708856                8.87304180               88.07002429                0.00010000               -2.06658772               -0.32432517                1.05541140               -2.14465726               -3.11204081               -3.46683843
              24.83744289                8.32667357               87.62274146                0.00010000               -1.62461841               -0.35061528                0.22702589               -3.05849167               -5.11608650               -5.85584001
              25.82459619                7.77882081               87.16181367                0.00010000               -0.71446892               -0.35726425               -1.37972121               -3.72223085               -6.69925733               -9.00752241
              26.82315351                7.23036845               86.69286673                0.00010000                0.58839430               -0.36617310               -3.57979349               -3.87039548               -7.28658141              -12.73156383
              27.83636408                6.68297991               86.22478757                0.00010000                2.06857165               -0.35717758               -6.06016231               -3.39756891               -6.46177477              -16.65329964
              28.86452494                6.13890824               85.76843840                0.00010000                3.28156658               -0.24801168               -8.33570551               -2.14906419               -3.93830018              -20.22053177
              29.90199541                5.60495825               85.33616415                0.00010000                3.74704688                0.17606304               -9.76253770               -0.95915321               -1.55928803              -22.61167284
              20.43810961               12.05040288               89.61319784                0.00010000                0.01615182                0.08637558               -0.17034886               -0.00783804               -0.00706466                0.58328013
              21.43827113               11.50903335               89.19517137                0.00010000               -0.00404020               -0.03259131                0.04053774               -0.02861039               -0.02346039               -0.19487523
              22.43802881               10.96725796               88.77694687                0.00010000               -1.23004012               -0.15174402                0.24790859               -0.42790412               -0.62840849               -0.98810469
              23.41367033               10.41809576               88.34662064                0.00010000               -2.67250309                0.00100334                1.23351172               -1.15070884               -2.07432932               -1.73441961
              24.38457875                9.87221977               87.90083853                0.00010000               -2.80139363                0.10735884                1.19145110               -1.65749584               -4.34730364               -3.07733187
              25.35764245                9.32641692               87.43431135                0.00010000               -2.25107139                0.26087344                0.03342139               -2.37516564               -6.94939139               -5.11234452
              26.33955732                8.77963809               86.94857738                0.00010000               -1.08640121                0.47861883               -2.13918660               -2.94830325               -9.00285323               -7.78411408
              27.33591443                8.23252383               86.45116405                0.00010000                0.52579177                0.74865730               -5.06529882               -3.14548716               -9.75548310              -10.91903293
              28.35007315                7.68682655               85.95442194                0.00010000                2.27938814                1.07231051               -8.31907219               -2.81889488               -8.62233302              -14.21331756
              29.38150219                7.14577266               85.47421979                0.00010000                3.76303354                1.47085978              -11.28858020               -1.81248218               -5.26323878              -17.18980489
              30.42533382                6.61488901               85.02821225                0.00010000                4.38316310                1.77508498              -13.18297529               -0.77491810               -2.23204273              -19.21914081
              20.98003393               13.05123961               89.47420640                0.00010000                0.01533266                0.07960787               -0.16887655               -0.00499446               -0.00836646                0.54831594
              21.98018726               12.50868801               89.05235100                0.00010000               -0.00921740               -0.03273482                0.05079799               -0.02162430               -0.02437271               -0.18979080
              22.97984958               11.96581345               88.63026580                0.00010000               -1.46943052               -0.13574015                0.27240244               -0.24361758               -0.78663083               -0.90948288
              23.95079865               11.41900376               88.19300261                0.00010000               -3.21160486                0.17318791                1.39986153               -0.73694748               -2.52597372               -1.51396121
              24.91561749               10.87518898               87.73674396                0.00010000               -3.41386943                0.46051883                1.30427103               -1.15088052               -5.19697577               -2.59876186
              25.88252126               10.33189104               87.25503404                0.00010000               -2.80471347                0.79152890               -0.11057320               -1.73596202               -8.24575336               -4.23733033
              26.85952322                9.78839318               86.74974759                0.00010000               -1.47329806                1.20943109               -2.72235868               -2.21583269              -10.64904935               -6.37572094
              27.85305530                9.24534159               86.23002159                0.00010000                0.36070713                1.72176770               -6.21724699               -2.38999766              -11.52686069               -8.86583862
              28.86673736                8.70442612               85.71100878                0.00010000                2.35787711                2.30733950              -10.09026182               -2.12480599              -10.18947190              -11.45234154
              29.90021284                8.16832544               85.21223317                0.00010000                4.07634875                2.88853359              -13.63764594               -1.32092966               -6.21985645              -13.76323492
              30.94826433                7.64045995               84.75536200                0.00010000                4.80514944                3.26832669              -15.96766682               -0.56693975               -2.72313263              -15.32380289
              21.52311292               14.05199503               89.33500515                0.00010000                0.01518859                0.07178118               -0.17140345               -0.00287521               -0.00800731                0.52049471
              22.52326481               13.50837866               88.90955575                0.00010000               -0.01361064               -0.02818789                0.05746329               -0.01355765               -0.01817917               -0.16993372
              23.52284071               12.96454315               88.48396343                0.00010000               -1.68544814               -0.11970256                0.28675062                0.01020547               -0.79975504               -0.84720995
              24.48955585               12.42155952               88.04272354                0.00010000               -3.70834276                0.35092314                1.55833111               -0.23541643               -2.67654909               -1.24462596
              25.44867386               11.88143015               87.57938874                0.00010000               -3.99184189                0.78407172                1.44966172               -0.63231282               -5.67880502               -2.04945016
              26.40971901               11.34224750               87.08666853                0.00010000               -3.34418739                1.23976945               -0.14065311               -1.15540669               -9.09931374               -3.26259471
              27.38179011               10.80382671               86.56678166                0.00010000               -1.88187340                1.79719026               -3.07389272               -1.54502049              -11.80353542               -4.83238593
              28.37208154               10.26695919               86.03022021                0.00010000                0.14015400                2.48428749               -6.99786150               -1.67170516              -12.81099457               -6.63991803
              29.38459319                9.73297334               85.49442874                0.00010000                2.34841145                3.24897963              -11.34802848               -1.45469970              -11.33939980               -8.48265135
              30.41904977                9.20354333               84.98187261                0.00010000                4.25664094                3.98410377              -15.34758968               -0.87318572               -6.91844371              -10.05624689
              31.46972601                8.68025555               84.51723241                0.00010000                5.06762367                4.53042025              -18.03003341               -0.37367240               -3.08535189              -11.00830102
              22.06720918               15.05267524               89.19563456                0.00010000                0.01588032                0.06514983               -0.17703937               -0.00098029               -0.00083746                0.48364230
              23.06736799               14.50812425               88.76689059                0.00010000               -0.01681790               -0.02332869                0.06126997               -0.00720989               -0.01094311               -0.14872852
              24.06687283               13.96341940               88.33797977                0.00010000               -1.90823325               -0.10584969                0.29679714                0.34652454               -0.62355601               -0.70491182
              25.02920332               13.42602222               87.89678758                0.00010000               -4.22947872                0.59893450                1.74413647                0.35445713               -2.46817715               -0.91846261
              25.98228325               12.89087041               87.43011800                0.00010000               -4.60933786                1.11939579                1.68467372               -0.19652177               -5.81448557               -1.43115753
              26.93701656               12.35668643               86.93052323                0.00010000               -3.91860658                1.58257438                0.00668230               -0.68421422               -9.59937830               -2.21838688
              27.90391112               11.82433699               86.40050287                0.00010000               -2.32710030                2.21230119               -3.14217652               -0.97612618              -12.62698151               -3.21307265
              28.89047456               11.29502734               85.85174968                0.00010000               -0.14259469                3.00648336               -7.37582678               -1.04891242              -13.81117545               -4.34676354
              29.90105923               10.76940571               85.30368468                0.00010000                2.24961825                3.88568594              -12.07886056               -0.89270120              -12.27364669               -5.47399017
              30.93546692               10.24800751               84.78149343                0.00010000                4.31536111                4.72765542              -16.40407650               -0.51469717               -7.49126985               -6.33069275
              31.98736645                9.73106835               84.31254406                0.00010000                5.18995243                5.41268979              -19.31398706               -0.22332785               -3.39974671               -6.55406829
              22.61219528               16.05329803               89.05590152                0.00010000                0.01811706                0.06199329               -0.18599794                0.00023534                0.03102700                0.37435309
              23.61237645               15.50791208               88.62431814                0.00010000               -0.01610229               -0.02098123                0.06416762               -0.00246596                0.09345558               -0.14370434
              24.61187324               14.96242616               88.19399956                0.00010000               -2.15912398               -0.09532385                0.29368331                0.82180560               -0.20205090               -0.53458541
              25.56919397               14.43353821               87.75629177                0.00010000               -4.88970108                1.09397854                2.00972525                0.71461089               -1.91862162               -0.46992116
              26.51407922               13.90381806               87.29031184                0.00010000               -5.33129123                1.34520545                2.09060581                0.04488220               -5.60737381               -0.76914650
              27.46256815               13.37389899               86.78748401                0.00010000               -4.50762737                1.77259367                0.40162970               -0.34748169               -9.85544858               -1.13902498
              28.42392667               12.84807273               86.25108275                0.00010000               -2.82667898                2.43449972               -2.87719894               -0.49162549              -13.29512653               -1.59561615
              29.40603457               12.32708886               85.69372412                0.00010000               -0.50838373                3.28912440               -7.33279908               -0.52205644              -14.76014021               -2.11493611
              30.41375899               11.81068706               85.13643619                0.00010000                2.05293077                4.23341289              -12.30471518               -0.44278063              -13.26070251               -2.62233869
              31.44709318               11.29809644               84.60713039                0.00010000                4.26893876                5.13228232              -16.86868275               -0.25186499               -8.13582278               -2.95010043
              32.49913777               10.78850934               84.13732481                0.00010000                5.20445837                5.86855638              -19.86352390               -0.11312701               -3.77596475               -2.61276528
              23.15798579               17.05391510               88.91453573                0.00010000                0.02047521                0.06170718               -0.19741851               -0.04199680                0.19330409                0.28433670
              24.15819054               16.50770463               88.48158850                0.00010000               -0.01514905               -0.02074521                0.06042633               -0.03870057                0.30963223               -0.14315867
              25.15768281               15.96151292               88.05096459                0.00010000               -2.80434534               -0.09132397                0.28418189                1.59081499                0.60915705               -0.46572396
              26.10210363               15.44790179               87.62377450                0.00010000               -5.74313439                1.43635780                2.49276677                1.10404602               -0.71398246               -0.45664732
              27.04282012               14.91777452               87.16100594                0.00010000               -5.81456854                1.39564561                2.76728426                0.08591572               -5.14282179               -0.62446356
              27.98581226               14.39213830               86.65794352                0.00010000               -5.09656881                1.82393099                1.12468813                0.08703438              -10.01623870               -0.73500912
              28.94088874               13.87302698               86.11790716                0.00010000               -3.41965818                2.49542492               -2.23938637                0.12978401              -14.01954754               -0.82136128
              29.91741910               13.36080983               85.55430249                0.00010000               -0.98463553                3.37209744               -6.87567012                0.19080224              -15.90184221               -0.88777392
              30.92119603               12.85407397               84.98926367                0.00010000                1.75941231                4.33869051              -12.08677778                0.23587032              -14.63477916               -0.90604966
              31.95260734               12.35065316               84.45212196                0.00010000                4.15410312                5.25567230              -16.90747451                0.26969158               -9.33302453               -0.80892907
              33.00427809               11.84843948               83.98014414                0.00010000                5.16707495                5.99301384              -19.99362354                0.29266475               -4.76060601               -0.05577249
              18.14125830                7.19200270               91.30250675                0.00010000               -0.01397944                0.01976158               -0.03330064                0.01068315               -0.48775586                0.43425219
              19.14111850                6.65067058               90.89991400                0.00010000               -0.03772964               -0.01868933                0.08516992                0.01089158               -0.67545011                0.06482009
              20.14050371                6.10911046               90.49378041                0.00010000               -0.08304040               -0.05361791                0.21965405                0.00784692               -0.72139646               -0.05173059
              21.13945770                5.56722793               90.08995890                0.00010000               -0.15404479               -0.08538901                0.33704818               -0.03363851               -0.68702661               -0.28164467
              22.13742281                5.02434731               89.68391367                0.00010000               -0.20167866               -0.09596094                0.44138535               -0.04513498               -0.51124560               -0.14815631
              23.13542412                4.48069299               89.28297441                0.00010000               -0.16608843               -0.11219726                0.47130390               -0.05793154               -0.03830200               -0.13435232
              24.13410104                3.93627594               88.88629648                0.00010000               -0.08817808               -0.09910888                0.37731784               -0.09601839                0.30277095               -0.14198497
              25.13366056                3.39147668               88.49292087                0.00010000               -0.02095115               -0.04111272                0.15163634               -0.11914577                0.44962124               -0.12134242
              26.13368202                2.84689414               88.10140424                0.00010000                0.04795672                0.04890745               -0.16344713               -0.07537855                0.33464076               -0.06592278
              27.13461970                2.30280761               87.70796105                0.00010000                0.15318189                0.15628864               -0.55820919               -0.04569201                0.17744628               -0.00310589
              28.13674566                1.75887955               87.31421990                1.00000000                0.21259603                0.26835011               -0.91928503               -0.05578059                0.08087043               -0.15404056
              18.68269725                8.19220031               91.16215934                0.00010000               -0.00237105                0.03085516               -0.06026931               -0.00849708               -0.13597048                0.58269540
              19.68267354                7.65048368               90.75955764                0.00010000               -0.01968733               -0.01553082                0.05661058               -0.00861944               -0.21449313                0.09607861
              20.68230350                7.10857428               90.35579200                0.00010000               -0.05853258               -0.05397414                0.17443869               -0.01091211               -0.24544956               -0.14045678
              21.68150289                6.56637404               89.95275009                0.00010000               -0.10322868               -0.08123230                0.28071447               -0.02954727               -0.18026022               -0.20144247
              22.68023893                6.02338770               89.55035955                0.00010000               -0.13111959               -0.09507294                0.35784963               -0.03434290               -0.02371346               -0.08246025
              23.67888049                5.47957102               89.15121217                0.00010000               -0.12449574               -0.10248073                0.37101518               -0.03989806                0.24693783               -0.06514626
              24.67774901                4.93528485               88.75539832                0.00010000               -0.08602436               -0.08463375                0.29736208               -0.04677840                0.48643721               -0.05586805
              25.67716001                4.39106556               88.36259958                0.00010000               -0.02431213               -0.03072441                0.11876317               -0.04627497                0.64834048               -0.04097884
              26.67726277                3.84738321               87.97173579                0.00010000                0.05050312                0.05299350               -0.15861396               -0.01183408                0.60036417               -0.04992015
              27.67817007                3.30437050               87.57977225                0.00010000                0.14265688                0.15151631               -0.50600531                0.01358327                0.37182932               -0.02935416
              28.68011591                2.76156305               87.18571061                1.00000000                0.19458388                0.25580749               -0.83605316                0.00456997                0.20299766               -0.20150655
              19.22452161                9.19261980               91.02509810                0.00010000                0.00505344                0.05600216               -0.09605764               -0.01256973               -0.04529394                0.74955959
              20.22457214                8.65035996               90.61994788                0.00010000               -0.00632489               -0.00918757                0.02803389               -0.01139341               -0.00859297                0.11603098
              21.22439511                8.10803098               90.21605618                0.00010000               -0.02594075               -0.06282218                0.14313833               -0.00529051                0.25671233               -0.41209367
              22.22405333                7.56560328               89.81671101                0.00010000               -0.04280718               -0.32226028                0.22152780               -0.58342362                0.38778891               -0.73829004
              23.22353897                7.02244586               89.41721020                0.00010000               -0.06621582               -0.44018944                0.27960296               -1.34459336                0.36858228               -1.58608948
              24.22272901                6.47864338               89.01948259                0.00010000               -0.09340153               -0.63138982                0.28922873               -2.08781908                0.47819752               -3.20203897
              25.22167094                5.93458327               88.62457134                0.00010000               -0.10461546               -0.90992890                0.23585851               -2.58262116                0.64399133               -5.52993079
              26.22063670                5.39086220               88.23250452                0.00010000               -0.07652705               -1.25876999                0.09225829               -2.62237552                0.79915988               -8.37600380
              27.22014040                4.84795401               87.84221313                0.00010000                0.00374084               -1.64105999               -0.15819947               -2.05060736                0.84730426              -11.41384125
              28.22071152                4.30583794               87.45187736                0.00010000                0.11557718               -1.96690801               -0.45498758               -0.77482896                0.61144186              -14.10003414
              29.22245194                3.76399570               87.05771099                0.00010000                0.17404201               -2.24937274               -0.75967839                1.25406432                0.37244062              -15.94276814
              19.76696553               10.19332035               90.88805195                0.00010000                0.00689620                0.07951513               -0.11920149               -0.00783337                0.02449760                0.72566605
              20.76703449                9.65029993               90.47994297                0.00010000               -0.00055772               -0.00961768                0.00809419               -0.00489013                0.04321583                0.00431093
              21.76695437                9.10731784               90.07257782                0.00010000               -0.58074758               -0.10301216                0.11491950               -0.21614640                0.22736963               -0.76909681
              22.75541954                8.55992883               89.66783233                0.00010000               -1.33237049               -0.41139257                1.10773517               -1.25436795               -0.09738589               -1.20144568
              23.74030696                8.01458392               89.25241116                0.00010000               -1.52164188               -0.60974487                1.32727595               -2.53436276               -1.63668447               -2.92277657
              24.72498670                7.46694322               88.82354651                0.00010000               -1.32145947               -0.89457707                0.83383857               -3.99126880               -3.36288400               -6.10707529
              25.71387777                6.91708628               88.38281259                0.00010000               -0.68224719               -1.32149680               -0.31259802               -5.00890385               -4.74621101              -10.68900947
              26.71134176                6.36589016               87.93450995                0.00010000                0.36985546               -1.87926038               -1.99804951               -5.21173568               -5.39858340              -16.29605575
              27.72127488                5.81456201               87.48509281                0.00010000                1.76450199               -2.51134732               -4.01007709               -4.32121966               -4.98242613              -22.26991720
              28.74663179                5.26503234               87.04272381                0.00010000                3.38033895               -3.10542017               -5.98255872               -2.37472550               -3.23337086              -27.68159295
              29.78888166                4.71657560               86.61548524                0.00010000                4.22498657               -3.21616226               -7.42863129                0.14439577               -1.04158622              -31.59651535
              20.31040578               11.19421010               90.75026905                0.00010000                0.00710727                0.08905544               -0.12980341               -0.00227918               -0.00171746                0.65859171
              21.31047686               10.65016761               90.33803724                0.00010000                0.00187510               -0.01813801                0.01810252               -0.00889409                0.00089531               -0.12488715
              22.31044329               10.10597074               89.92604514                0.00010000               -0.93884817               -0.13798531                0.14937158               -0.24012723                0.08870281               -0.94146920
              23.29169989                9.55737543               89.51537369                0.00010000               -2.23029831               -0.17678162                1.65182227               -1.00725209               -0.71694023               -1.29003895
              24.26583732                9.01025096               89.08428946                0.00010000               -2.56493086               -0.27600367                1.94403711               -1.95553739               -3.31534712               -2.85237930
              25.24040128                8.46075184               88.62823229                0.00010000               -2.16456958               -0.36289644                1.01457374               -3.09902962               -6.23555416               -5.70579050
              26.22254593                7.90815333               88.14931849                0.00010000               -1.07375117               -0.47777007               -1.01479365               -3.96303307               -8.60614262               -9.73471764
              27.21892625                7.35327699               87.65525432                0.00010000                0.60139476               -0.62951762               -3.91236852               -4.25481766               -9.69050319              -14.63034512
              28.23457382                6.79772706               87.15845732                0.00010000                2.61385855               -0.79312477               -7.29308465               -3.83496508               -8.85118400              -19.87141088
              29.27120342                6.24372953               86.67516901                0.00010000                4.38397529               -0.87956436              -10.56141476               -2.48757251               -5.53551489              -24.75325572
              30.32225333                5.69967246               86.22507001                0.00010000                5.10499058               -0.48471982              -12.85924303               -1.15224228               -2.28744569              -28.17975234
              20.85500493               12.19510146               90.61167964                0.00010000                0.00910432                0.08344509               -0.13272154               -0.00149889               -0.00832858                0.59725272
              21.85509597               11.64993717               90.19550441                0.00010000               -0.00304612               -0.02293552                0.02869574               -0.01061028               -0.02544216               -0.15859209
              22.85494401               11.10455813               89.77913117                0.00010000               -1.20508493               -0.13057038                0.19262353               -0.17219480               -0.04945746               -0.91994880
              23.83099427               10.55639320               89.36231839                0.00010000               -2.85620999               -0.05081927                2.03690544               -0.73102280               -1.21941154               -1.26527929
              24.79781981               10.00906384               88.91754736                0.00010000               -3.29452702                0.00449548                2.33209111               -1.43923273               -4.57867228               -2.62226561
              25.76510373                9.45968530               88.43877365                0.00010000               -2.78639229                0.12490001                1.03519548               -2.33398366               -8.31065880               -5.06448468
              26.74209196                8.90753088               87.92876150                0.00010000               -1.42160304                0.32572323               -1.69959218               -3.06412040              -11.32583506               -8.47932850
              27.73667167                8.35329980               87.39794377                0.00010000                0.60155372                0.59959539               -5.55374853               -3.40305833              -12.66464082              -12.61095900
              28.75412303                7.79869952               86.86338717                0.00010000                2.91316388                0.95104599              -10.01707472               -3.17370740              -11.48896586              -17.05718417
              29.79493495                7.24744105               86.34782294                0.00010000                4.99139654                1.42535415              -14.32760393               -2.13635515               -7.17241291              -21.22196021
              30.85395097                6.70688120               85.87795225                0.00010000                5.90160165                1.84161511              -17.44375567               -0.94752769               -3.12358121              -24.30428737
              21.40070439               13.19587900               90.47267799                0.00010000                0.01035954                0.07180792               -0.13613345               -0.00048397               -0.00901299                0.55830399
              22.40080798               12.64970890               90.05278268                0.00010000               -0.00805108               -0.02117499                0.03782053               -0.00806979               -0.02377514               -0.15787209
              23.40054336               12.10335933               89.63269381                0.00010000               -1.41171269               -0.10992579                0.21624138               -0.05958359               -0.11084632               -0.85776941
              24.37257373               11.55635904               89.21092821                0.00010000               -3.33913980                0.04250489                2.33176175               -0.42221509               -1.51743421               -1.17226107
              25.33376057               11.01034087               88.75535288                0.00010000               -3.86595788                0.23843260                2.61940608               -0.96874258               -5.42061240               -2.30085721
              26.29525457               10.46324984               88.25867758                0.00010000               -3.30557786                0.56067480                1.03262205               -1.66305445               -9.73620056               -4.28163127
              27.26764901                9.91466780               87.72424045                0.00010000               -1.77790637                1.04992411               -2.24735449               -2.24812815              -13.20875987               -7.01566280
              28.25969644                9.36526890               87.16465056                0.00010000                0.46547096                1.70490363               -6.84293481               -2.53652160              -14.72900727              -10.30428483
              29.27695843                8.81674798               86.60062254                0.00010000                3.02990961                2.49841982              -12.15596842               -2.36514460              -13.33634106              -13.82859942
              30.32029463                8.27223662               86.05955116                0.00010000                5.37320185                3.33829283              -17.31878488               -1.54772476               -8.30644271              -17.13331783
              31.38442247                7.73650476               85.57328289                0.00010000                6.41278325                3.97253345              -21.16780313               -0.70166793               -3.70471976              -19.62611910
              21.94733546               14.19653762               90.33343806                0.00010000                0.01187915                0.06142654               -0.14139214               -0.00015893               -0.00845375                0.52651189
              22.94745425               13.64951367               89.91005144                0.00010000               -0.01166355               -0.01780387                0.04371103               -0.00490729               -0.01780862               -0.14347340
              23.94710219               13.10235962               89.48654659                0.00010000               -1.59429093               -0.09307096                0.23221308                0.08349220               -0.03558721               -0.80506134
              24.91556843               12.55724330               89.06267109                0.00010000               -3.77740135                0.15160062                2.58619876               -0.09875911               -1.51319373               -1.03324074
              25.87155416               12.01383249               88.60006571                0.00010000               -4.40263588                0.46337984                2.89782108               -0.53820105               -5.85129716               -1.90619803
              26.82751571               11.47089879               88.09053911                0.00010000               -3.82219109                0.93856972                1.11585122               -1.07974128              -10.63686463               -3.38500516
              27.79511034               10.92852936               87.53795363                0.00010000               -2.18273300                1.64853648               -2.55895407               -1.51175141              -14.49206404               -5.39036972
              28.78386105               10.38739788               86.95668155                0.00010000                0.23710416                2.59414088               -7.70723612               -1.71389615              -16.19270232               -7.77673099
              29.79985242                9.84866791               86.37036243                0.00010000                3.01813108                3.70094945              -13.66635920               -1.57122020              -14.66653947              -10.30354319
              30.84422368                9.31420691               85.81010874                0.00010000                5.57644484                4.83214081              -19.48873238               -0.99834917               -9.12037625              -12.60210189
              31.91138132                8.78633187               85.31161492                0.00010000                6.71576433                5.77118400              -23.92180403               -0.46090199               -4.12589996              -14.23199279
              22.49474910               15.19710753               90.19400247                0.00010000                0.01387363                0.05463478               -0.14893595               -0.00009535               -0.00157992                0.48562480
              23.49488784               14.64935282               89.76741425                0.00010000               -0.01327593               -0.01489392                0.04547744               -0.00253718               -0.01282508               -0.12702314
              24.49448359               14.10149791               89.34064381                0.00010000               -1.78810860               -0.08174131                0.23986771                0.27749523                0.24292590               -0.67393690
              25.45912567               13.55939106               88.91900173                0.00010000               -4.25712664                0.32608080                2.85826853                0.26202547               -1.11145411               -0.82245664
              26.40934105               13.01960846               88.45376524                0.00010000               -5.00813930                0.70033605                3.26368965               -0.19840425               -5.87877815               -1.41516196
              27.35896288               12.48202123               87.93649735                0.00010000               -4.42130774                1.23028662                1.39559659               -0.61341579              -11.11923109               -2.38470752
              28.32091490               11.94763853               87.37142710                0.00010000               -2.68414599                2.08094120               -2.53738944               -0.89486620              -15.39180270               -3.64531738
              29.30527996               11.41715171               86.77449274                0.00010000               -0.10949501                3.21598180               -8.07757496               -1.01293662              -17.33603664               -5.13340983
              30.31872500               10.89076697               86.17185079                0.00010000                2.86918657                4.52670957              -14.50668665               -0.91550936              -15.75853048               -6.68164717
              31.36266369               10.36887943               85.59808954                0.00010000                5.61147489                5.85730998              -20.79858861               -0.56170933               -9.79626225               -7.96455866
              32.43095449                9.85192844               85.09236085                0.00010000                6.82908014                7.04478267              -25.61874212               -0.27684896               -4.49870337               -8.51797584
              23.04284298               16.19763032               90.05417189                0.00010000                0.01701533                0.05268553               -0.15960574               -0.00027468                0.03150610                0.37266978
              24.04301313               15.64921579               89.62484836                0.00010000               -0.01145608               -0.01341295                0.04380379               -0.00077879                0.08537039               -0.12798413
              25.04261386               15.10072479               89.19662835                0.00010000               -2.01573728               -0.07451005                0.23494780                0.57296876                0.81395656               -0.51421054
              26.00269839               14.56376491               88.78168196                0.00010000               -4.88289781                0.66502416                3.23574151                0.49048195               -0.26910052               -0.42598609
              26.94495590               14.02783922               88.31888513                0.00010000               -5.77405246                0.84660045                3.85681888               -0.00452306               -5.46002835               -0.83155774
              27.88721734               13.49550452               87.79837284                0.00010000               -5.14366834                1.38817716                1.99904069               -0.28621803              -11.31873934               -1.27890382
              28.84208253               12.97014818               87.22553737                0.00010000               -3.33717296                2.31228662               -2.08199426               -0.41204696              -16.14625391               -1.84465082
              29.82047388               12.45171751               86.61753972                0.00010000               -0.61340087                3.54996083               -7.89568633               -0.46898545              -18.47837984               -2.51691201
              30.82981452               11.93920211               86.00263446                0.00010000                2.56770716                4.97187850              -14.67112971               -0.43022704              -16.97815161               -3.21114937
              31.87182802               11.43135311               85.41896862                0.00010000                5.49659043                6.40724986              -21.29359429               -0.26248012              -10.59996436               -3.71619854
              32.93974632               10.92722753               84.91118714                0.00010000                6.79183044                7.70991303              -26.28457972               -0.15557810               -4.96961540               -3.39044794
              23.59157265               17.19816124               89.91268231                0.00010000                0.02051360                0.05309270               -0.17279048               -0.03470060                0.19180708                0.28097991
              24.59177779               16.64908456               89.48205908                0.00010000               -0.00894058               -0.01312335                0.03579728               -0.03121087                0.29467199               -0.13219584
              25.59139384               16.10000771               89.05350191                0.00010000               -2.49784540               -0.07170830                0.22471843                1.05834758                1.91343710               -0.45050956
              26.54182088               15.57269154               88.65502879                0.00010000               -5.69414315                0.89266272                3.95515176                0.73888799                1.60774845               -0.67543905
              27.47751098               15.03654047               88.19779062                0.00010000               -6.54456634                0.87012580                4.86001122                0.11016975               -4.68345670               -0.88360985
              28.41092956               14.50978478               87.67765813                0.00010000               -6.05250054                1.42802513                3.08044546                0.23841123              -11.45128308               -0.99371669
              29.35646097               13.99388426               87.10028315                0.00010000               -4.20416137                2.37360778               -1.09792582                0.35615131              -17.06682383               -1.07181546
              30.32684633               13.48815093               86.48405162                0.00010000               -1.29880526                3.64334168               -7.13103317                0.45325927              -19.97101537               -1.13601787
              31.33048486               12.99020454               85.85874518                0.00010000                2.12711715                5.10024353              -14.20028548                0.51070978              -18.79448335               -1.14997540
              32.36938867               12.49702443               85.26438016                0.00010000                5.28046146                6.56713240              -21.14256457                0.55217311              -12.19634355               -1.02528193
              33.43609409               12.00612670               84.75333852                0.00010000                6.67054217                7.88991749              -26.26532332                0.54500397               -6.29284375               -0.02852988
              18.53852815                7.33672923               92.30255647                0.00010000               -0.02264111                0.00534931                0.03578995               -0.00440274               -0.45643115                0.41332933
              19.53830174                6.79181554               91.90088263                0.00010000               -0.03324389               -0.02488306                0.10498500               -0.00640240               -0.62903514                0.06297609
              20.53786328                6.24683340               91.49587205                0.00010000               -0.05808828               -0.05611536                0.19888885               -0.00295128               -0.66994706               -0.04605704
              21.53713998                5.70197981               91.09294978                0.00010000               -0.11492701               -0.06525870                0.26134498               -0.00905901               -0.64192838               -0.25797710
              22.53556474                5.15698054               90.68781362                0.00010000               -0.17011123               -0.05960070                0.34465947               -0.01346333               -0.48490734               -0.11956921
              23.53373775                4.61182961               90.28693897                0.00010000               -0.16687805               -0.06136846                0.34075663               -0.01495026               -0.07965496               -0.08991867
              24.53222717                4.06644193               89.88928254                0.00010000               -0.12574237               -0.04149549                0.24665334               -0.02801274                0.20124224               -0.08490397
              25.53122290                3.52100442               89.49401510                0.00010000               -0.06943040                0.00326238                0.07867446               -0.02745274                0.34585986               -0.07932585
              26.53083857                2.97579113               89.09978442                0.00010000                0.01385672                0.05768832               -0.16153229               -0.01800118                0.27555757               -0.06765827
              27.53150004                2.43067560               88.70342881                0.00010000                0.10724475                0.12160225               -0.39816792               -0.02536654                0.11644114               -0.02084611
              28.53298346                1.88559135               88.30646390                0.00010000                0.14834221                0.19276091               -0.65172857               -0.03123789                0.03036267               -0.13340198
              19.08339782                8.33678272               92.16192961                0.00010000               -0.02121845                0.02528649                0.00777626               -0.01817995               -0.12530735                0.55974338
              20.08318563                7.79156671               91.76022864                0.00010000               -0.03230953               -0.01757182                0.07541592               -0.02101784               -0.19584864                0.09343537
              21.08275163                7.24627225               91.35744239                0.00010000               -0.06049072               -0.05490556                0.15496516               -0.00599414               -0.22172914               -0.13290374
              22.08197582                6.70132722               90.95527954                0.00010000               -0.11232107               -0.04975139                0.22460288               -0.00892869               -0.15944507               -0.18475551
              23.08050520                6.15638453               90.55359546                0.00010000               -0.15591323               -0.05283448                0.28742002               -0.00721923               -0.01299956               -0.06990702
              24.07885755                5.61121592               90.15452099                0.00010000               -0.15727804               -0.05208691                0.28765900               -0.00713310                0.23150393               -0.04566249
              25.07735964                5.06602698               89.75796701                0.00010000               -0.12918870               -0.03254959                0.21568848               -0.00571824                0.44523605               -0.03631017
              26.07627378                4.52103704               89.36353777                0.00010000               -0.07683407                0.00840809                0.06884048                0.00111553                0.58077302               -0.03700002
              27.07582296                3.97636802               88.97025217                0.00010000                0.00362434                0.06029149               -0.14748927                0.01263768                0.53167711               -0.06056628
              28.07634627                3.43189162               88.57543177                0.00010000                0.09661868                0.12178890               -0.38627058                0.01019765                0.32097266               -0.03776285
              29.07775534                2.88751896               88.17848539                0.00010000                0.14090700                0.18900308               -0.61899052                0.00680593                0.16701286               -0.17866896
              19.62859658                9.33723496               92.02447873                0.00010000               -0.02047232                0.06421319               -0.03284454               -0.01513302               -0.04333127                0.72920017
              20.62839186                8.79146410               91.62030164                0.00010000               -0.03068537               -0.00654179                0.04166172               -0.00811755               -0.00534213                0.11555083
              21.62798287                8.24573529               91.21735699                0.00010000               -0.07713707               -0.07243978                0.11799455                0.06803680                0.25312458               -0.40578709
              22.62684912                7.70098478               90.81875663                0.00010000               -0.12256112               -0.07549592                0.18544358               -0.34803708                0.38433114               -0.14832522
              23.62553165                7.15592385               90.41979051                0.00010000               -0.14482365               -0.16065233                0.23089017               -1.19941099                0.36987178               -0.87162258
              24.62395264                6.61078787               90.02217172                0.00010000               -0.16199792               -0.43389474                0.23808384               -2.10291388                0.49071663               -2.76125428
              25.62229169                6.06579094               89.62671206                0.00010000               -0.15242322               -0.88854736                0.18436462               -2.75828911                0.66248368               -5.71431720
              26.62090418                5.52117258               89.23326486                0.00010000               -0.10274791               -1.49303339                0.05683447               -2.89191020                0.79501481               -9.46220203
              27.62023674                4.97699696               88.84078043                0.00010000               -0.01755650               -2.20202186               -0.13810885               -2.25911081                0.80776174              -13.54827000
              28.62055305                4.43311138               88.44772296                0.00010000                0.08140887               -2.90411210               -0.37660771               -0.62849203                0.57671472              -17.24000872
              29.62186491                3.88937141               88.05096345                0.00010000                0.13118631               -3.77202666               -0.59293981                2.25135272                0.35423850              -19.80026588
              20.17463687               10.33806698               91.88714984                0.00010000               -0.01139202                0.09106417               -0.06473879                0.00110521                0.01653398                0.71798104
              21.17452295                9.79143587               91.48004762                0.00010000               -0.00225951               -0.00917214                0.01348250                0.01104866                0.02626289                0.02242096
              22.17459168                9.24482345               91.07348132                0.00010000               -0.48482165               -0.11348484                0.07099016                0.11531233                0.77385806               -0.73138196
              23.16482651                8.69981731               90.68106310                0.00010000               -1.39388898               -0.11439670                1.61350343               -0.61547849                0.83069671                0.00040506
              24.14671390                8.15317149               90.26870309                0.00010000               -1.89471659               -0.25329174                2.03387216               -2.24439542               -1.47399544               -1.49491173
              25.12693218                7.60253803               89.83457259                0.00010000               -1.74523725               -0.67286262                1.47982009               -4.05826603               -3.92599475               -5.23837042
              26.11180915                7.04825603               89.38105185                0.00010000               -0.98513137               -1.38066966                0.05775511               -5.41010239               -5.95539681              -11.05070291
              27.10722956                6.49117637               88.91375823                0.00010000                0.34463953               -2.34224277               -2.09276494               -5.83140099               -7.09124029              -18.40958769
              28.11870194                5.93232758               88.44143359                0.00010000                2.20862105               -3.48698136               -4.74105703               -4.90890062               -6.82251714              -26.45806591
              29.15140198                5.37380938               87.97617230                0.00010000                4.57801922               -4.71836903               -7.46833666               -2.68001273               -4.61173333              -33.98028037
              30.21026233                4.81207842               87.53166088                0.00010000                5.88603520               -5.52376113               -9.61878720                0.55588328               -1.61270150              -39.76561755
              20.72188091               11.33905624               91.74920565                0.00010000               -0.00245482                0.09360079               -0.08503312                0.00527354               -0.00293104                0.66071658
              21.72185636               10.79128066               91.33818741                0.00010000                0.00133865               -0.01598978                0.01427027                0.00985844               -0.00555765               -0.08843054
              22.72190768               10.24346559               90.92730079                0.00010000               -0.78324257               -0.13065700                0.10646837                0.15250962                0.96384153               -0.86276655
              23.70619151                9.69869685               90.53552962                0.00010000               -2.19923319               -0.12908246                2.49967737               -0.32840958                0.74996185               -0.34153253
              24.67792302                9.15085802               90.10890503                0.00010000               -2.92443673               -0.22302206                3.14340834               -1.57650445               -2.99945360               -1.75047270
              25.64770278                8.59733062               89.64303293                0.00010000               -2.62358591               -0.39280450                2.11221724               -2.96987524               -7.07772991               -5.11933966
              26.62545130                8.03817755               89.14151780                0.00010000               -1.37490819               -0.65632399               -0.40560178               -4.04707768              -10.46745188              -10.22282116
              27.62020461                7.47432772               88.61461936                0.00010000                0.69872050               -1.01339752               -4.14214333               -4.50769140              -12.27423218              -16.63388413
              28.63942571                6.90725733               88.07892587                0.00010000                3.34986672               -1.44049642               -8.67169666               -4.19354992              -11.59114874              -23.69388568
              29.68720195                6.33874400               87.55721010                0.00010000                5.85093905               -1.84290400              -13.29277865               -2.81371348               -7.45354357              -30.54859815
              30.75644449                5.77889619               87.07897928                0.00010000                6.92425453               -1.57440179              -16.86953881               -1.36771865               -3.17670513              -35.82540093
              21.27029350               12.33993900               91.61054341                0.00010000                0.00172607                0.07955185               -0.09558618                0.00587604               -0.00843019                0.60384641
              22.27031076               11.79111608               91.19574529                0.00010000               -0.00339128               -0.01485561                0.02180723                0.00554406               -0.02295608               -0.12146437
              23.27022568               11.24221031               90.78079934                0.00010000               -0.97224320               -0.11114765                0.14488222                0.18495097                1.05072388               -0.84953064
              24.25086590               10.69723566               90.38735875                0.00010000               -2.68378181               -0.17455055                3.11757582               -0.09499432                0.62816198               -0.52662951
              25.21655004               10.14871105               89.94748035                0.00010000               -3.53253780               -0.21022664                3.85194014               -1.05104337               -4.13114298               -1.81399098
              26.18021514                9.59468194               89.45501526                0.00010000               -3.13397733               -0.14188347                2.40894284               -2.11872995               -9.26191256               -4.71774944
              27.15387050                9.03512955               88.91458554                0.00010000               -1.61096010                0.03551229               -0.98003764               -2.99248902              -13.49483830               -9.04400304
              28.14799594                8.47090842               88.34008908                0.00010000                0.82720868                0.30951985               -5.95285561               -3.48617258              -15.67353089              -14.45615775
              29.17041467                7.90351765               87.75408044                0.00010000                3.77464557                0.68107693              -11.94954558               -3.41364484              -14.64797667              -20.47527969
              30.22348885                7.33695130               87.18766771                0.00010000                6.60944546                1.23146392              -18.07438295               -2.43527867               -9.36725239              -26.40444523
              31.30260358                6.78059039               86.67933714                0.00010000                7.91147244                1.76893549              -22.99654152               -1.12299197               -4.16008631              -31.28301392
              21.81964428               13.34064728               91.47148374                0.00010000                0.00516513                0.06308951               -0.10326091                0.00480638               -0.00876293                0.56465775
              22.81969593               12.79098355               91.05310741                0.00010000               -0.00785799               -0.01192282                0.02926748                0.00423551               -0.02080875               -0.12518703
              23.81948712               12.24124264               90.63459063                0.00010000               -1.09525205               -0.08591956                0.16742380                0.17529659                1.15545579               -0.80284595
              24.79779089               11.69520584               90.23963785                0.00010000               -3.00156251               -0.22072307                3.56939358                0.01588940                0.63041339               -0.65488828
              25.75945587               11.14665348               89.78913209                0.00010000               -3.94406102               -0.19086107                4.34801738               -0.67415220               -4.83929869               -1.78424490
              26.71890967               10.59449295               89.27568648                0.00010000               -3.50404161                0.10228420                2.57400069               -1.44435151              -10.69562133               -4.15994370
              27.68937504               10.03888780               88.70480050                0.00010000               -1.84083032                0.68515550               -1.48580332               -2.10194657              -15.49682606               -7.62424085
              28.68209307                9.48051812               88.09316290                0.00010000                0.78674478                1.53369837               -7.40763119               -2.50930834              -17.92531189              -11.93566094
              29.70510994                8.92087887               87.46788941                0.00010000                3.96652854                2.60782912              -14.54163151               -2.48621532              -16.69692966              -16.73337525
              30.76142364                8.36337328               86.86585748                0.00010000                7.07982731                3.80058020              -21.88444111               -1.73515384              -10.63783402              -21.50312873
              31.84670648                7.81427490               86.33200594                0.00010000                8.52828456                4.79736718              -27.97555248               -0.83023416               -4.81532401              -25.53691913
              22.36971709               14.34120079               91.33217731                0.00010000                0.00830177                0.05033141               -0.11102775                0.00316991               -0.00773692                0.53108408
              23.36980011               13.79087762               90.91042997                0.00010000               -0.01038892               -0.00983378                0.03383779                0.00326692               -0.01498097               -0.11743396
              24.36950932               13.24049192               90.48860769                0.00010000               -1.20136335               -0.06918709                0.18334242                0.13001610                1.37009479               -0.76157295
              25.34577284               12.69282120               90.09444752                0.00010000               -3.28647137               -0.23218126                3.93232123                0.02319104                0.89884892               -0.73807806
              26.30377989               12.14489382               89.63734516                0.00010000               -4.33395217               -0.14528635                4.77209846               -0.41686926               -5.11605922               -1.67181925
              27.25909380               11.59672762               89.10898556                0.00010000               -3.89867479                0.33327983                2.77684908               -0.90003770              -11.53787317               -3.46035498
              28.22580639               11.04883266               88.51560257                0.00010000               -2.16375521                1.24795500               -1.76404536               -1.32202957              -16.80309259               -5.99589535
              29.21581870               10.50158239               87.87607549                0.00010000                0.60144058                2.54914241               -8.38540768               -1.59606766              -19.47375540               -9.11945694
              30.23783520                9.95567423               87.22110155                0.00010000                3.97855275                4.13109309              -16.37448167               -1.57188046              -18.13772585              -12.57329863
              31.29538975                9.41296291               86.59209796                0.00010000                7.31802252                5.82415925              -24.64905505               -1.07642579              -11.53251908              -15.94105914
              32.38419565                8.87653773               86.03879633                0.00010000                8.88059022                7.34308590              -31.65384307               -0.53535278               -5.28111151              -18.69460231
              22.92035402               15.34165391               91.19265584                0.00010000                0.01161187                0.04353958               -0.12065053                0.00106480               -0.00081309                0.48744792
              23.92047014               14.79078687               90.76780014                0.00010000               -0.01050778               -0.00850235                0.03353725                0.00161419               -0.01145084               -0.10805499
              24.92014387               14.23985890               90.34277712                0.00010000               -1.33086658               -0.06040353                0.19017870                0.07923971                1.79736531               -0.64521669
              25.89385281               13.69056221               89.95395295                0.00010000               -3.64659035               -0.19148846                4.29468772               -0.01644041                1.59239175               -0.72046376
              26.84721206               13.14374776               89.49539179                0.00010000               -4.84413650               -0.08661470                5.27403816               -0.24978950               -4.93925877               -1.40931964
              27.79697008               12.60115854               88.95843516                0.00010000               -4.45661887                0.52162545                3.19264280               -0.47267716              -11.90723701               -2.59103779
              28.75807968               12.06384690               88.34975508                0.00010000               -2.68199684                1.67455026               -1.65518526               -0.68146315              -17.69383004               -4.16750130
              29.74333014               11.53150097               87.69019818                0.00010000                0.21060635                3.28046734               -8.76374754               -0.83974851              -20.69137233               -6.10166035
              30.76229181               11.00350073               87.01355094                0.00010000                3.78507387                5.19477270              -17.36413914               -0.83563210              -19.34110258               -8.21987854
              31.81903162               10.47985646               86.36552166                0.00010000                7.32789822                7.22594720              -26.29297465               -0.56063276              -12.28954486              -10.14247312
              32.90884977                9.96113662               85.80016921                0.00010000                8.98181538                9.15924884              -33.90621443               -0.31634647               -5.70331491              -11.29769074
              23.47147246               16.34207158               91.05270940                0.00010000                0.01549422                0.04299722               -0.13315408               -0.00068200                0.03221239                0.37161431
              24.47162740               15.79070757               90.62519422                0.00010000               -0.00768476               -0.00737959                0.02738524                0.00032553                0.08153732               -0.11614266
              25.47131877               15.23928385               90.19869851                0.00010000               -1.50361123               -0.05516493                0.18300085                0.05609125                2.58109958               -0.49736301
              26.44155518               14.68899143               89.82100660                0.00010000               -4.15654992               -0.14314299                4.79430810               -0.00026195                2.85176230               -0.40208641
              27.38818777               14.14316153               89.36744822                0.00010000               -5.60070299               -0.07282075                6.07477396               -0.12608568               -4.18940622               -0.95296091
              28.32954112               13.60716013               88.82746482                0.00010000               -5.31765302                0.62674190                4.02745961               -0.17569364              -11.96692873               -1.48243989
              29.28183471               13.08232367               88.20944286                0.00010000               -3.50856158                1.91261088               -0.98806674               -0.24446472              -18.48233442               -2.16985740
              30.25936989               12.56719174               87.53581039                0.00010000               -0.45338199                3.67823621               -8.42761507               -0.32736784              -22.00091695               -3.03051973
              31.27276707               12.05956969               86.84301359                0.00010000                3.35856647                5.76761438              -17.46377822               -0.35119359              -20.78685756               -3.97791496
              32.32654122               11.55748185               86.18125851                0.00010000                7.12706760                7.97339904              -26.83603998               -0.23957325              -13.25377956               -4.75752990
              33.41530842               11.05972271               85.61163322                0.00010000                8.87672026               10.12147533              -34.73946986               -0.19317807               -6.27116300               -4.55233963
              24.02306840               17.34251385               90.91107993                0.00010000                0.01959816                0.04422686               -0.14752769               -0.02786313                0.19014228                0.27868466
              25.02326438               16.79063928               90.48230445                0.00010000               -0.00432826               -0.00682934                0.01550303               -0.02421455                0.28551016               -0.12483562
              26.02298184               16.23875560               90.05545896                0.00010000               -1.66472466               -0.05282504                0.17118573                0.01931085                4.10493387               -0.43847114
              26.98996989               15.68769935               89.70287754                0.00010000               -4.82300978               -0.12920725                5.80938969                0.01825821                5.69784396               -1.02934102
              27.92652164               15.14229134               89.25820617                0.00010000               -6.78379106               -0.08701890                7.47792486                0.13308875               -2.96444382               -1.28330694
              28.85429407               14.61369338               88.71955243                0.00010000               -6.66814284                0.65332510                5.54160638                0.46568357              -12.03029621               -1.37859536
              29.79315878               14.10209911               88.09594865                0.00010000               -4.73786508                1.97754452                0.41258166                0.70102313              -19.61492190               -1.43553081
              30.75953677               13.60506569               87.41168183                0.00010000               -1.40904805                3.78739559               -7.28895126                0.85438346              -23.88987140               -1.49498329
              31.76497782               13.11885302               86.70525796                0.00010000                2.72751822                5.92833365              -16.67732616                0.93401313              -23.10707911               -1.51153392
              32.81408713               12.63932444               86.02927067                0.00010000                6.77633356                8.18425932              -26.43853983                0.99024646              -15.30809141               -1.37198515
              33.90050449               12.16356612               85.45483767                0.00010000                8.64173626               10.38434128              -34.52496557                0.94377535               -7.98363823               -0.11768098
              18.93547736                7.48152301               93.30322255                0.00010000               -0.02551413               -0.00500844                0.08863361               -0.01692617               -0.42106557                0.39152167
              19.93522222                6.93323808               92.90201370                0.00010000               -0.02198763               -0.03046936                0.11663251               -0.02156282               -0.57497679                0.06020452
              20.93503761                6.38504864               92.49775819                0.00010000               -0.02723285               -0.06173706                0.18026587               -0.01341987               -0.61987277               -0.04421217
              21.93467757                5.83740887               92.09518580                0.00010000               -0.06510676               -0.05367892                0.19741191                0.01551496               -0.59025960               -0.22545776
              22.93373548                5.29039224               91.69080686                0.00010000               -0.11577308               -0.03795717                0.26017734                0.01628623               -0.44180498               -0.10032757
              23.93236210                4.74373057               91.28978954                0.00010000               -0.13428621               -0.03055476                0.24085403                0.01852504               -0.09707042               -0.06853302
              24.93104975                4.19720891               90.89122955                0.00010000               -0.11431146               -0.00797767                0.15621765                0.01443355                0.14780926               -0.05890471
              25.93007587                3.65084484               90.49449436                0.00010000               -0.06351451                0.02309688                0.02405960                0.01127139                0.27440425               -0.06169830
              26.92977946                3.10460547               90.09817360                0.00010000                0.00965835                0.05704073               -0.14616312               -0.00071735                0.21132061               -0.05375021
              27.93026904                2.55838478               89.69999769                0.00010000                0.07516392                0.09363136               -0.29351872               -0.01312087                0.07194033               -0.02091574
              28.93128274                2.01216853               89.30118533                0.00010000                0.10136985                0.13215973               -0.43960882               -0.01500780                0.00067999               -0.12489115
              19.48359304                8.48147293               93.16231486                0.00010000               -0.03492563                0.02302812                0.06120590               -0.02736459               -0.10899678                0.53498189
              20.48324378                7.93293338               92.76106596                0.00010000               -0.03875095               -0.01930360                0.08858973               -0.03384219               -0.16669808                0.08893685
              21.48281802                7.38443127               92.35889130                0.00010000               -0.05414322               -0.05861646                0.13515174               -0.00481529               -0.18417189               -0.12993903
              22.48216092                6.83687208               91.95724215                0.00010000               -0.10402662               -0.02778246                0.17239315                0.01051312               -0.11856924               -0.16055936
              23.48073748                6.29001267               91.55610795                0.00010000               -0.15109480               -0.02432328                0.21702737                0.01693967                0.01876317               -0.06377777
              24.47913902                5.74342503               91.15696535                0.00010000               -0.15502641               -0.01819406                0.20511339                0.01880817                0.22640538               -0.03955677
              25.47763696                5.19712913               90.75971208                0.00010000               -0.13243558                0.00015893                0.13903171                0.02142481                0.40604856               -0.03034713
              26.47649031                4.65107580               90.36397639                0.00010000               -0.08173205                0.02764279                0.02161328                0.02197468                0.51296248               -0.03785271
              27.47600232                4.10517588               89.96878601                0.00010000               -0.00670022                0.06008623               -0.13946165                0.01516789                0.46287062               -0.05543039
              28.47635630                3.55932109               89.57204684                0.00010000                0.06733000                0.09562257               -0.29609659                0.00540027                0.27239912               -0.03558658
              29.47734892                3.01349012               89.17333080                0.00010000                0.09926120                0.13231848               -0.43485776                0.00555250                0.13746373               -0.15886636
              20.03200916                9.48198357               93.02444121                0.00010000               -0.04221227                0.07400623                0.01843289               -0.01777610               -0.03562328                0.70294024
              21.03158704                8.93285200               92.62078111                0.00010000               -0.05032741               -0.00353980                0.05229262               -0.00613896                0.00976338                0.10995332
              22.03100261                8.38387631               92.21841607                0.00010000               -0.11403031               -0.08424345                0.09437624                0.12996216                0.27821020               -0.40951629
              23.02930643                7.83685322               91.82041988                0.00010000               -0.17406448                0.31459337                0.14478644                0.03401229                0.41941117                0.74988330
              24.02752132                7.28990577               91.42182801                0.00010000               -0.18423134                0.27792514                0.17393743               -0.84532246                0.40296871                0.26487492
              25.02562180                6.74336669               91.02424427                0.00010000               -0.18469254               -0.10552138                0.17349068               -1.88573307                0.51232868               -1.92199117
              26.02382747                6.19721209               90.62825863                0.00010000               -0.15765898               -0.79313255                0.12328727               -2.70108808                0.65649733               -5.64257994
              27.02246862                5.65139769               90.23364121                0.00010000               -0.09949702               -1.73659497                0.01813315               -2.93799940                0.75387228              -10.54660297
              28.02183753                5.10580719               89.83945095                0.00010000               -0.02029125               -2.89603109               -0.13158858               -2.23461494                0.73524496              -16.04708952
              29.02206280                4.56029723               89.44434521                0.00010000                0.06091001               -4.16907549               -0.30339360               -0.15893816                0.51172633              -21.21101908
              30.02305573                4.01481490               89.04585219                0.00010000                0.09929314               -6.01213553               -0.43896807                3.86684389                0.31236842              -24.95119921
              20.58150065               10.48295305               92.88675717                0.00010000               -0.02723877                0.10236437               -0.01908275                0.00967838                0.01319839                0.70056710
              21.58122826                9.93286259               92.48021262                0.00010000               -0.00423019               -0.00753380                0.01927187                0.02384379                0.01559742                0.03377367
              22.58141605                9.38274640               92.07399762                0.00010000               -0.22082823               -0.12394629                0.03759232                0.58383251                1.65846377               -0.69859869
              23.57681170                8.84316394               91.70010240                0.00010000               -1.20492435                0.36979577                2.27356681                0.43066181                2.40930934                1.82650849
              24.55731756                8.29557117               91.29308861                0.00010000               -2.13468270                0.32792372                2.94505837               -1.55128660               -0.86620493                0.77681742
              25.53411804                7.74131460               90.85314291                0.00010000               -2.08666821               -0.27221544                2.34299350               -3.68462915               -4.18567860               -3.57555748
              26.51558420                7.18126648               90.38396770                0.00010000               -1.24914158               -1.35244309                0.63643963               -5.35938474               -7.00782380              -10.89064494
              27.50913521                6.61634390               89.89265465                0.00010000                0.34131399               -2.85646129               -2.03621305               -6.02231599               -8.82756775              -20.49600709
              28.52241048                6.04725525               89.39027167                0.00010000                2.75173119               -4.73023492               -5.47394891               -5.10408751               -8.93471355              -31.35208308
              29.56416984                5.47593958               88.89335708                0.00010000                6.16199939               -6.95175365               -9.23160553               -2.69957481               -6.35858867              -41.93412458
              30.64565046                4.89324741               88.42310949                0.00010000                8.14806271               -8.96633587              -12.44616833                1.33703975               -2.37995573              -50.83834076
              21.13238365               11.48403086               92.74856839                0.00010000               -0.01130917                0.09736294               -0.04609262                0.01364306               -0.00278809                0.65282393
              22.13227056               10.93270133               92.33832265                0.00010000               -0.00028759               -0.01373539                0.01414213                0.02595898               -0.00595816               -0.05690317
              23.13237790               10.38139738               91.92817451                0.00010000               -0.35878331               -0.12343579                0.07274262                0.72383890                2.37047330               -0.78294885
              24.12509490                9.84424913               91.56536724                0.00010000               -1.70164836               -0.07057817                3.58842646                0.75658341                3.25934075                1.08619440
              25.09834494                9.29646425               91.14715763                0.00010000               -2.94304935               -0.15071026                4.66104336               -0.80519349               -1.90220801               -0.00071634
              26.06623391                8.73792238               90.67047663                0.00010000               -2.83672333               -0.43189199                3.53583611               -2.38293866               -7.32301636               -3.93783784
              27.04161047                8.17016322               90.14120645                0.00010000               -1.51001899               -0.89491854                0.49903515               -3.60583699              -11.92313700              -10.34259377
              28.03603353                7.59426847               89.57241146                0.00010000                0.92748156               -1.53553975               -4.18166431               -4.21948972              -14.71884828              -18.67429195
              29.06016010                7.01120249               88.98502338                0.00010000                4.30228063               -2.35124319              -10.11656390               -4.09159576              -14.49047300              -28.16570310
              30.12207914                6.42126216               88.40931344                0.00010000                7.75103830               -3.26174050              -16.54949625               -2.87754743               -9.63326385              -37.86560912
              31.21518087                5.83548818               87.88767923                0.00010000                9.31017237               -3.25265700              -22.02120905               -1.48940240               -4.21432536              -46.19827258
              21.68443258               12.48490031               92.60976792                0.00010000               -0.00516574                0.07537015               -0.06184737                0.01366263               -0.00730859                0.60317372
              22.68438092               11.93258788               92.19594056                0.00010000               -0.00437777               -0.00904270                0.01883050                0.01958614               -0.01783625               -0.08677301
              23.68434502               11.38027768               91.78202881                0.00010000               -0.37522074               -0.09516623                0.10561795                0.69543231                2.80998324               -0.77906086
              24.67687650               10.84175238               91.42466991                0.00010000               -1.84022907               -0.40383106                4.48389952                0.89124617                3.79297806                0.56106356
              25.64754044               10.29255696               90.99458617                0.00010000               -3.20581049               -0.58365430                5.74103573               -0.32472983               -2.65282274               -0.54690490
              26.61276029                9.73267676               90.48695251                0.00010000               -3.02095325               -0.59208611                4.14883837               -1.48745179               -9.35980401               -3.96631649
              27.58712137                9.16336811               89.90916074                0.00010000               -1.45270731               -0.44986396                0.05369915               -2.42090204              -14.99698710               -9.38893302
              28.58370615                8.58563311               89.27888666                0.00010000                1.32317462               -0.18496012               -6.18144547               -3.05349761              -18.29626632              -16.40714090
              29.61358487                8.00023039               88.62439626                0.00010000                4.93135278                0.19284365              -14.04072959               -3.23815890              -17.75221134              -24.51021338
              30.68233320                7.41070477               87.98633528                0.00010000                8.69127539                0.82408153              -22.57010511               -2.53469152              -11.68693683              -32.96461118
              31.78741037                6.82819427               87.41802142                0.00010000               10.50771714                1.54095065              -30.14117819               -1.21914010               -5.27662388              -40.72274076
              22.23728177               13.48553826               92.47061277                0.00010000                0.00031428                0.05434448               -0.07250544                0.01036209               -0.00733954                0.56673308
              23.23728491               12.93252047               92.05336803                0.00010000               -0.00798612               -0.00578046                0.02441672                0.01495612               -0.01581834               -0.09467854
              24.23712205               12.37949406               91.63604228                0.00010000               -0.33221859               -0.06680091                0.12717716                0.48967767                3.16444680               -0.74728166
              25.23064054               11.83617251               91.28231608                0.00010000               -1.80980423               -0.67928716                5.10947471                0.66142702                4.28050843                0.07951463
              26.20092596               11.28479116               90.84231322                0.00010000               -3.24834053               -0.92102808                6.45789306               -0.14686775               -3.04641487               -0.99467592
              27.16567373               10.72608066               90.31015759                0.00010000               -3.03449423               -0.68668728                4.48103997               -0.89423364              -10.59849414               -3.81614975
              28.14023608               10.16116594               89.69452439                0.00010000               -1.37862161                0.01443798               -0.42721562               -1.53371087              -16.89286968               -8.15110346
              29.13810130                9.59056926               89.01649793                0.00010000                1.50445904                1.11701717               -7.84605545               -2.04628798              -20.50973651              -13.73418727
              30.17032526                9.01505937               88.30978991                0.00010000                5.26600657                2.56550091              -17.18117676               -2.26674539              -19.81343025              -20.20687994
              31.24342143                8.43774379               87.62186234                0.00010000                9.27469038                4.25083834              -27.39044692               -1.76034291              -12.98339876              -27.05310860
              32.35581906                7.86630719               87.01377184                0.00010000               11.23976372                5.80411379              -36.73403280               -0.89606055               -5.95538571              -33.48708982
              22.79067540               14.48598720               92.33121751                0.00010000                0.00488491                0.03930666               -0.08211986                0.00663071               -0.00575614                0.53302637
              23.79072424               13.93247227               91.91072819                0.00010000               -0.00944293               -0.00465009                0.02731070                0.01035477               -0.01017321               -0.09392479
              24.79048654               13.37894167               91.49021343                0.00010000               -0.29581509               -0.04956523                0.14182868                0.14252041                3.57449020               -0.71921867
              25.78480794               12.82816664               91.14131751                0.00010000               -1.78958013               -0.88749049                5.57952492                0.14565152                4.94028874               -0.35262340
              26.75469493               12.27413640               90.69550768                0.00010000               -3.31535528               -1.17360747                7.01752815               -0.20379623               -3.03493651               -1.33792442
              27.71850084               11.71894301               90.14607609                0.00010000               -3.13681894               -0.71797245                4.78435109               -0.48492051              -11.22482993               -3.47531467
              28.69195856               11.16365687               89.50267272                0.00010000               -1.48069358                0.46411339               -0.70109737               -0.79651795              -18.04715939               -6.63254589
              29.68888697               10.60797345               88.78897339                0.00010000                1.45584386                2.24071700               -8.98281448               -1.12805511              -21.97192625              -10.66220257
              30.72107543               10.05154041               88.04287279                0.00010000                5.34957774                4.46989970              -19.41490829               -1.29988507              -21.22753394              -15.32713281
              31.79587852                9.49572154               87.31712764                0.00010000                9.56434627                6.95628176              -30.89123864               -1.02153797              -13.88439931              -20.20088242
              32.91236236                8.94427655               86.67853806                0.00010000               11.64838376                9.34152723              -41.58508437               -0.55579810               -6.43236645              -24.68590499
              23.34444424               15.48632440               92.19158946                0.00010000                0.00932981                0.03256597               -0.09360992                0.00241762                0.00155074                0.48758376
              24.34453754               14.93242747               91.76808499                0.00010000               -0.00830782               -0.00418188                0.02489744                0.00544404               -0.00727892               -0.09290494
              25.34427809               14.37850275               91.34444739                0.00010000               -0.30893536               -0.04229860                0.14777333               -0.30339187                4.19659378               -0.61885571
              26.33835883               13.81842270               91.00489548                0.00010000               -1.91022117               -1.06840234                6.02179651               -0.55038807                6.03070019               -0.63467933
              27.30607366               13.26131901               90.55924600                0.00010000               -3.59519902               -1.40853899                7.63856065               -0.33434369               -2.53765655               -1.44000831
              28.26645485               12.71172121               90.00035021                0.00010000               -3.53991922               -0.71022795                5.31658159               -0.17437577              -11.35150984               -2.85580149
              29.23527528               12.17044821               89.33832340                0.00010000               -1.93990988                0.84503004               -0.52726593               -0.21029458              -18.80029534               -4.78802628
              30.22765665               11.63538360               88.59921779                0.00010000                1.06520955                3.08250074               -9.39812871               -0.39965053              -23.14897812               -7.26004684
              31.25657947               11.10445736               87.82456800                0.00010000                5.12989361                5.81981910              -20.59963945               -0.54801804              -22.45632530              -10.11776120
              32.33025453               10.57686942               87.07223005                0.00010000                9.55068088                8.83659795              -32.94975002               -0.45326696              -14.67813614              -12.94507814
              33.44759309               10.05313774               86.41423656                0.00010000               11.73385591               11.86178629              -44.53428079               -0.31260427               -6.88427191              -15.06719224
              23.89851760               16.48663852               92.05150881                0.00010000                0.01371713                0.03347494               -0.10778613               -0.00087824                0.03320275                0.37017186
              24.89865477               15.93238863               91.62539606                0.00010000               -0.00470626               -0.00300429                0.01473197                0.00142968                0.08168170               -0.10878070
              25.89842347               15.37809569               91.20028836                0.00010000               -0.38354211               -0.03926812                0.13915349               -0.84743472                5.25856117               -0.48367896
              26.89098392               14.80679859               90.87756812                0.00010000               -2.18569603               -1.50299341                6.63928258               -0.87291747                7.84044988               -0.42650360
              27.85470955               14.24596562               90.44038061                0.00010000               -4.25499020               -1.59802859                8.64687790               -0.32932950               -1.31634991               -1.17033026
              28.80588412               13.70473845               89.87892203                0.00010000               -4.53096380               -0.68417836                6.38382475                0.03590736              -11.16610940               -1.77585607
              29.76409027               13.18055747               89.20577604                0.00010000               -2.94996572                1.08569295                0.35387293                0.08214350              -19.54564930               -2.58669609
              30.74688481               12.66962347               88.44898742                0.00010000                0.22694883                3.55623926               -8.90524480               -0.02688738              -24.57301003               -3.66770104
              31.76862925               12.16793679               87.65335889                0.00010000                4.56239998                6.55138827              -20.63602173               -0.14974949              -24.09819741               -4.94189661
              32.83813281               11.67245350               86.88224782                0.00010000                9.24721990                9.83454927              -33.55612789               -0.15159548              -15.79013847               -6.11488636
              33.95357365               11.18151228               86.21639774                0.00010000               11.54408422               13.21132161              -45.57997257               -0.20941091               -7.54363548               -6.18156444
              24.45292645               17.48699389               91.90973176                0.00010000                0.01825082                0.03553767               -0.12251522               -0.02176542                0.18758960                0.27693713
              25.45310896               16.93236739               91.48236914                0.00010000               -0.00035093               -0.00212452               -0.00027222               -0.01840600                0.28206590               -0.12167414
              26.45291943               16.37771739               91.05692562                0.00010000               -0.00392020               -0.03783011                0.12662252               -1.75063157                7.37388967               -0.43072773
              27.45303055               15.78836283               90.77121658                0.00010000               -2.56861111               -1.84357581                8.00540995               -1.21328470               12.01162616               -1.57648323
              28.40154721               15.22935844               90.34734912                0.00010000               -6.02247006               -1.66071829               10.51179234                0.16750654                0.50610111               -1.87643694
              29.33258115               14.69803765               89.78849026                0.00010000               -6.47570380               -0.67008087                8.38702411                0.80988481              -11.12110785               -1.93123008
              30.27203313               14.19216207               89.10853479                0.00010000               -4.64207832                1.16046025                2.22254879                1.21782308              -20.90462191               -1.94665443
              31.23973959               13.70650839               88.33827259                0.00010000               -1.06393432                3.68849200               -7.34002662                1.45163076              -26.89486397               -1.99805394
              32.25075445               13.23548513               87.52519865                0.00010000                3.69537728                6.75483369              -19.47786131                1.56512074              -26.97304853               -2.02795661
              33.31364713               12.77356041               86.73560936                0.00010000                8.72664352               10.11069101              -32.85634034                1.64538472              -18.35422916               -1.89238459
              34.42528732               12.31736417               86.06283921                0.00010000               11.16401849               13.58518939              -45.12292071                1.55174280               -9.69145789               -0.37717901
              19.33252454                7.62637502               94.30432915                0.00010000               -0.02579759               -0.01113313                0.12413657               -0.02687594               -0.38605441                0.36905710
              20.33226656                7.07491511               93.90321528                0.00010000               -0.01154095               -0.03370814                0.12059783               -0.03373739               -0.51709693                0.05735698
              21.33229372                6.52368294               93.49947737                0.00010000                0.00097785               -0.06673450                0.15884283               -0.01802930               -0.57083355               -0.05092081
              22.33228612                5.97335796               93.09689802                0.00010000               -0.00844106               -0.04760073                0.15147203                0.04461048               -0.54231978               -0.19723424
              23.33212490                5.42437181               92.69301716                0.00010000               -0.04562313               -0.02839792                0.19000049                0.04070532               -0.40175912               -0.08750395
              24.33137365                4.87610733               92.29175605                0.00010000               -0.08231775               -0.01372729                0.16306034                0.03713491               -0.11362735               -0.05828856
              25.33047854                4.32829877               91.89240689                0.00010000               -0.08033571                0.00921893                0.09037324                0.03405595                0.09763122               -0.04676940
              26.32976694                3.78080639               91.49449630                0.00010000               -0.04584479                0.03267532               -0.01346023                0.02884329                0.20963327               -0.05154668
              27.32956165                3.23349131               91.09686116                0.00010000                0.00800876                0.04907443               -0.12077309                0.01245826                0.14895537               -0.04776803
              28.32992712                2.68615899               90.69755844                0.00010000                0.05300723                0.06733856               -0.20756010               -0.00220159                0.02791270               -0.02132122
              29.33062179                2.13880259               90.29767172                0.00010000                0.06946743                0.08721776               -0.28909270               -0.00414998               -0.02863319               -0.11560598
              19.88371569                8.62626369               94.16315373                0.00010000               -0.04404614                0.02382141                0.09876442               -0.03457793               -0.09087558                0.50855298
              20.88327523                8.07457803               93.76200044                0.00010000               -0.04118476               -0.01993044                0.09497223               -0.04511970               -0.13326918                0.08351635
              21.88289200                7.52301559               93.36014543                0.00010000               -0.04437226               -0.06221441                0.11475542               -0.00407397               -0.14162268               -0.13260088
              22.88238779                6.97288196               92.95872741                0.00010000               -0.08673657               -0.01178827                0.12940382                0.03057610               -0.07329831               -0.13814494
              23.88115727                6.42408783               92.55793601                0.00010000               -0.13031306               -0.00655588                0.15359292                0.03649215                0.05190315               -0.06015862
              24.87978152                5.87597006               92.15862326                0.00010000               -0.13438464                0.00315764                0.13310909                0.03490344                0.22171074               -0.03843275
              25.87846957                5.32839096               91.76074765                0.00010000               -0.11612102                0.01924828                0.07547991                0.03546234                0.36987218               -0.02989538
              26.87745910                4.78113314               91.36397004                0.00010000               -0.07298238                0.03779358               -0.01498794                0.03067258                0.45254731               -0.03601887
              27.87700993                4.23398205               90.96746294                0.00010000               -0.01048224                0.05391013               -0.12492943                0.01876124                0.39575334               -0.04999779
              28.87724946                3.68683238               90.56950984                0.00010000                0.04633850                0.07108842               -0.21859883                0.00759678                0.22296424               -0.03415702
              29.87793670                3.13967476               90.16978824                0.00010000                0.06872359                0.08830723               -0.29375883                0.00806460                0.10742175               -0.14047967
              20.43520431                9.62685145               94.02484739                0.00010000               -0.05920396                0.08437259                0.05573840               -0.01978324               -0.02549266                0.67176250
              21.43461227                9.07451650               93.62134749                0.00010000               -0.06479994               -0.00041095                0.05889290               -0.00467931                0.02954740                0.10069106
              22.43390831                8.52243865               93.21924452                0.00010000               -0.13934340               -0.09612757                0.07284876                0.17924390                0.31487491               -0.41875536
              23.43182540                7.97312220               92.82165236                0.00010000               -0.20708360                0.92590817                0.10165588                0.66679857                0.46736766                2.03783864
              24.42976664                7.42424069               92.42326926                0.00010000               -0.20284022                0.96451920                0.11491027               -0.08798468                0.44298607                1.93384062
              25.42776860                6.87617048               92.02564153                0.00010000               -0.18709656                0.44122298                0.10688831               -1.14994806                0.53230853               -0.56924029
              26.42602471                6.32868373               91.62917780                0.00010000               -0.14896489               -0.54478230                0.06329918               -2.04684302                0.64178528               -5.19835433
              27.42478930                5.78156226               91.23362752                0.00010000               -0.08935369               -1.93235812               -0.01606142               -2.35995524                0.70007518              -11.53040467
              28.42423763                5.23456951               90.83814866                0.00010000               -0.02014808               -3.71342810               -0.12250308               -1.58430881                0.65587355              -18.89495041
              29.42438634                4.68758076               90.44165509                0.00010000                0.04303377               -5.83368579               -0.23569181                1.00710735                0.44506371              -26.15853468
              30.42509831                4.14056873               90.04218409                0.00010000                0.07119708               -9.30950977               -0.30681971                6.55988164                0.26850951              -31.75624522
              20.98798993               10.62795115               93.88676818                0.00010000               -0.03954823                0.11252589                0.01556615                0.01748263                0.01206709                0.67521310
              21.98759445               10.07456981               93.48043305                0.00010000               -0.00593774               -0.00509194                0.02420224                0.03303557                0.00847959                0.03935528
              22.98787118                9.52109304               93.07423317                0.00010000                0.31636319               -0.13316121                0.01454482                1.25972812                2.94793293               -0.66997765
              23.99392171                8.99140012               92.72653444                0.00010000               -0.57609452                1.13655155                3.08038077                2.14274888                4.80976415                4.44802476
              24.97634929                8.44337821               92.32760426                0.00010000               -2.07910960                1.25527193                4.02534735               -0.08013864                0.39208516                4.10138429
              25.95233952                7.88479452               91.88143246                0.00010000               -2.21041743                0.42968914                3.38564208               -2.32289355               -3.83619561               -0.90576663
              26.93214094                7.31749531               91.39378065                0.00010000               -1.39826489               -1.12755538                1.42946217               -4.16397545               -7.51480259               -9.99656118
              27.92437422                6.74248598               90.87303397                0.00010000                0.35821543               -3.34761912               -1.75349043               -5.02802027              -10.23320171              -22.37249706
              28.93930525                6.15971349               90.33195461                0.00010000                3.35090796               -6.23754105               -6.10059169               -4.19253368              -11.08811608              -36.89512825
              29.99139238                5.57015866               89.79154019                0.00010000                8.19265692               -9.95635729              -11.23605212               -1.93672180               -8.43950700              -51.79252313
              31.10315839                4.95348457               89.28273751                0.00010000               11.17660023              -14.02749616              -16.06129631                2.84899489               -3.36651058              -65.65433266
              21.54231663               11.62910197               93.74828380                0.00010000               -0.01855477                0.10034763               -0.01505070                0.02187544               -0.00177316                0.63682242
              22.54213109               11.07441466               93.33847025                0.00010000               -0.00220362               -0.01172870                0.01567303                0.03860759               -0.00302652               -0.03180027
              23.54227256               10.51977542               92.92875565                0.00010000                0.51320594               -0.11658610                0.04689774                1.56316905                4.41778562               -0.70797323
              24.55239520                9.99585323               92.60729815                0.00010000               -0.37515471                0.00539816                4.88621973                2.49085497                7.10271345                3.10754946
              25.53476947                9.44934613               92.20212589                0.00010000               -2.26007881               -0.03804311                6.41161288                0.68863694                0.35495018                2.53597346
              26.50719363                8.88476427               91.71374966                0.00010000               -2.48578646               -0.45599338                5.19523364               -0.85542705               -6.40727251               -2.02337290
              27.48505374                8.30613263               91.15149850                0.00010000               -1.25914561               -1.17311767                1.68052686               -2.01493642              -12.25518664               -9.95705762
              28.48201072                7.71460988               90.53098607                0.00010000                1.38302684               -2.19034243               -3.93985023               -2.69265297              -16.31069084              -20.63152290
              29.51271427                7.10981869               89.87659460                0.00010000                5.49350521               -3.55833154              -11.48174041               -2.87698432              -17.03558194              -33.25255150
              30.59188082                6.48845361               89.22622018                0.00010000               10.13560582               -5.25242415              -20.28819022               -2.25336538              -11.84466221              -46.91751108
              31.71542639                5.86001881               88.63855510                0.00010000               12.35455707               -5.67207993              -28.56584257               -1.31645884               -5.31744068              -60.04717481
              22.09780206               12.62995810               93.60930647                0.00010000               -0.01089100                0.07151917               -0.03354517                0.02123040               -0.00514789                0.59623397
              23.09769315               12.07433523               93.19612190                0.00010000               -0.00530340               -0.00561618                0.01810200                0.03110926               -0.01135742               -0.05753836
              24.09769599               11.51876132               92.78291170                0.00010000                0.82374789               -0.08315202                0.07494743                1.43641446                5.35792455               -0.71400324
              25.11416811               10.99150808               92.47703674                0.00010000                0.17574989               -0.78523511                6.07575361                2.42954742                8.63091230                2.06430091
              26.10121099               10.44261735               92.06230107                0.00010000               -1.78618107               -1.17538413                7.86079016                1.00415837                0.33973298                1.25851874
              27.07844449                9.87567465               91.53799202                0.00010000               -1.96071939               -1.28589502                6.10412781               -0.05246974               -7.86868767               -2.72770801
              28.06199660                9.29403296               90.91565952                0.00010000               -0.58046912               -1.18894383                1.33780885               -0.84359770              -14.88188122               -9.42357885
              29.06683510                8.69867913               90.21646017                0.00010000                2.29626104               -0.94311181               -6.16511475               -1.54320019              -19.55662172              -18.37500930
              30.10792182                8.08854686               89.47326585                0.00010000                6.46449258               -0.57769741              -16.13928877               -2.14031488              -20.04178638              -29.12922943
              31.19612495                7.46511018               88.73626561                0.00010000               11.28884996                0.15325649              -27.77097258               -2.13054880              -13.73954491              -41.05575912
              32.33369882                6.84004297               88.07651358                0.00010000               13.75738664                1.19988277              -39.19364128               -1.08905209               -6.30492039              -53.19708148
              22.65398697               13.63053235               93.47003363                0.00010000               -0.00369159                0.04632646               -0.04575819                0.01592521               -0.00470375                0.56441278
              23.65395005               13.07430234               93.05359575                0.00010000               -0.00794823               -0.00265385                0.02199936                0.02437995               -0.00929659               -0.06901986
              24.65382800               12.51811238               92.63713417                0.00010000                1.15900339               -0.05294368                0.09521409                0.92799992                6.05127485               -0.69567720
              25.67713012               11.98014853               92.34182734                0.00010000                0.84290324               -1.41593749                6.86402425                1.64211645                9.81463180                1.05552769
              26.67068607               11.42583845               91.91828995                0.00010000               -1.12007456               -2.07073982                8.76273356                0.80047138                0.49604158                0.09895383
              27.65472863               10.85904637               91.36530728                0.00010000               -1.27543810               -1.93229686                6.55054947                0.27514903               -8.60984736               -3.20833321
              28.64517731               10.28235375               90.69625619                0.00010000                0.09520924               -1.08251133                0.82179219               -0.16647110              -16.30626984               -8.53590440
              29.65663281                9.69574764               89.93624179                0.00010000                2.91498110                0.34696786               -8.10773472               -0.73720057              -21.34295872              -15.62953020
              30.70347693                9.09826474               89.12426587                0.00010000                7.05704594                2.29033110              -19.92706266               -1.35102192              -21.77242027              -24.20986794
              31.79777373                8.49151874               88.31804854                0.00010000               12.01514194                4.67336833              -33.78660916               -1.41683642              -14.85368218              -33.86703182
              32.94377977                7.88401646               87.59732528                0.00010000               14.60060345                7.11559714              -47.76773788               -0.79879441               -6.90817247              -43.83091598
              23.21058059               14.63088463               93.33053491                0.00010000                0.00201240                0.02909627               -0.05650035                0.01010292               -0.00240869                0.53150847
              24.21060072               14.07428216               92.91097618                0.00010000               -0.00853974               -0.00207191                0.02337391                0.01672002               -0.00347625               -0.07491187
              25.21040980               13.51770244               92.49144427                0.00010000                1.43418263               -0.03527640                0.10904244                0.11722148                6.70841163               -0.68016094
              26.23928437               12.96318933               92.20603801                0.00010000                1.39563885               -1.92652551                7.41470518                0.30190932               10.99487420                0.11251594
              27.23832258               12.40120256               91.77769572                0.00010000               -0.59261036               -2.78818925                9.40940177                0.20787559                0.95430285               -0.91357453
              28.22743216               11.83702871               91.20467258                0.00010000               -0.81783359               -2.39248956                6.89561694                0.36570180               -8.81007249               -3.42048081
              29.22196591               11.27238273               90.50158063                0.00010000                0.43739685               -0.86853485                0.49202221                0.33093338              -17.05782634               -7.26463561
              30.23618010               10.70561849               89.69641920                0.00010000                3.15821865                1.52691809               -9.46603694               -0.02780447              -22.46116988              -12.35097784
              31.28513028               10.13435348               88.83280339                0.00010000                7.29282002                4.61973351              -22.63998523               -0.51824142              -22.94345994              -18.52215955
              32.38203650                9.55857755               87.97427319                0.00010000               12.37986076                8.21579886              -38.14767280               -0.69859763              -15.63983358              -25.40630345
              33.53272749                8.98235491               87.20709464                0.00010000               15.06909921               11.89583109              -54.00923256               -0.45368548               -7.34123091              -32.38166079
              23.76739396               15.63111428               93.19078364                0.00010000                0.00726710                0.02240445               -0.06930531                0.00373228                0.00538491                0.48487805
              24.76746663               15.07426090               92.76829809                0.00010000               -0.00643534               -0.00171722                0.01881157                0.00866689               -0.00041099               -0.08273233
              25.76726526               14.51740686               92.34573259                0.00010000                1.61007798               -0.02852063                0.11329010               -0.93673764                7.56194434               -0.59533791
              26.79966819               13.94161802               92.07438888                0.00010000                1.68694713               -2.45245408                7.90405640               -1.41723173               12.57805035               -0.60449387
              27.80100420               13.37007466               91.64816301                0.00010000               -0.44028530               -3.47753724               10.10043500               -0.41185803                1.89973847               -1.54718160
              28.79086249               12.81119658               91.06476679                0.00010000               -0.88989999               -2.67628770                7.49350493                0.41498635               -8.53420200               -3.19593365
              29.78320620               12.26498305               90.33920976                0.00010000                0.16217434               -0.60021865                0.68499533                0.69899266              -17.50322362               -5.49409577
              30.79410597               11.72628600               89.50223561                0.00010000                2.84734199                2.45822121               -9.95869532                0.49115439              -23.43656824               -8.57484462
              31.84015304               11.19065941               88.60155816                0.00010000                7.08471850                6.28738124              -24.06113899                0.09805828              -24.07029162              -12.33961181
              32.93580034               10.65583472               87.70652666                0.00010000               12.34991404               10.66136333              -40.67853177               -0.15316130              -16.40220356              -16.36584405
              34.08715132               10.12193309               86.90948360                0.00010000               15.13509754               15.25669279              -57.75439323               -0.21974510               -7.79184975              -19.89553992
              24.32436200               16.63133272               93.05055368                0.00010000                0.01194816                0.02462028               -0.08453559               -0.00091653                0.03432581                0.36735226
              25.32448148               16.07424781               92.62548886                0.00010000               -0.00220346               -0.00006259                0.00515833                0.00222589                0.08544195               -0.10624585
              26.32431793               15.51713203               92.20148158                0.00010000                1.68952242               -0.02701672                0.10362143               -2.28803171                8.96033556               -0.47280425
              27.35827193               14.91414025               91.95379225                0.00010000                1.80944641               -3.63726233                8.61225077               -2.26847479               15.06432106               -0.54215871
              28.36050686               14.33165181               91.54038578                0.00010000               -0.87242138               -3.96245396               11.28442070               -0.61357531                3.74449915               -1.53116973
              29.34082350               13.78350296               90.95514132                0.00010000               -1.98252631               -2.76321231                8.76173355                0.42751517               -7.98123000               -2.18337654
              30.32085633               13.26037836               90.21652032                0.00010000               -1.02483351               -0.36672622                1.75602210                0.66788843              -18.10345306               -3.09659583
              31.32032683               12.75478291               89.35770550                0.00010000                1.83431958                3.01241394               -9.32109451                0.52961959              -24.89179032               -4.41537895
              32.35754272               12.26010110               88.43029316                0.00010000                6.36863839                7.19774802              -24.03441140                0.25244723              -25.84821555               -6.08548167
              33.44769960               11.77180481               87.51013595                0.00010000               11.92965699               11.94594737              -41.34430300                0.04746574              -17.62969508               -7.77832354
              34.59613586               11.28748877               86.70003376                0.00010000               14.84362643               17.06032620              -59.02323011               -0.17838825               -8.52662063               -8.29891129
              24.88154544               17.63160669               92.90862962                0.00010000                0.01663993                0.02739692               -0.09861393               -0.01635989                0.18380766                0.27498980
              25.88171184               17.07425965               92.48229901                0.00010000                0.00333735                0.00118347               -0.01173174               -0.01397266                0.28320743               -0.12253861
              26.88161218               16.51686652               92.05799141                0.00010000                2.90335412               -0.02655106                0.09146807               -4.53991847               11.85838710               -0.42609603
              27.93977892               15.86887277               91.86298574                0.00010000                1.88789006               -4.52674809               10.36905294               -3.15134792               20.95968690               -2.39068575
              28.91936999               15.29082558               91.46844202                0.00010000               -3.45463376               -4.08262271               13.64105734                0.23929062                6.30550572               -2.72329411
              29.87068624               14.75593233               90.88729292                0.00010000               -4.70429845               -2.75706299               11.26830783                1.32742141               -7.80207789               -2.69234510
              30.82528402               14.25764853               90.14039962                0.00010000               -3.28553117               -0.27298303                4.10369271                1.97286599              -19.69825550               -2.63471043
              31.80497562               13.78653428               89.26488130                0.00010000                0.14480328                3.17513698               -7.30468890                2.31317098              -27.66060741               -2.67471946
              32.82818008               13.33461437               88.31570073                0.00010000                5.21931871                7.45132656              -22.45932044                2.47470528              -29.30340900               -2.73296918
              33.90936199               12.89475367               87.37214386                0.00010000               11.20177793               12.29488570              -40.28407425                2.59250151              -20.74146294               -2.62345815
              35.05221564               12.46313961               86.55237926                0.00010000               14.28536462               17.56508405              -58.26748827                2.44657178              -11.15047358               -0.84818392
              19.72998401                7.77125499               95.30570528                0.00010000               -0.02519481               -0.01292420                0.14270738               -0.03419863               -0.34906132                0.34496211
              20.72973206                7.21681490               94.90442566                0.00010000               -0.00229044               -0.03434053                0.11781031               -0.04258055               -0.45727637                0.05295956
              21.72993820                6.66269411               94.50093505                0.00010000                0.02796589               -0.06820022                0.12896322               -0.01843486               -0.51152409               -0.05552131
              22.73029138                6.10980541               94.09821524                0.00010000                0.04520326               -0.04505750                0.11560530                0.06681712               -0.48532826               -0.16882808
              23.73084226                5.55880447               93.69460687                0.00010000                0.02042266               -0.02470718                0.13684761                0.05499119               -0.36642673               -0.07748968
              24.73069983                5.00883038               93.29305075                0.00010000               -0.02900668               -0.00594889                0.10719063                0.04555321               -0.13417521               -0.05402370
              25.73026213                4.45959200               92.89303701                0.00010000               -0.04427797                0.01683098                0.04743154                0.04435156                0.04308245               -0.04311244
              26.72981427                3.91086642               92.49422515                0.00010000               -0.02828517                0.03577807               -0.03163299                0.04389636                0.14237413               -0.04459134
              27.72969643                3.36244654               92.09575814                0.00010000                0.01012307                0.04418728               -0.11122458                0.02757265                0.09393122               -0.05176611
              28.73001673                2.81405556               91.69584649                0.00010000                0.03935417                0.04857422               -0.15303271                0.00619764               -0.00741088               -0.02565878
              29.73048351                2.26562338               91.29540347                0.00010000                0.04667782                0.05447870               -0.18404935                0.00248517               -0.04571805               -0.10128620
              20.28408211                8.77112575               95.16429015                0.00010000               -0.04954119                0.02746888                0.12094500               -0.03967077               -0.07214866                0.47943243
              21.28358670                8.21647150               94.76296540                0.00010000               -0.04117562               -0.01908472                0.09468555               -0.05324254               -0.09855412                0.07611704
              22.28325860                7.66201210               94.36118641                0.00010000               -0.03411634               -0.06403214                0.09318823               -0.00298092               -0.09485664               -0.13352892
              23.28290437                7.10935484               93.95983022                0.00010000               -0.06894515               -0.00012280                0.09476270                0.04414751               -0.02559524               -0.11533252
              24.28187969                6.55855739               93.55917981                0.00010000               -0.10713867                0.00549337                0.10148212                0.04828324                0.08106995               -0.05520522
              25.28076160                6.00877089               93.15962753                0.00010000               -0.10960332                0.01711509                0.07521446                0.04312602                0.21436659               -0.03870074
              26.27968763                5.45976031               92.76122168                0.00010000               -0.09678161                0.03100010                0.02741345                0.04341826                0.33336769               -0.03155695
              27.27882596                4.91122420               92.36367663                0.00010000               -0.06550210                0.04296187               -0.03479854                0.04065515                0.39417111               -0.03356271
              28.27837758                4.36288842               91.96628742                0.00010000               -0.01678354                0.04849850               -0.10806249                0.02740540                0.33686122               -0.04635925
              29.27849029                3.81454131               91.56767486                0.00010000                0.02814823                0.05203116               -0.15826302                0.00958307                0.17909645               -0.03293854
              30.27894055                3.26616816               91.16745562                0.00010000                0.04502559                0.05586684               -0.19010360                0.00690629                0.07842967               -0.11699359
              20.83849909                9.77180437               95.02555598                0.00010000               -0.07182392                0.09475756                0.07929281               -0.02060847               -0.01475393                0.63568975
              21.83778085                9.21643321               94.62195897                0.00010000               -0.07519257                0.00277189                0.06149114               -0.00223635                0.05008069                0.08893038
              22.83699524                8.66141346               94.21987304                0.00010000               -0.15759071               -0.10881928                0.05481660                0.21922380                0.35163948               -0.42733628
              23.83462904                8.10980296               93.82245300                0.00010000               -0.23016824                1.85619066                0.06179850                1.71161951                0.51375429                3.78557910
              24.83239187                7.55891433               93.42412621                0.00010000               -0.21348014                2.00924150                0.06035689                1.38756357                0.48065685                4.20878877
              25.83035943                7.00917268               93.02638204                0.00010000               -0.18573448                1.31601234                0.04491844                0.58769111                0.54816353                1.37561238
              26.82867719                6.46021200               92.62952461                0.00010000               -0.14300834               -0.03728752                0.01026152               -0.17240068                0.62548791               -4.27352192
              27.82749927                5.91172566               92.23331998                0.00010000               -0.08748758               -1.98443946               -0.03829904               -0.46621190                0.65096312              -12.28718301
              28.82692743                5.36341651               91.83700089                0.00010000               -0.02853108               -4.59908318               -0.09764920                0.35674419                0.58064574              -22.01625957
              29.82692865                4.81509619               91.43963137                0.00010000                0.02202425               -7.95086381               -0.16534511                3.47153510                0.37952021              -32.19283241
              30.82736792                4.26674071               91.03971580                0.00010000                0.04392722              -14.11892100               -0.19626818               11.01370527                0.22459003              -40.64224067
              21.39441225               10.77302090               94.88706850                0.00010000               -0.04793826                0.12123311                0.03899718                0.02441384                0.01165543                0.64360276
              22.39393287               10.21652693               94.48069667                0.00010000               -0.00694662               -0.00283638                0.02797240                0.03860778                0.00327808                0.03991823
              23.39427332                9.65983572               94.07428851                0.00010000                1.28515086               -0.14270388                0.00278492                2.24310955                4.69823778               -0.64310090
              24.41963589                9.14647865               93.76171002                0.00010000                0.79939578                2.30474318                3.97986859                4.90281926                8.20985641                8.00770897
              25.41026124                8.59874222               93.37359555                0.00010000               -1.42090702                2.67862892                5.13555906                2.76065232                2.59363615                8.61121728
              26.39121775                8.03509114               92.92085575                0.00010000               -1.82873010                1.58613421                4.44518623                0.93143782               -2.33730353                2.90420795
              27.37368664                7.45901456               92.41255694                0.00010000               -1.24602674               -0.55344030                2.36178473               -0.64812940               -6.70084176               -8.17275597
              28.36629721                6.87153541               91.85758484                0.00010000                0.42276529               -3.67569224               -1.15544773               -1.54417301              -10.49788577              -23.77385943
              29.38214194                6.27090675               91.26825984                0.00010000                3.91497901               -7.92881450               -6.41489143               -0.93622337              -12.71867354              -42.88039406
              30.44459679                5.65552403               90.66863604                0.00010000               10.68918283              -13.84548345              -13.35301311                0.45898681              -10.69490406              -63.69144290
              31.59592560                4.98378974               90.10188357                0.00010000               15.13288039              -21.29860473              -20.64337890                5.66628578               -4.57789480              -85.22690830
              21.95197529               11.77422903               94.74826738                0.00010000               -0.02371061                0.10271325                0.00775622                0.02907028               -0.00061546                0.61466724
              22.95173819               11.21637648               94.33863611                0.00010000               -0.00347892               -0.01076616                0.01699592                0.04730097                0.00066027               -0.01400446
              23.95190571               10.65855939               93.92911246                0.00010000                2.10203651               -0.11083135                0.02577793                2.79183441                7.18429582               -0.64140516
              24.99377892               10.15589782               93.66309163                0.00010000                2.35433595                0.10152777                6.27104710                5.21985118               12.56501865                5.79785614
              25.99899243                9.61248691               93.27538989                0.00010000               -0.25315309                0.14105309                8.11992948                3.40580624                4.28268067                5.91804754
              26.98871585                9.04089537               92.77438131                0.00010000               -0.98610555               -0.42630833                6.77134291                2.37333111               -3.39519202                0.68050995
              27.97927032                8.44914320               92.17481699                0.00010000               -0.19961203               -1.44378591                2.95631846                1.73227100              -10.13498953               -8.95706960
              28.98472361                7.83821182               91.49361445                0.00010000                2.24720144               -2.93291037               -3.34123749                1.21835983              -15.62471729              -22.32360109
              30.02421435                7.20484022               90.75538858                0.00010000                6.92508883               -5.04661148              -12.49689324                0.53882294              -18.11896612              -38.77550046
              31.12322539                6.53818652               90.00354963                0.00010000               12.99739262               -7.88813975              -24.32797362               -0.21869092              -13.54306615              -57.76513622
              32.28416220                5.84076862               89.31636238                0.00010000               16.09368124               -8.91536385              -36.78566465               -0.49726836               -6.27545289              -78.15883164
              22.51069876               12.77507516               94.60909702                0.00010000               -0.01502220                0.06845225               -0.01176107                0.02805269               -0.00232258                0.58399684
              23.51054853               12.21631161               94.19630260                0.00010000               -0.00550430               -0.00453454                0.01797217                0.04020872               -0.00457455               -0.03543145
              24.51058867               11.65761909               93.78352776                0.00010000                2.97784265               -0.07557175                0.05167041                2.51039150                8.77209320               -0.65758076
              25.57010539               11.14850921               93.54618498                0.00010000                4.13955731               -1.38080156                7.70632164                4.79713395               15.46380437                4.00502537
              26.59337982               10.60156329               93.15180197                0.00010000                1.59613497               -2.05556658                9.82182426                3.32150936                5.47162220                3.61014040
              27.60202809               10.02656497               92.60903506                0.00010000                0.88178960               -2.28309635                7.82932792                2.76851206               -3.62504088               -0.98273842
              28.61101561                9.43013884               91.93591692                0.00010000                1.64696485               -2.23082223                2.59027848                2.51090433              -11.49007319               -9.07171643
              29.63496738                8.81287721               91.15558436                0.00010000                4.09640454               -2.00960954               -5.87491141                1.91722518              -17.64360836              -20.20692038
              30.69294370                8.16997452               90.30161048                0.00010000                8.46635985               -1.67578754              -17.96657604                0.68698890              -20.03245478              -34.15076802
              31.80429458                7.49776123               89.43091583                0.00010000               14.39361639               -0.78954731              -33.45760940               -0.72145345              -14.72277372              -50.63163096
              32.98081603                6.80548247               88.63414859                0.00010000               17.65214462                0.91695957              -50.45120881               -0.48088042               -6.89400894              -69.13129299
              23.07006345               13.77559807               94.46969760                0.00010000               -0.00650154                0.03960953               -0.02448671                0.02106761               -0.00105877                0.55758831
              24.06999843               13.21628579               94.05380802                0.00010000               -0.00737493               -0.00199598                0.02070774                0.03233537               -0.00172307               -0.04978668
              25.06991595               12.65704795               93.63794656                0.00010000                3.78894845               -0.04395304                0.07073379                1.55001350                9.87941466               -0.65095258
              26.14577740               12.12828179               93.41959657                0.00010000                5.87254526               -2.53268917                8.59249725                3.13381067               17.54866591                2.25880319
              27.18736685               11.57137558               93.01756790                0.00010000                3.48665695               -3.77857165               10.78926217                2.43591308                6.45336362                1.47698152
              28.21551054               10.99523344               92.44116858                0.00010000                2.79046603               -3.77455438                8.25107605                2.47687855               -3.46342800               -2.32547216
              29.24317617               10.40452675               91.71096023                0.00010000                3.38609480               -2.73641306                1.91361689                2.54129929              -11.92245540               -8.70299642
              30.28323244                9.79801962               90.85434324                0.00010000                5.49469633               -0.89585651               -8.19711250                2.01355724              -18.42924817              -17.47013902
              31.35307010                9.17132447               89.91124865                0.00010000                9.50279710                1.69152065              -22.49480322                0.78922467              -20.91094241              -28.54595620
              32.47328838                8.52239557               88.94613015                0.00010000               15.30160135                5.06780586              -40.80473285               -0.38603222              -15.33094682              -41.80039292
              33.65910213                7.85910781               88.05841708                0.00010000               18.58137504                8.95012744              -61.28918200               -0.37483537               -7.26614941              -56.64816791
              23.62974467               14.77586735               94.33008750                0.00010000                0.00006885                0.02025567               -0.03578675                0.01341381                0.00226196                0.52603327
              24.62974536               14.21627169               93.91119567                0.00010000               -0.00758679               -0.00128189                0.02109039                0.02273084                0.00535387               -0.06206837
              25.62959294               13.65674003               93.49239428                0.00010000                4.43543036               -0.02446355                0.08535080                0.05469832               10.81463624               -0.64832590
              26.71845397               13.09785542               93.28961162                0.00010000                7.27767437               -3.48515992                9.15793583                0.54819219               19.35064608                0.61861887
              27.77514643               12.52599185               92.88369572                0.00010000                4.99802572               -5.18451278               11.41992046                0.97710610                7.52080118               -0.43353477
              28.81841448               11.95107389               92.28398843                0.00010000                4.19544913               -4.89498190                8.52993884                1.93161212               -2.99249465               -3.28645269
              29.85905541               11.37541058               91.51251317                0.00010000                4.50131608               -2.94500743                1.43528313                2.42260040              -11.96472175               -7.81595665
              30.90844081               10.79496008               90.59965266                0.00010000                6.26484181                0.22903941               -9.84858343                2.08694095              -18.88122365              -14.04037569
              31.98435224               10.20380494               89.59007309                0.00010000               10.01748954                4.44254410              -25.74447213                1.09848791              -21.56417590              -21.96412375
              33.10879060                9.59911735               88.55417418                0.00010000               15.77712969                9.56471058              -46.08850893                0.08383573              -15.85032877              -31.36443848
              34.29989484                8.98448502               87.59835341                0.00010000               19.11042416               15.15900014              -69.01553414               -0.12622941               -7.58810001              -41.66812147
              24.18952305               15.77600319               94.19020335                0.00010000                0.00573264                0.01361155               -0.04923243                0.00515067                0.01034213                0.47896994
              25.18958037               15.21626015               93.76846123                0.00010000               -0.00484305               -0.00044472                0.01457125                0.01229165                0.00888713               -0.07910509
              26.18942618               14.65655868               93.34671319                0.00010000                4.89545255               -0.01796215                0.08803612               -1.89738536               11.91355901               -0.57898008
              27.28748942               14.05857859               93.16297661                0.00010000                8.21321651               -4.52484341                9.63237722               -2.69805873               21.48989787               -0.68835375
              28.35369051               13.46768532               92.76125470                0.00010000                5.86173159               -6.54643166               12.09485950               -0.40703760                9.03612611               -1.77908050
              29.40472405               12.89733380               92.15022031                0.00010000                4.70257386               -5.62645424                9.11193272                1.48258868               -2.14185529               -3.60968037
              30.44774199               12.34562660               91.35202331                0.00010000                4.59264224               -2.89874432                1.58370019                2.28341170              -11.91234955               -6.22415250
              31.49657690               11.80260041               90.40004388                0.00010000                6.15702966                1.18550600              -10.45868656                2.06920536              -19.47061924               -9.93078523
              32.57088258               11.26017535               89.34334522                0.00010000                9.88540567                6.41398203              -27.41889253                1.29858058              -22.43974445              -14.72941111
              33.69428501               10.71368978               88.25865941                0.00010000               15.74798128               12.60762380              -49.09085353                0.45600800              -16.50147596              -20.22966357
              34.88584221               10.16228781               87.25914869                0.00010000               19.15571977               19.40766866              -73.55098479                0.02734149               -8.00048956              -25.63137000
              24.74933376               16.77613958               94.04981809                0.00010000                0.01019453                0.01693127               -0.06436371               -0.00063923                0.03508940                0.36297163
              25.74943570               16.21626280               93.62549923                0.00010000               -0.00034829                0.00180838               -0.00207281                0.00360740                0.09259944               -0.10929879
              26.74932679               15.65638079               93.20236079                0.00010000                5.19652240               -0.01914309                0.07728512               -4.44649931               13.68647026               -0.46692957
              27.85336615               15.00735855               93.04981314                0.00010000                8.94618356               -6.82082272               10.37401230               -4.35166513               24.74743520               -0.80840549
              28.92825046               14.39506322               92.66606902                0.00010000                5.83794142               -7.44526197               13.38294266               -0.95770615               11.65227937               -2.08461140
              29.97012498               13.83854480               92.05415671                0.00010000                3.56032844               -5.87231282               10.51178311                1.11152037               -1.09349924               -2.71065280
              30.99945703               13.31743569               91.24089648                0.00010000                3.25755913               -2.69586728                2.79237609                1.64315222              -12.24826350               -3.66547349
              32.03527616               12.81867020               90.26256553                0.00010000                4.98887274                1.80309914               -9.69967645                1.46491550              -20.84418768               -5.21083766
              33.09923449               12.33208458               89.17267067                0.00010000                9.02610682                7.49176177              -27.31482711                0.95703762              -24.25825522               -7.32356773
              34.21579830               11.85126983               88.05536176                0.00010000               15.20055599               14.16928226              -49.76738633                0.42040750              -17.78523644               -9.64525221
              35.40324561               11.37263839               87.03593314                0.00010000               18.74473082               21.67108451              -74.98130307               -0.06490189               -8.77739663              -10.80487143
              25.30926383               17.77634181               93.90775948                0.00010000                0.01474832                0.02022278               -0.07634377               -0.01154173                0.17864591                0.27266868
              26.30941132               17.21629632               93.48213450                0.00010000                0.00683037                0.00335213               -0.01944298               -0.01073837                0.28897916               -0.12766726
              27.30940044               16.65617582               93.05875499                0.00010000                7.61811857               -0.02049695                0.06667835               -8.69934425               17.57243467               -0.42595789
              28.46177369               15.92216214               92.97859764                0.00010000                9.69748528               -8.51964183               12.52767879               -6.02903296               32.77200084               -3.55987109
              29.50335015               15.31878008               92.62017027                0.00010000                2.14041496               -7.62831346               16.20089441                0.39623874               15.04727905               -3.88108752
              30.50458199               14.77988755               92.01385642                0.00010000               -0.14352531               -5.86572546               13.46100467                2.09215941               -0.78331760               -3.68467625
              31.50047964               14.29170926               91.19060864                0.00010000                0.33221697               -2.57264365                5.56173052                3.04100327              -14.07163355               -3.50897796
              32.51122633               13.83866240               90.19217881                0.00010000                2.84720332                1.99921992               -7.25002200                3.51008309              -24.01948157               -3.53782372
              33.55742371               13.41001059               89.07601225                0.00010000                7.54565119                7.79260134              -25.28448631                3.73957356              -28.26178515               -3.64924805
              34.66213935               12.99707543               87.92992788                0.00010000               14.21916711               14.58056005              -48.26527453                3.91905087              -21.45135047               -3.58581093
              35.84180705               12.59570950               86.89748944                0.00010000               17.96676983               22.30711146              -73.83486564                3.71955181              -11.91205356               -1.54255518
              20.12810255                7.91610452               96.30718329                0.00010000               -0.02112923               -0.01028763                0.14371243               -0.03900463               -0.30863423                0.31859948
              21.12789126                7.35889481               95.90557149                0.00010000                0.00855474               -0.03277542                0.10652126               -0.05007381               -0.39673584                0.04647995
              22.12827365                6.80206979               95.50205664                0.00010000                0.05082351               -0.06627666                0.09741090               -0.02152905               -0.43802521               -0.04891211
              23.12890773                6.24675144               95.09921013                0.00010000                0.08436037               -0.04138899                0.08380753                0.07779293               -0.41080821               -0.13586778
              24.12996086                5.69367614               94.69575412                0.00010000                0.06761372               -0.02117568                0.10086422                0.05814276               -0.32784361               -0.06724830
              25.13026001                5.14187329               94.29389986                0.00010000                0.01024637               -0.00085360                0.07404315                0.04624953               -0.14916999               -0.05406060
              26.13016578                4.59106718               93.89335552                0.00010000               -0.01833529                0.02050398                0.02926843                0.04912005               -0.00566300               -0.04716687
              27.12989330                4.04101160               93.49386364                0.00010000               -0.01734246                0.03554587               -0.03227598                0.05486070                0.07187590               -0.04232748
              28.12981893                3.49139742               93.09463667                0.00010000                0.01201300                0.04146924               -0.10802149                0.04187176                0.03533982               -0.04469863
              29.13013356                2.94198907               92.69449778                0.00010000                0.03872640                0.03996551               -0.15435134                0.01672045               -0.03334285               -0.04373104
              30.13059346                2.39267257               92.29399073                0.00010000                0.04599018                0.03499972               -0.17774842                0.00338107               -0.04035761               -0.12896494
              20.68492222                8.91600164               96.16557263                0.00010000               -0.05143290                0.03411938                0.12761777               -0.04342445               -0.05347007                0.44709576
              21.68440789                8.35856705               95.76389415                0.00010000               -0.03960881               -0.01654823                0.08799496               -0.05945331               -0.06385481                0.06685211
              22.68413004                7.80140702               95.36200919                0.00010000               -0.02627025               -0.06399834                0.07254975               -0.00280411               -0.04433041               -0.12842165
              23.68388248                7.24633755               94.96062266                0.00010000               -0.05743423                0.01012760                0.06630186                0.04984741                0.02511068               -0.09019948
              24.68298136                6.69346438               94.55996565                0.00010000               -0.09277518                0.01622911                0.06220929                0.05085434                0.10965694               -0.04699539
              25.68202698                6.14186475               94.16012755                0.00010000               -0.09467658                0.02906096                0.03207385                0.04406496                0.20913314               -0.03930976
              26.68108783                5.59127222               93.76129592                0.00010000               -0.08750958                0.04054298               -0.00190843                0.04665260                0.29859602               -0.03575090
              27.68027679                5.04136706               93.36327407                0.00010000               -0.06694537                0.04493912               -0.03492190                0.04894341                0.32585687               -0.03319827
              28.67974892                4.49181211               92.96530169                0.00010000               -0.03068008                0.04372419               -0.08000981                0.03709405                0.26415741               -0.03556941
              29.67966319                3.94238873               92.56634457                0.00010000                0.00974275                0.03869347               -0.11669691                0.01693667                0.13522045               -0.03664385
              30.67994377                3.39302257               92.16598616                0.00010000                0.02805862                0.03117019               -0.13663795                0.00477355                0.05928252               -0.11408596
              21.24210324                9.91678690               96.02643324                0.00010000               -0.08064245                0.10550804                0.08981381               -0.02008255               -0.00421384                0.59510170
              22.24129682                9.35856384               95.62257732                0.00010000               -0.08280859                0.00619918                0.06037562                0.00175078                0.06968135                0.07563234
              23.24044707                8.80078982               95.22034085                0.00010000               -0.17247505               -0.12077072                0.04081424                0.25413460                0.38345216               -0.43078142
              24.23784732                8.24695399               94.82288833                0.00010000               -0.24981667                3.22890590                0.03133131                3.40701105                0.55268858                6.01550402
              25.23545074                7.69400072               94.42447640                0.00010000               -0.22569245                3.54372521                0.01643178                4.07977161                0.51278795                7.05143370
              26.23333347                7.14245451               94.02653990                0.00010000               -0.19271060                2.65073275               -0.00845989                4.12412016                0.56199751                3.86020759
              27.23159653                6.59187804               93.62938303                0.00010000               -0.15005940                0.87377981               -0.03012224                3.98815335                0.61191395               -2.83193261
              28.23033228                6.04191039               93.23286154                0.00010000               -0.10286862               -1.73263757               -0.04126168                3.94153403                0.59818455              -12.64073038
              29.22953915                5.49227190               92.83619568                0.00010000               -0.05352225               -5.40470913               -0.05936187                4.74921090                0.49986992              -25.20097648
              30.22926183                4.94276294               92.43834818                0.00010000               -0.00589509              -10.49885914               -0.09219105                8.26157305                0.30697050              -39.33664369
              31.22942125                4.39329597               92.03825872                0.00010000                0.01594164              -21.03613734               -0.10738614               18.31138608                0.17676988              -52.15029904
              21.80096669               10.91811180               95.88754813                0.00010000               -0.05267020                0.12899445                0.05183396                0.03110420                0.01187171                0.60794968
              22.80043999               10.35869104               95.48099250                0.00010000               -0.00720535               -0.00175986                0.03093438                0.04410960                0.00071198                0.03507082
              23.80082259                9.79899160               95.07428887                0.00010000                2.91859058               -0.15408711                0.00281412                3.66402565                6.92498030               -0.61934904
              24.85881180                9.31091567               94.80613181                0.00010000                3.41268422                4.01906984                4.84174512                9.24590584               12.76020563               12.56207085
              25.86907627                8.76433889               94.43031544                0.00010000                0.39101313                4.77499726                5.92962206                7.88232068                6.11804838               14.22157274
              26.86663207                8.19487941               93.97033619                0.00010000               -0.38406281                3.38703239                5.09116419                7.54690739                1.23435145                7.73836427
              27.86139501                7.60874782               93.44101634                0.00010000               -0.39592282                0.58766062                3.16141377                7.16795889               -3.12101469               -5.36109316
              28.85871361                7.00671431               92.84992502                0.00010000                0.62427846               -3.58860274               -0.17601726                6.67913069               -7.96897389              -24.34578143
              29.87388058                6.38371793               92.20365678                0.00010000                4.25784826               -9.56569323               -6.02769970                6.82789258              -12.55206117              -48.81032672
              30.94387057                5.73241154               91.52447992                0.00010000               13.56124225              -18.59459214              -15.25264944                5.96828746              -12.66203130              -77.46787728
              32.14510543                4.97229982               90.86986994                0.00010000               20.12348544              -31.43594131              -26.48260659               10.73235672               -5.95290435             -110.75672233
              22.36156686               11.91936679               95.74843892                0.00010000               -0.02676508                0.10480033                0.02250649                0.03507277               -0.00005519                0.58857746
              23.36129921               11.35852864               95.33881017                0.00010000               -0.00319524               -0.01181681                0.01747291                0.05361031                0.00279551               -0.00443449
              24.36150295               10.79770808               94.92927120                0.00010000                4.80594721               -0.11080026                0.00883158                4.56198132               10.66051443               -0.59077594
              25.45741815               10.32733539               94.73271909                0.00010000                7.38152274                0.20939942                7.46872526                9.40753856               19.85110465                9.13068268
              26.50913341                9.78950067               94.36452448                0.00010000                4.12222670                0.41516323                9.15168699                8.07884245               10.53577084               10.01200470
              27.53986269                9.21019516               93.84917651                0.00010000                2.69936956               -0.28234013                7.49584420                8.46636173                3.23516941                4.02448842
              28.56312080                8.60363125               93.21062487                0.00010000                2.45410488               -1.61462139                3.79254329                9.20969985               -3.21173484               -7.34761497
              29.58894478                7.97013833               92.46416132                0.00010000                3.86394871               -3.64511881               -2.40685511                9.34412746               -9.96319677              -23.51388974
              30.64039977                7.30095803               91.62665673                0.00010000                8.55504529               -6.70232541              -12.68401263                7.93967218              -15.49794260              -44.30565911
              31.76004569                6.57087110               90.73966071                0.00010000               16.19460289              -11.12572523              -28.20083233                4.44399530              -13.55831426              -70.10797861
              32.96429183                5.76457715               89.90284181                0.00010000               20.42461421              -12.84687031              -47.04141209                1.58298907               -6.60822285             -101.14087302
              22.92334445               12.92020781               95.60907124                0.00010000               -0.01735319                0.06634227                0.00315474                0.03359447                0.00105946                0.56720179
              23.92317092               12.35845470               95.19648134                0.00010000               -0.00444883               -0.00575573                0.01708484                0.04676059                0.00232931               -0.02066228
              24.92325547               11.79677560               94.78394511                0.00010000                6.59995347               -0.07406340                0.03318807                4.03868716               12.99765042               -0.61039276
              26.05516998               11.31510365               94.63116317                0.00010000               11.22689396               -2.27187157                8.97583374                8.34652528               24.47262109                6.30705594
              27.14779335               10.77264215               94.25873755                0.00010000                8.33293652               -3.30081685               10.78216391                7.15884356               13.50179439                6.36486894
              28.22182872               10.18923261               93.69457858                0.00010000                6.89262429               -3.63058017                8.33543825                7.80091425                5.16905000                1.15911380
              29.28564584                9.57645539               92.96746509                0.00010000                6.32203300               -3.59668373                3.10682999                8.75060353               -2.06163931               -8.30103278
              30.34826938                8.93381194               92.09896194                0.00010000                7.31477133               -3.39308819               -5.42798139                8.60153349               -9.37789104              -21.65691108
              31.43194126                8.24967142               91.11393433                0.00010000               11.04309963               -3.10375127              -19.05401871                6.45782464              -14.99007497              -39.12825560
              32.56913137                7.50989704               90.06711342                0.00010000               17.87059240               -1.93092841              -39.06925920                2.48158386              -13.10538881              -61.20683226
              33.78935311                6.71536241               89.06748940                0.00010000               22.02217427                1.11355733              -64.12359457                1.02609224               -6.36041034              -88.41803027
              23.48574497               13.92069364               95.46954389                0.00010000               -0.00783364                0.03458681               -0.00963636                0.02524108                0.00332211                0.54623962
              24.48566663               13.35841353               95.05400990                0.00010000               -0.00586117               -0.00335591                0.01936690                0.03816327                0.00649062               -0.03690820
              25.48562774               12.79622681               94.63854885                0.00010000                8.14077385               -0.04031480                0.05242405                2.42577670               14.54434306               -0.61290195
              26.64848211               12.28189796               94.51367729                0.00010000               14.62767929               -4.14609908                9.80091791                5.35416969               27.59417787                3.59442272
              27.77818133               11.72348433               94.13407519                0.00010000               12.17928140               -6.18985499               11.56661431                5.11270162               15.58215172                3.02694357
              28.89206773               11.13758355               93.53032880                0.00010000               10.76861062               -6.34923364                8.48260000                6.25746783                6.70107720               -1.20997398
              29.99355354               10.53169758               92.73452853                0.00010000                9.78458451               -5.07274330                2.07226875                7.30272141               -0.88133991               -8.54966612
              31.08775942                9.90227657               91.77229954                0.00010000                9.99588121               -2.73508018               -8.25572091                6.99558816               -8.47441559              -18.96180743
              32.19347116                9.23888301               90.67436981                0.00010000               12.81134730                0.66515087              -24.38344511                4.86799647              -14.38542953              -32.72694963
              33.34398637                8.53225253               89.50195388                0.00010000               19.02058804                5.44312386              -47.76014557                1.77917626              -12.81907476              -50.24091286
              34.57388292                7.78684829               88.37154164                0.00010000               22.98965552               11.64492288              -77.21466582                0.62227354               -6.31850466              -71.34017157
              24.04840949               14.92089954               95.32981918                0.00010000               -0.00084754                0.01347216               -0.02103100                0.01580830                0.00795500                0.51627339
              25.04840101               14.35838758               94.91139799                0.00010000               -0.00614538               -0.00191456                0.01941092                0.02688351                0.01638999               -0.05552978
              26.04828658               13.79596930               94.49315128                0.00010000                9.32974232               -0.01830315                0.06890759               -0.04062980               15.74382205               -0.62241804
              27.23499586               13.23218167               94.38919673                0.00010000               17.30376024               -5.71242677               10.25790529                0.96591383               30.04475548                1.08485843
              28.39436178               12.64884505               94.00609413                0.00010000               15.18844830               -8.56822909               12.01380203                2.31839771               17.38221363                0.03441895
              29.53876482               12.06224793               93.37527136                0.00010000               13.63227320               -8.43744288                8.54393827                4.56722592                8.06704873               -3.05217411
              30.66700725               11.47500052               92.53028629                0.00010000               12.11154409               -5.97904450                1.33980818                5.92222484                0.06911987               -8.13637466
              31.78099571               10.87911033               91.49944753                0.00010000               11.61589912               -1.87595750              -10.24832283                5.67930801               -7.96862085              -15.42745514
              32.89932523               10.26297443               90.31791395                0.00010000               13.78769512                3.72952999              -28.15506513                3.94603170              -14.28324938              -25.19239022
              34.05674961                9.61875952               89.05250301                0.00010000               19.66409105               10.89006734              -53.88300164                1.56337125              -12.95973611              -37.47997285
              35.29260705                8.94826087               87.82678396                0.00010000               23.58574437               19.24388287              -86.24131232                0.56413797               -6.48990967              -51.85654611
              24.61108506               15.92096308               95.18979899                0.00010000                0.00494833                0.00682370               -0.03448022                0.00581702                0.01586147                0.46988682
              25.61113454               15.35837524               94.76858951                0.00010000               -0.00320015                0.00004893                0.01143916                0.01437122                0.02116263               -0.08257424
              26.61102105               14.79586075               94.34749331                0.00010000               10.18950467               -0.01088306                0.07221371               -3.26394856               17.06305132               -0.56990968
              27.81492463               14.16764942               94.26703642                0.00010000               19.17309835               -7.49152826               10.62606970               -4.46122275               32.73917880               -0.96216679
              28.99448302               13.55211975               93.89006020                0.00010000               17.11660734              -10.89005146               12.55899219               -0.19838146               19.55615676               -2.17247259
              30.15725678               12.96883470               93.24700545                0.00010000               15.03263081               -9.82970699                9.01527111                3.26790878                9.63674431               -4.04525780
              31.29513564               12.41211669               92.37088377                0.00010000               12.80574449               -6.32584844                1.38412730                4.81988546                0.77301156               -6.82699506
              32.41337167               11.86475742               91.29306188                0.00010000               11.88034888               -1.03395543              -10.99111061                4.60150546               -8.02579797              -11.07958577
              33.53274262               11.31347361               90.05318030                0.00010000               13.82978434                5.89941470              -30.04286152                3.27763104              -14.78890848              -16.93892935
              34.68996736               10.75005388               88.72470959                0.00010000               19.67101785               14.44358955              -57.25145399                1.51175653              -13.44039429              -24.09267218
              35.92616297               10.17172595               87.43846390                0.00010000               23.61956144               24.23948592              -91.37949529                0.50911337               -6.83418226              -31.76101201
              25.17370151               16.92103602               95.04926641                0.00010000                0.00892589                0.01071013               -0.04800463               -0.00058312                0.03461336                0.35753357
              26.17379077               16.35838856               94.62544740                0.00010000                0.00159566                0.00302600               -0.00742505                0.00384988                0.10336931               -0.11834241
              27.17373343               15.79575164               94.20302729                0.00010000               10.78608141               -0.01508858                0.06051401               -7.52303841               19.21203783               -0.46714472
              28.38951240               15.08235111               94.16127249                0.00010000               20.77377261              -11.37715385               11.31353603               -7.29142989               36.80524197               -1.29258169
              29.58920888               14.43104402               93.80804463                0.00010000               17.73068293              -12.35591991               13.84675832               -1.30617721               23.06846923               -2.85850038
              30.74412606               13.86565379               93.16537698                0.00010000               13.91366775              -10.29976575               10.45024399                2.23821333               11.29047115               -3.31139379
              31.86748223               13.34848355               92.27236784                0.00010000               11.37714164               -6.20360195                2.65768539                3.15853721                0.81764420               -4.19079628
              32.97166889               12.85843122               91.16371197                0.00010000               10.60495797               -0.41030849              -10.13665911                2.91449446               -9.18729294               -5.91190894
              34.07958139               12.38096273               89.88399662                0.00010000               12.85317519                7.07363202              -29.82436334                2.08263917              -16.51408943               -8.47412206
              35.22873240               11.90763131               88.51478822                0.00010000               18.99318875               16.19256708              -57.82605912                1.04891457              -14.67758195              -11.48294611
              36.45944517               11.43305059               87.20040770                0.00010000               23.07127725               26.87249745              -92.81815153                0.17635148               -7.58430601              -13.44626861
              25.73636831               17.92117728               94.90710275                0.00010000                0.01276035                0.01412664               -0.05595855               -0.00747285                0.17187108                0.27061548
              26.73649592               17.35843576               94.48191015                0.00010000                0.01147135                0.00471988               -0.02332156               -0.01040134                0.30004227               -0.13746628
              27.73659774               16.79555897               94.05932498                0.00010000               14.86538704               -0.01926679                0.05369057              -14.63003965               24.28525408               -0.43308779
              29.03380366               15.94010634               94.11353931                0.00010000               22.42295262              -14.22447646               13.81671748              -10.09875574               47.29851485               -5.18208923
              30.18505679               15.30500135               93.79245990                0.00010000               12.53889301              -12.60426729               16.99934718                0.72144305               27.29474110               -5.37445614
              31.28458152               14.76283938               93.15651301                0.00010000                9.02360799              -10.28144129               13.67057607                3.19771060               11.67898032               -4.88379738
              32.36552895               14.28804465               92.25163423                0.00010000                7.73004340               -6.04389051                5.69370456                4.49026506               -1.18086402               -4.52746771
              33.43918238               13.85655125               91.11988086                0.00010000                7.98331824               -0.18799753               -7.33227282                5.09642927              -12.60976290               -4.56903685
              34.52519532               13.45494625               89.81001101                0.00010000               10.98377017                7.39835208              -27.29613555                5.42909066              -20.89785767               -4.78343330
              35.65885779               13.07390522               88.40683837                0.00010000               17.68280593               16.62739113              -55.72958298                5.72402168              -18.82165699               -4.79546785
              36.87885143               12.70917590               87.07568195                0.00010000               21.99936467               27.61253103              -91.09944992                5.46769481              -11.23797573               -2.43996245
              20.52703494                8.06084831               97.30857953                0.00010000               -0.01109360               -0.00305955                0.12614471               -0.04144019               -0.26651106                0.29064090
              21.52692400                7.50109918               96.90655608                0.00010000                0.02520580               -0.02964684                0.08523420               -0.05697495               -0.33709862                0.04000595
              22.52753905                6.94181075               96.50288327                0.00010000                0.07268655               -0.06512904                0.07364130               -0.03136715               -0.36406344               -0.03485786
              23.52837773                6.38426299               96.09989139                0.00010000                0.10283011               -0.03903491                0.05877162                0.06852308               -0.32489951               -0.09600599
              24.52959566                5.82903643               95.69662415                0.00010000                0.08686466               -0.01412258                0.07693397                0.04876848               -0.27293809               -0.05465349
              25.53011503                5.27529380               95.29453161                0.00010000                0.02947207                0.00508676                0.06143005                0.03646874               -0.13811859               -0.05502897
              26.53018510                4.72276787               94.89362238                0.00010000               -0.00721915                0.02499123                0.03554739                0.02805446               -0.02186135               -0.04821325
              27.52997064                4.17119902               94.49357964                0.00010000               -0.02080105                0.03633196               -0.00878090                0.00940132                0.02405816               -0.02616834
              28.52976908                3.62022252               94.09359771                0.00010000                0.00125825                0.03954938               -0.08930776               -0.00346809               -0.03311484               -0.01947432
              29.52999581                3.06948736               93.69275946                0.00010000                0.04606912                0.04706660               -0.20086799               -0.00702328               -0.09418478               -0.04675690
              30.53069046                2.51905322               93.29184851                0.00010000                0.06946509                0.05652363               -0.30483029               -0.02815821               -0.07286254               -0.18704581
              21.08636967                9.06081771               97.16684251                0.00010000               -0.04966327                0.04412952                0.11883198               -0.04691391               -0.03565840                0.41258639
              22.08587303                8.50080271               96.76472530                0.00010000               -0.03630957               -0.01258392                0.07566336               -0.06576944               -0.03103861                0.05787286
              23.08564347                7.94115946               96.36263741                0.00010000               -0.02114550               -0.06462926                0.05565322               -0.00579268                0.00548477               -0.11948716
              24.08545012                7.38387264               95.96115626                0.00010000               -0.05377676                0.01704467                0.04445552                0.04526344                0.07689022               -0.06155909
              25.08456794                6.82889520               95.56042399                0.00010000               -0.09180656                0.02783953                0.03330323                0.04362149                0.14580748               -0.03462781
              26.08361399                6.27534466               95.16026901                0.00010000               -0.10274542                0.04372006                0.00057244                0.03501537                0.22630842               -0.03975020
              27.08251303                5.72301778               94.76118351                0.00010000               -0.11383323                0.05425299               -0.01037521                0.03131995                0.29906099               -0.03682687
              28.08133733                5.17156234               94.36297819                0.00010000               -0.09614043                0.05305411               -0.02502385                0.01399544                0.30476504               -0.02143277
              29.08059022                4.62061802               93.96468722                0.00010000               -0.04135503                0.04096840               -0.05577563                0.00324010                0.23122825               -0.01918838
              30.08051023                4.06995803               93.56534092                0.00010000                0.01263985                0.03703001               -0.10149308                0.00048197                0.12236753               -0.03988815
              31.08084302                3.51961846               93.16472286                0.00010000                0.03327921                0.03988711               -0.16483427               -0.01436835                0.07627576               -0.15015465
              21.64612667               10.06173090               97.02735225                0.00010000               -0.08597957                0.11782471                0.08770582               -0.01877623                0.00553995                0.55183343
              22.64526687                9.50084750               96.62316648                0.00010000               -0.08867001                0.00963943                0.05606272                0.00603001                0.08701801                0.06155159
              23.64435327                8.94051816               96.22068933                0.00010000               -0.18598066               -0.13205368                0.03211673                0.28732656                0.40974176               -0.42799944
              24.64154726                8.38460389               95.82307963                0.00010000               -0.26785994                5.20083318                0.01224963                6.12191785                0.58297719                8.65773542
              25.63899607                7.82959322               95.42445485                0.00010000               -0.24272519                5.71151978               -0.01460438                8.77070978                0.54050755               10.17551571
              26.63669275                7.27616820               95.02621284                0.00010000               -0.22011222                4.59385729               -0.05542359               10.79247990                0.59730002                6.51900584
              27.63459382                6.72385293               94.62892217                0.00010000               -0.20212198                2.37665408               -0.04830359               12.26281912                0.63603170               -1.04805140
              28.63265031                6.17226010               94.23249474                0.00010000               -0.15778183               -0.91211655               -0.03964078               13.00644651                0.60900431              -12.39698578
              29.63143819                5.62104189               93.83581366                0.00010000               -0.08226523               -5.81894268               -0.03476263               13.69617266                0.49833523              -27.97951901
              30.63100501                5.07022796               93.43778755                0.00010000               -0.01779747              -13.25520333               -0.05198656               17.17209281                0.31844892              -47.38394674
              31.63108224                4.51985096               93.03756808                0.00010000                0.00772276              -30.77731221               -0.10337896               30.22452332                0.22937219              -67.05741362
              22.20776094               11.06317421               96.88810517                0.00010000               -0.05545680                0.13732811                0.05431337                0.03738091                0.01398396                0.57065726
              23.20720637               10.50099550               96.48131536                0.00010000               -0.00636604               -0.00242739                0.03293650                0.05195602                0.00312345                0.02488126
              24.20763362                9.93851838               96.07434480                0.00010000                5.58035265               -0.17152691                0.00928366                5.68738105                9.55731164               -0.60588035
              25.31881343                9.48788931               95.85854492                0.00010000                8.03921031                6.44381129                5.38832366               15.93038433               18.47817326               17.97810727
              26.36841783                8.94312560               95.49218799                0.00010000                4.31952271                7.73558402                5.64306474               16.67934308               11.59234504               20.37217390
              27.40520388                8.36722181               95.02267904                0.00010000                3.16298429                6.04872737                4.39004873               19.90256858                8.44651755               12.89255307
              28.43167751                7.77055086               94.47578521                0.00010000                1.95367070                2.59446096                3.10175098               22.57775965                5.90026718               -1.89343007
              29.44427729                7.15332001               93.85406450                0.00010000                1.24341504               -2.66814981                1.09392716               23.52329016                0.62594357              -23.71894307
              30.45654581                6.50423916               93.14770584                0.00010000                4.04328603              -10.62961995               -4.26360798               22.94259407               -7.69752942              -53.65156715
              31.52514301                5.80485396               92.36358305                0.00010000               16.47708377              -23.84172558              -16.10203493               17.23510323              -13.02701982              -92.23926879
              32.78608749                4.90407221               91.57223143                0.00010000               26.09444735              -44.97596336              -34.25806948               19.64949009               -7.20251373             -143.53617433
              22.77123170               12.06447746               96.74871751                0.00010000               -0.02698857                0.10700114                0.02847130                0.03908964                0.00036603                0.56121739
              23.77096182               11.50079895               96.33898557                0.00010000               -0.00123120               -0.01484344                0.01779664                0.05625208                0.00306194               -0.00331431
              24.77120708               10.93708762               95.92928909                0.00010000                9.22929569               -0.11923956                0.00350934                7.04536931               14.65197683               -0.55870430
              25.95554773               10.51348011               95.81246614                0.00010000               16.10216749                0.29014110                7.91842259               15.65846078               28.97915370               12.88043311
              27.09325043                9.98430490               95.45842363                0.00010000               12.58855646                0.80921809                8.20118851               15.76225495               20.11064680               14.29910784
              28.20731886                9.39714274               94.92429819                0.00010000               10.34001958                0.06865758                5.81254812               19.14574581               15.97567390                7.47730902
              29.30005082                8.77574215               94.25066785                0.00010000                8.10544776               -1.51681671                2.97822540               22.77381560               12.53910725               -5.37362825
              30.36942781                8.11889710               93.44547735                0.00010000                6.93526459               -4.08596184               -1.50314111               24.46851871                5.53200956              -23.93447697
              31.43875611                7.40844949               92.50170832                0.00010000               10.32231061               -8.22714154              -11.38646038               22.14706265               -4.72427470              -49.01363198
              32.57587403                6.59339345               91.43953299                0.00010000               19.34397137              -14.67612726              -30.86159373               13.76854601               -9.26135529              -82.86844175
              33.82563554                5.62033169               90.37553414                0.00010000               24.97615119              -16.78250895              -59.81513955                6.03224268               -5.18943332             -128.77113452
              23.33589975               13.06531423               96.60916011                0.00010000               -0.01784991                0.06487359                0.01107732                0.03674815                0.00445212                0.54754829
              24.33572125               12.50069863               96.19664429                0.00010000               -0.00199531               -0.00839896                0.01456979                0.04904157                0.00841841               -0.01217469
              25.33585985               11.93613359               95.78419152                0.00010000               12.45220573               -0.07519421                0.01623359                6.14609238               17.71533088               -0.57194541
              26.58476537               11.49369213               95.72570166                0.00010000               23.20702241               -3.56717141                9.08927071               13.48816265               35.52046172                8.67878229
              27.80000029               10.95930996               95.36744525                0.00010000               20.59580895               -4.98735136                9.09949621               13.20053883               25.49658345                9.11463764
              28.99668155               10.36859496               94.77574383                0.00010000               18.26995856               -5.34007792                5.79430973               16.13322293               21.24586303                3.37672718
              30.16539946                9.74021453               93.99805352                0.00010000               15.21293876               -5.25149576                1.48502372               19.32668155               17.74278320               -7.14660052
              31.30094032                9.07160077               93.04702474                0.00010000               12.97956260               -5.02996100               -5.30371963               20.19784160               10.41059914              -22.31599752
              32.42499072                8.33969633               91.92053011                0.00010000               14.38457059               -4.78218134              -18.79546011               16.83408518               -0.14157491              -43.12729854
              33.58863173                7.51133142               90.64953064                0.00010000               21.39325686               -3.06028640              -43.43726105                8.62933623               -5.99807033              -71.39340581
              34.85285585                6.56842203               89.35167670                0.00010000               26.42241211                2.63390651              -80.08183427                4.10511040               -3.41094986             -109.50448241
              23.90119787               14.06577493               96.46950488                0.00010000               -0.00745789                0.03117446               -0.00123118                0.02792349                0.00789323                0.53126346
              24.90112329               13.50063097               96.05419535                0.00010000               -0.00312201               -0.00585718                0.01696999                0.04143040                0.01443502               -0.02892875
              25.90113543               12.93558374               95.63899505                0.00010000               15.05056648               -0.03931923                0.03733006                3.61582530               19.61721166               -0.58089930
              27.20213462               12.44213668               95.61561493                0.00010000               29.06114740               -6.37493355                9.53244114                8.53074970               39.63566408                4.83058761
              28.48235837               11.88455787               95.24890018                0.00010000               27.34720657               -9.43073660                9.30092917                9.24601402               28.84305250                4.48861858
              29.74907875               11.29034119               94.61082058                0.00010000               25.06101343               -9.76206012                5.32958204               12.25180594               24.52475380                0.02666850
              30.98357864               10.67071223               93.75240560                0.00010000               21.24120461               -8.19433410               -0.11560197               14.94094318               21.01484183               -7.91857327
              32.17390284               10.01829788               92.68922882                0.00010000               17.60642623               -5.29760668               -8.69933945               15.12970231               13.48746734              -19.56316864
              33.33570717                9.31280587               91.42357975                0.00010000               17.29161059               -0.92748478              -24.83387429               11.72654508                2.33862065              -35.73596508
              34.51973505                8.53218772               89.99092724                0.00010000               22.89246735                5.77153857              -53.19658584                5.61490441               -4.65515680              -57.66996841
              35.79355651                7.67300982               88.51412376                0.00010000               27.38214619               15.60049001              -94.78309915                2.51615508               -2.91818581              -85.88985153
              24.46674614               15.06593772               96.32966688                0.00010000               -0.00050864                0.00893787               -0.01235618                0.01744500                0.01372005                0.50288205
              25.46674106               14.50058149               95.91158389                0.00010000               -0.00377508               -0.00358584                0.01754927                0.02977521                0.02855342               -0.05466489
              26.46667064               13.93534721               95.49377243                0.00010000               16.98325874               -0.01496282                0.05688057               -0.16415750               20.98857033               -0.60167276
              27.80640623               13.36619346               95.49476972                0.00010000               33.50227166               -8.74385957                9.68837000                1.64597582               42.60830755                1.35915968
              29.13671607               12.77069523               95.12397176                0.00010000               32.45785365              -13.11362482                9.34249461                4.48232739               31.37593821                0.38345368
              30.45556330               12.17335376               94.45486720                0.00010000               29.97727790              -13.20090808                5.01399262                8.65946203               26.85940142               -2.67584434
              31.73626163               11.57632785               93.53930933                0.00010000               25.29387148              -10.18535413               -1.16875531               11.29310145               23.04719648               -7.97087212
              32.96144073               10.96564863               92.39468620                0.00010000               20.46850734               -5.07768109              -10.99046536               11.23401775               15.02235882              -15.97353684
              34.14563178               10.32114664               91.02697178                0.00010000               18.96425652                2.12541154              -28.94280824                8.44315444                3.22074460              -27.30869670
              35.34072586                9.62676219               89.47651415                0.00010000               23.79514872               11.86817018              -59.77014922                3.98718358               -4.46254570              -42.45877437
              36.62153475                8.88043183               87.87352716                0.00010000               28.08088894               24.02170016             -104.40768887                1.77163554               -2.98769721              -61.24864502
              25.03225923               16.06595369               96.18951375                0.00010000                0.00500720                0.00243915               -0.02493708                0.00645122                0.02101937                0.45804902
              26.03230930               15.50055926               95.76869001                0.00010000               -0.00094647               -0.00030847                0.00866463                0.01659730                0.03608333               -0.09322925
              27.03224030               14.93528448               95.34815746                0.00010000               18.36984046               -0.00704899                0.06333754               -5.11139734               22.45104543               -0.56845912
              28.39970611               14.26725949               95.37549800                0.00010000               36.63021597              -11.55947155                9.83800419               -6.74758473               45.77143023               -1.49543673
              29.76484462               13.62228537               95.01243455                0.00010000               35.84646275              -16.76008603                9.64398838                0.39314096               34.23493543               -2.71504561
              31.11663537               13.02632302               94.33052573                0.00010000               32.61505860              -15.52721975                5.30747741                6.03838323               29.19697796               -4.35314426
              32.41714579               12.46700515               93.37970585                0.00010000               26.85645172              -11.17292711               -1.25134598                8.58172660               24.42674088               -7.02735827
              33.65376440               11.91674426               92.18022167                0.00010000               21.31554544               -4.60178004              -11.82724651                8.33848722               15.50864939              -11.59487081
              34.84345670               11.35531410               90.74248799                0.00010000               19.32145629                4.23123970              -30.90878102                6.25257653                3.09219133              -18.35552201
              36.04019353               10.76955113               89.11363033                0.00010000               23.90966158               15.63599681              -63.23847663                3.16197196               -4.77499546              -27.13658145
              37.32164993               10.15344383               87.43155879                0.00010000               28.14564058               29.30315709             -109.72011800                1.32855883               -3.25575620              -37.30521645
              25.59766403               17.06598650               96.04885800                0.00010000                0.00781748                0.00638770               -0.03539515                0.00024243                0.03182430                0.35135726
              26.59774221               16.50057532               95.62535073                0.00010000                0.00392110                0.00311243               -0.01096927                0.00501739                0.11727883               -0.13320749
              27.59774246               15.93520623               95.20357107                0.00010000               19.33557175               -0.01829019                0.05062084              -11.71676193               24.92799341               -0.47433364
              28.98445364               15.13500403               95.27608386                0.00010000               39.38864527              -17.66363909               10.37666394              -11.24048881               50.61400860               -2.05628784
              30.38551536               14.43549350               94.94300419                0.00010000               37.35787738              -18.99124771               10.84412857               -1.53840074               38.72803790               -3.79730946
              31.73161119               13.86280936               94.26316159                0.00010000               31.59797823              -16.31917426                6.69418662                3.98638464               31.51590600               -3.83327095
              33.01747493               13.35286930               93.29405019                0.00010000               25.41451684              -11.21890140                0.02407060                5.35761929               24.91248354               -4.47186907
              34.23990153               12.87361303               92.05983235                0.00010000               20.02007582               -4.09001915              -10.90973753                4.98960090               14.67257814               -6.26959355
              35.41787644               12.40577143               90.57618340                0.00010000               18.29670216                5.34995211              -30.53039551                3.74607146                1.62700886               -9.24786920
              36.60583557               11.93948212               88.89884058                0.00010000               23.12220419               17.37573270              -63.58851565                2.02826437               -5.80567220              -12.94640738
              37.88032053               11.46649497               87.17957011                0.00010000               27.44849547               32.14589718             -110.98507527                0.58680739               -3.83482240              -15.84824071
              26.16308645               18.06608144               95.90664031                0.00010000                0.01034760                0.00949420               -0.03768229               -0.00375217                0.16303269                0.26889673
              27.16318993               17.50062150               95.48166807                0.00010000                0.01949505                0.00461880               -0.02134698               -0.01336639                0.31713062               -0.15169867
              28.16347635               16.93491868               95.05982880                0.00010000               25.57095653               -0.02875481                0.05510429              -22.75834998               31.35616016               -0.45509636
              29.67460906               15.91398671               95.25493199                0.00010000               42.13974595              -22.10173167               13.11394111              -15.60737150               63.77741798               -7.34256385
              31.00627127               15.24246042               94.96015721                0.00010000               30.21891020              -19.30330860               14.08714452                1.37323244               43.58739736               -7.14824469
              32.27898726               14.69993954               94.28726794                0.00010000               25.36116182              -16.28698245                9.88632684                4.74594220               31.88426212               -6.14125284
              33.51349451               14.24262712               93.30448273                0.00010000               21.08335148              -11.02421825                3.06176037                6.35217522               22.86978576               -5.57842988
              34.70065429               13.83494388               92.04553336                0.00010000               16.95072668               -3.86691565               -7.91626017                7.05957731               11.37309335               -5.68084491
              35.85250904               13.46231314               90.53008953                0.00010000               15.96904904                5.65417074              -27.48733880                7.56935512               -2.67458190               -6.14800897
              37.02003527               13.11706578               88.81533622                0.00010000               21.34256691               17.75836565              -60.61741925                8.12240176              -10.12174035               -6.31086506
              38.27936038               12.79636177               87.07550044                0.00010000               25.93251073               32.98667964             -108.36027311                7.83358450               -7.90838572               -3.64667000
              20.92681922                8.20539137               98.30970619                0.00010000                0.00263252                0.00892682                0.09082336               -0.04106486               -0.22375411                0.25942733
              21.92684555                7.64335648               97.90727617                0.00010000                0.04189223               -0.02423780                0.05479144               -0.06168407               -0.27595973                0.03585717
              22.92765707                7.08186435               97.50352946                0.00010000                0.09116534               -0.06531348                0.05543733               -0.03757411               -0.29583046               -0.02179098
              23.92866885                6.52230158               97.10038556                0.00010000                0.11024044               -0.03834483                0.04437509                0.05243667               -0.24890594               -0.05901848
              24.92986188                5.96498339               96.69729280                0.00010000                0.09152755               -0.00422584                0.05822098                0.04210509               -0.20144443               -0.03875790
              25.93049941                5.40929791               96.29512846                0.00010000                0.04093279                0.00906058                0.05970196                0.02928526               -0.08253391               -0.05420112
              26.93068053                4.85498065               95.89406647                0.00010000               -0.00501334                0.02552471                0.06189142               -0.01240694                0.02924148               -0.02114824
              27.93039914                4.30169112               95.49368802                0.00010000               -0.03518616                0.03321803                0.04451402               -0.06066364                0.04917192                0.01827639
              28.92997681                3.74882889               95.09285051                0.00010000               -0.02000369                0.03834969               -0.04064221               -0.08661105               -0.06665447                0.02161279
              29.92999907                3.19589101               94.69048042                0.00010000                0.04906593                0.06718659               -0.23796945               -0.07471408               -0.18625388               -0.05048752
              30.93095813                2.64318294               94.28789413                0.00010000                0.09590621                0.11169608               -0.49410595               -0.09607804               -0.17990785               -0.34682194
              21.48844346                9.20548064               98.16794927                0.00010000               -0.04512438                0.05847674                0.09627553               -0.04833552               -0.01959017                0.37424116
              22.48799222                8.64311411               97.76540742                0.00010000               -0.03173425               -0.00758324                0.05900430               -0.07074344               -0.00175962                0.05058505
              23.48780878                8.08121121               97.36312226                0.00010000               -0.01792585               -0.06709554                0.04365422               -0.00621383                0.04987918               -0.10856165
              24.48763370                7.52191813               96.96151177                0.00010000               -0.05120087                0.02092306                0.03112707                0.04012006                0.12286497               -0.03327841
              25.48678476                6.96494113               96.56063172                0.00010000               -0.09200367                0.03818224                0.00687123                0.03680933                0.18410820               -0.02075010
              26.48579363                6.40938852               96.16013900                0.00010000               -0.12124500                0.05633408               -0.02228887                0.03037547                0.27975363               -0.04015353
              27.48435986                5.85523590               95.76108841                0.00010000               -0.14626238                0.06673309               -0.01520603               -0.00052484                0.37809923               -0.01469991
              28.48286838                5.30202330               95.36277359                0.00010000               -0.11745535                0.05966243               -0.03364608               -0.04008839                0.41379467                0.01284654
              29.48201075                4.74921239               94.96418618                0.00010000               -0.03967399                0.04170028               -0.06934427               -0.06120911                0.38486564                0.00548855
              30.48207490                4.19656288               94.56431471                0.00010000                0.03473314                0.04754369               -0.11221650               -0.05175809                0.29301849               -0.08758501
              31.48270542                3.64429990               94.16268948                0.00010000                0.06305151                0.07280938               -0.28539960               -0.05182169                0.26444575               -0.39393866
              22.05058558               10.20656091               98.02818736                0.00010000               -0.08854765                0.13395274                0.07151747               -0.01648147                0.01451026                0.50591889
              23.04970010                9.64320482               97.62369857                0.00010000               -0.09284088                0.01277360                0.04942428                0.01160753                0.10178094                0.04678602
              24.04872876                9.08052244               97.22098318                0.00010000               -0.19793825               -0.14684907                0.03139798                0.32228518                0.42819154               -0.42112061
              25.04574134                8.52272004               96.82313332                0.00010000               -0.28005444                7.95865831                0.00489185               10.40614824                0.60243119               11.45243552
              26.04312767                7.96574703               96.42418431                0.00010000               -0.24645954                8.64362281               -0.04137993               16.88544227                0.55994027               12.77109009
              27.04081215                7.41042460               96.02543143                0.00010000               -0.25462096                7.26282997               -0.09006994               22.83699233                0.66856768                8.35482036
              28.03803526                6.85631531               95.62841696                0.00010000               -0.25956360                4.69488155               -0.06164270               27.80574052                0.75061968                0.38332286
              29.03562088                6.30288437               95.23206872                0.00010000               -0.19111026                0.86647714               -0.05907785               30.48955294                0.77448892              -11.45541662
              30.03421305                5.74966290               94.83550043                0.00010000               -0.08722426               -5.22102372               -0.05907369               31.11791047                0.73700668              -29.43588971
              31.03387639                5.19684188               94.43730845                0.00010000                0.01172954              -15.53410721               -0.10521552               33.58529588                0.60905936              -55.53966795
              32.03444764                4.64463913               94.03619115                0.00010000                0.05712494              -44.03448163               -0.49982188               49.83237271                0.75235962              -86.79648486
              22.61482601               11.20815969               97.88863440                0.00010000               -0.05631712                0.14876488                0.04434428                0.04361202                0.01875643                0.53336544
              23.61426284               10.64336958               97.48165123                0.00010000               -0.00433754               -0.00356987                0.03244559                0.06016471                0.00947863                0.01096834
              24.61473926               10.07827423               97.07447454                0.00010000                9.81346168               -0.19175857                0.02001371                8.50274383               12.33420208               -0.59888590
              25.81053207                9.68109130               96.91389828                0.00010000               16.10248967                9.75336344                5.05725558               26.08323529               25.88151338               23.81577844
              26.93678905                9.13781359               96.54317674                0.00010000               12.07165631               11.72392685                2.63906681               31.49702199               20.21319053               25.50930337
              28.05196520                8.55464512               96.05813716                0.00010000               10.56129236                9.81259752                0.44781759               41.88198638               22.79819297               16.65681592
              29.14801490                7.94913353               95.50305136                0.00010000                7.36733270                5.87875343                0.84678924               50.96981249               25.07408236                1.07708377
              30.19931185                7.31935284               94.87180356                0.00010000                3.11982741               -0.21979072                1.74525874               55.42910088               21.51668454              -21.66284921
              31.21041145                6.64479192               94.11838462                0.00010000                2.97463686              -10.09008838               -0.55861298               54.20867422                8.85684894              -55.61373932
              32.25880459                5.88588073               93.20243923                0.00010000               18.66734666              -28.46436096              -13.88358716               39.29673631               -7.30060695             -105.42464158
              33.58375838                4.76361027               92.18470855                0.00010000               32.49537915              -61.74649704              -45.79642930               35.47561438               -6.22211624             -184.58804650
              23.18103806               12.20953620               97.74900835                0.00010000               -0.02491953                0.11058552                0.02432375                0.04167759                0.00269842                0.53566565
              24.18078886               11.64313342               97.33916610                0.00010000                0.00119314               -0.01840789                0.01754802                0.05980500                0.00631641               -0.00884972
              25.18106192               11.07668727               96.92934139                0.00010000               16.35389154               -0.13217477                0.01023648               10.42096789               18.58835210               -0.54362391
              26.50786669               10.71778731               96.89108754                0.00010000               30.92261872                0.22196061                6.39473462               24.76658629               40.24392292               16.29034500
              27.79951429               10.20022557               96.52854825                0.00010000               27.96326220                1.33223805                2.57249584               27.98915155               35.07746016               17.62422608
              29.06713194                9.60667655               95.96542748                0.00010000               24.66047447                0.77998189               -0.91339482               36.89186567               39.70498296                9.90279864
              30.29272378                8.97389038               95.27018938                0.00010000               19.07062852               -0.86739503               -1.45541170               45.65088501               43.37294192               -3.67664774
              31.44854451                8.29848855               94.43409850                0.00010000               12.95674313               -3.78061631               -2.16833997               50.43318362               38.71621597              -23.29891634
              32.55185865                7.54786113               93.39892752                0.00010000               12.62241293               -8.97689499               -8.55817610               47.26292604               22.98251882              -51.32663687
              33.70099276                6.62755466               92.12242883                0.00010000               21.83211041              -17.76230331              -30.49471024               31.05334171                5.68147893              -93.35666947
              34.98850085                5.40970919               90.70653902                0.00010000               28.75080891              -18.84635630              -75.06199636               14.86963318                1.47477870             -157.70349472
              23.74846513               13.21037140               97.60929279                0.00010000               -0.01572515                0.06379688                0.01176861                0.03719231                0.00718064                0.52847152
              24.74830787               12.64300142               97.19677274                0.00010000                0.00198001               -0.01190314                0.01104061                0.04678157                0.01095527               -0.00778926
              25.74850473               12.07563074               96.78426978                0.00010000               21.70088093               -0.08296793                0.00701722                8.90097867               22.07574560               -0.54158418
              27.18232549               11.68553051               96.81294859                0.00010000               42.95890601               -5.41728351                6.29368810               20.61255845               48.64988095               10.50215336
              28.60768285               11.16445835               96.44072748                0.00010000               41.69061041               -7.17476909                1.77110513               22.25183388               43.45088190               11.08838726
              30.01613770               10.57024476               95.81046478                0.00010000               38.07688725               -7.38414969               -2.52322005               28.96263653               49.37402265                5.16708264
              31.36922059                9.93178563               94.99716557                0.00010000               30.89335351               -7.09100382               -4.18230727               35.81070566               53.69137964               -5.64471807
              32.63400477                9.24374052               93.99288755                0.00010000               22.86916327               -6.75684101               -6.86286318               38.56292527               48.65469463              -21.44481244
              33.82660386                8.46525402               92.73802513                0.00010000               19.20092972               -6.50695508              -16.85299173               33.67903299               32.02090879              -44.26090908
              35.01802337                7.53063467               91.19836820                0.00010000               24.51190699               -3.78425058              -44.39588275               19.03877928               11.56366066              -77.94281887
              36.31684200                6.38668314               89.46585272                0.00010000               29.88186305                6.87458093              -97.11200795                9.63611341                4.51399084             -127.46302738
              24.31652187               14.21081214               97.46951927                0.00010000               -0.00567133                0.02884549                0.00227434                0.02755859                0.01191247                0.51393342
              25.31646516               13.64289536               97.05434930                0.00010000                0.00152639               -0.01008952                0.01247152                0.03872078                0.02054828               -0.02170403
              26.31655240               13.07502791               96.63929545                0.00010000               25.74125454               -0.04286531                0.02119380                5.14568546               24.03895054               -0.54665100
              27.83129025               12.60944164               96.70432611                0.00010000               52.16421616               -9.30243591                5.90364540               12.81697363               53.24403479                5.46840653
              29.35983672               12.05673019               96.32009377                0.00010000               52.38835682              -13.57392950                0.91036070               15.18260693               47.76264100                5.39369433
              30.87905739               11.45899355               95.63692044                0.00010000               48.78027066              -14.06094299               -3.86939039               20.99088476               54.15747297                1.18295318
              32.33544214               10.83207030               94.73221649                0.00010000               40.36386176              -12.17513975               -6.38501559               26.16348839               58.75124896               -6.58283041
              33.68633462               10.16335173               93.59831275                0.00010000               30.15515092               -8.75468832              -10.63560263               27.27136906               53.52905589              -18.37065040
              34.93854516                9.41772203               92.17769232                0.00010000               23.70023004               -3.36808787              -23.12473418               22.19131161               35.93611120              -35.63907033
              36.16033922                8.55186965               90.43802216                0.00010000               26.52905052                5.81231351              -54.29850343               11.61993653               13.56473721              -60.88721212
              37.46912617                7.54720081               88.47587966                0.00010000               30.87869433               20.95849022             -111.71506707                5.63237020                5.21689407              -95.73569070
              24.88484986               15.21094831               97.32957205                0.00010000                0.00166591                0.00603987               -0.00739912                0.01668382                0.01799155                0.48625812
              25.88486652               14.64279963               96.91174898                0.00010000                0.00111445               -0.00757724                0.01445929                0.02862246                0.03889309               -0.05572395
              26.88487215               14.07477343               96.49428889                0.00010000               28.60480808               -0.01674911                0.04621079               -0.33181338               25.37480751               -0.58671580
              28.45696269               13.49948179               96.58296413                0.00010000               58.84554596              -12.65075462                5.46735552                2.64961138               56.38877357                1.22162854
              30.06178307               12.89297976               96.19294403                0.00010000               60.18262983              -18.89718927                0.27683048                7.69306915               50.80656484                0.45883796
              31.66061528               12.28902590               95.47555121                0.00010000               56.31745528              -19.27580647               -4.69746926               14.50853622               57.23082761               -2.09975112
              33.18813218               11.68828283               94.50691118                0.00010000               46.65825721              -15.76208207               -7.74191396               18.90766167               61.56254431               -6.98980070
              34.59378043               11.06864675               93.27963822                0.00010000               34.68899957               -9.78189420              -13.02508381               19.20186605               55.76061182              -14.90270126
              35.88191217               10.39789226               91.73905778                0.00010000               26.35814469               -1.02852376              -27.10158191               15.04334021               37.29173072              -26.82616466
              37.12094332                9.64688094               89.85710003                0.00010000               27.84574619               11.65630847              -60.42674832                7.65090612               13.86768287              -43.93154695
              38.43882709                8.80585295               87.73863018                0.00010000               31.78837735               28.61889327             -120.46796252                3.70044006                5.13689664              -66.62334249
              25.45315292               16.21093294               97.18930025                0.00010000                0.00595717               -0.00058573               -0.01735653                0.00622139                0.02384014                0.44304651
              26.45321249               15.64274381               96.76876281                0.00010000                0.00405245               -0.00266411                0.00544622                0.01583717                0.05236215               -0.10876094
              27.45323397               15.07469293               96.34876006                0.00010000               30.64318298               -0.00898992                0.05232659               -7.48146267               26.84683934               -0.58271994
              29.06607615               14.35642655               96.46379650                0.00010000               63.54600160              -16.88452160                5.26718803               -9.52548767               59.83397169               -2.34199423
              30.72415400               13.67878640               96.08293996                0.00010000               65.39244425              -24.28022929                0.29503912                1.59798574               54.28351113               -3.26455308
              32.37392504               13.07347742               95.35315500                0.00010000               60.49102584              -22.83898661               -4.57673540               10.04125791               60.20837060               -4.26481149
              33.93397452               12.51682866               94.34585685                0.00010000               49.34187396              -17.70067704               -7.92296153               13.75826939               63.40973927               -6.44293324
              35.36076252               11.96771385               93.05651695                0.00010000               36.36016276              -10.04595431              -13.86545153               13.47648558               56.59658285              -10.92128601
              36.66117777               11.39715155               91.43500468                0.00010000               27.23170700                0.52557729              -28.91564392               10.42415745               37.39392994              -18.07623278
              37.90539666               10.78499582               89.45994005                0.00010000               28.20065848               15.00581707              -63.53965421                5.53580198               13.59699195              -28.07063324
              39.22519094               10.11957867               87.24406154                0.00010000               31.97942873               33.31455850             -125.19372016                2.58141307                4.86169771              -40.64540047
              26.02135254               17.21093660               97.04855850                0.00010000                0.00707368                0.00288315               -0.02604706                0.00200076                0.02558977                0.34146595
              27.02142328               16.64274635               96.62522802                0.00010000                0.01038113                0.00116439               -0.01132513                0.00472906                0.13325790               -0.15116525
              28.02156017               16.07459363               96.20403970                0.00010000               32.04680873               -0.03756659                0.03192302              -17.18659670               29.57098108               -0.50006499
              29.66235945               15.16179136               96.36880577                0.00010000               67.75658731              -26.04338731                5.63885964              -16.21355046               65.42090270               -3.04914152
              31.37669191               14.40737517               96.02492720                0.00010000               68.05193635              -27.55279934                1.44161408               -1.46152026               59.84961438               -4.66652273
              33.02339818               13.83224617               95.29926071                0.00010000               59.61846139              -24.08379031               -3.16437290                6.54551590               63.06899425               -3.96266569
              34.56906114               13.33426929               94.27284925                0.00010000               47.97945315              -18.06088497               -6.68462397                8.30831143               64.24711564               -4.18379028
              35.98298724               12.86772766               92.94551722                0.00010000               35.20261030               -9.80907541              -12.95541107                7.72047232               56.10597187               -5.97081792
              37.27311335               12.40840380               91.27338871                0.00010000               26.31224988                1.35111222              -28.40017775                5.99963288               36.30276665               -9.23846320
              38.50923224               11.94699728               89.24301791                0.00010000               27.40881550               16.48504080              -63.63203044                3.46778640               12.95706691              -13.60224426
              39.82128966               11.47214412               86.98070620                0.00010000               31.20574134               36.24015791             -126.40663042                1.27290001                4.68233769              -17.84127205
              26.58957344               18.21099060               96.90634910                0.00010000                0.00765987                0.00540020               -0.02135781               -0.00026015                0.14903919                0.26293238
              27.58965004               17.64276710               96.48148321                0.00010000                0.04417900                0.00207546               -0.01191368               -0.02977429                0.33885333               -0.16628950
              28.59045702               17.07394159               96.06042706                0.00010000               40.96867815               -0.06520385                0.06735288              -33.47072935               37.49289107               -0.53349602
              30.40902360               15.83555880               96.37581814                0.00010000               71.70058846              -32.62325587                8.42036583              -22.64414396               81.03475797              -10.12851478
              32.02446879               15.12773042               96.07420279                0.00010000               58.44588159              -27.96447551                4.46407913                2.58982872               65.03982273               -8.80591978
              33.57794124               14.59180162               95.35423955                0.00010000               52.00952289              -24.04445486               -0.30835413                6.84833270               63.21705294               -7.22559488
              35.06465925               14.15561096               94.31286944                0.00010000               43.15481067              -17.86583287               -3.99435575                8.54634718               62.36656238               -6.38396741
              36.44103745               13.77153234               92.96155566                0.00010000               31.86207843               -9.61953223              -10.04171546                9.23316229               53.53611966               -6.73849800
              37.70190082               13.42417380               91.26026423                0.00010000               23.49873110                1.57699946              -24.98518098               10.03696209               33.01303344               -7.70644491
              38.91101207               13.11469664               89.19448998                0.00010000               24.92272223               16.76993612              -59.60138721               11.18838444                9.34462695               -8.50794311
              40.20035526               12.84438183               86.90847648                0.00010000               28.93431916               37.22377124             -122.44969119               10.87507988                0.85556401               -5.56555452
              21.32741989                8.34955070               99.31039599                0.00010000                0.01616436                0.02706706                0.04471776               -0.03551857               -0.17199661                0.21271092
              22.32758153                7.78555383               98.90765191                0.00010000                0.05465823               -0.01618209                0.01881427               -0.05973650               -0.20959730                0.03016893
              23.32851306                7.22218933               98.50399201                0.00010000                0.10273731               -0.06548329                0.03229998               -0.03381661               -0.22807961               -0.00759876
              24.32963628                6.66083020               98.10077889                0.00010000                0.11554038               -0.03708921                0.02929565                0.04587297               -0.19097788               -0.02575289
              25.33082386                6.10158342               97.69778857                0.00010000                0.10271972                0.00052555                0.04002113                0.04782614               -0.12686330               -0.02384198
              26.33169067                5.54418870               97.29572565                0.00010000                0.06932550                0.00499275                0.05715776                0.04204872                0.03143316               -0.03376316
              27.33221037                4.98830101               96.89486021                0.00010000                0.02396816                0.00722776                0.10059639               -0.01675944                0.19445931                0.06019677
              28.33217004                4.43339341               96.49446992                0.00010000               -0.02833957                0.00451568                0.11528331               -0.08133629                0.20939690                0.12573570
              29.33164358                3.87798345               96.09278486                0.00010000               -0.04714625                0.00944284                0.03386753               -0.11893558               -0.01107968                0.09460839
              30.33122711                3.32080903               95.68800007                0.00010000                0.03106564                0.05692642               -0.20542333               -0.10885000               -0.27195396               -0.01552326
              31.33226489                2.76252608               95.28196639                0.00010000                0.10377812                0.09165858               -0.60008002               -0.11654457               -0.34799093               -0.60106172
              21.89106157                9.34982137               99.16876802                0.00010000               -0.03967172                0.08067266                0.06078407               -0.04420761               -0.00518175                0.31887714
              22.89066485                8.78539201               98.76590539                0.00010000               -0.02624323               -0.00072147                0.03963174               -0.06808690                0.02161722                0.04159723
              23.89053670                8.22153450               98.36351049                0.00010000               -0.01334433               -0.07229329                0.03704164                0.00182933                0.08103524               -0.08933268
              24.89039796                7.66045931               97.96177880                0.00010000               -0.04569146                0.02179400                0.02347073                0.04063256                0.14724912               -0.00087690
              25.88962287                7.10158868               97.56056142                0.00010000               -0.08227981                0.04432869               -0.01755324                0.04261136                0.21349469               -0.01207711
              26.88875237                6.54423863               97.15982323                0.00010000               -0.10912236                0.05388681               -0.03860658                0.04626974                0.34343908               -0.03573081
              27.88744043                5.98837329               96.76087939                0.00010000               -0.11184554                0.06277136               -0.06096721               -0.00207608                0.51424790                0.05610726
              28.88651546                5.43343856               96.36230527                0.00010000               -0.03470082                0.03641934               -0.11534731               -0.07044116                0.69043367                0.14177232
              29.88674641                4.87807788               95.96330034                0.00010000                0.06759195                0.00711028               -0.14935903               -0.13826272                0.85398523                0.10935679
              30.88786730                4.32137830               95.56309660                0.00010000                0.13179962                0.02505277               -0.13910559               -0.16834229                0.76998013               -0.16461875
              31.88938240                3.76344267               95.15901487                0.00010000                0.15151068               -0.03119420               -0.37516932                0.01139431                0.68681028               -1.13325404
              22.45539445               10.35116415               99.02878260                0.00010000               -0.08877847                0.15995786                0.03557959               -0.01043319                0.02278204                0.44873687
              23.45450666                9.78553940               98.62415497                0.00010000               -0.09560529                0.01776614                0.03982551                0.02351335                0.11247743                0.02987329
              24.45348234                9.22074347               98.22131729                0.00010000               -0.20559557               -0.16760214                0.04442074                0.36302934                0.43194789               -0.40868186
              25.45039475                8.66126608               97.82317746                0.00010000               -0.27927856               11.78956727                0.01118472               17.95350311                0.59515961               13.77013708
              26.44789677                8.10247000               97.42362725                0.00010000               -0.22816459               12.36795216               -0.07291350               31.14101185                0.58553475               12.90977415
              27.44583146                7.54526644               97.02441144                0.00010000               -0.24639257               10.80617232               -0.09923883               44.98135946                0.74211405                7.11289782
              28.44296892                6.98955644               96.62768931                0.00010000               -0.23874158                8.09734165               -0.09710154               56.04538429                1.02721718               -0.04728360
              29.44105663                6.43412179               96.23131319                0.00010000               -0.10151647                4.22973424               -0.16224056               63.06657389                1.59968057              -10.48843299
              30.44093859                5.87812565               95.83463218                0.00010000                0.07194241               -2.47702985               -0.43863770               65.17445073                2.77912681              -28.43789010
              31.44249548                5.32131009               95.43568324                0.00010000                0.37127283              -15.50687741               -1.01267854               65.43580996                4.38110801              -61.69406236
              32.44836405                4.76190220               95.02757164                1.00000000                0.58685701              -61.07396297               -6.60410951               84.44541653               10.49328172             -119.84783094
              23.02210240               11.35302052               98.88899206                0.00010000               -0.05465955                0.16841155                0.01760382                0.05146722                0.02505933                0.49342120
              24.02155580               10.78574733               98.48196427                0.00010000               -0.00158931               -0.00194745                0.02700717                0.07051869                0.01794188               -0.00404029
              25.02207061               10.21818246               98.07474507                0.00010000               17.30928475               -0.21617820                0.04146405               12.40368285               14.61864525               -0.59454579
              26.36774150                9.89625066               97.95969003                0.00010000               30.31860730               13.94853131                1.38055435               42.07949200               34.54251263               28.18885503
              27.62844276                9.34894772               97.54496933                0.00010000               26.67758105               16.83843414               -8.18595486               56.83371740               40.23328422               26.36247000
              28.90129312                8.76036208               97.03163539                0.00010000               24.55250021               14.88023326               -8.53198983               80.76591682               52.75452554               15.23078490
              30.11949276                8.15032012               96.49272100                0.00010000               17.89923023               10.92692741               -5.91316342              100.67704438               63.25723336                0.86410918
              31.25927772                7.51803325               95.88896967                0.00010000                9.17771837                4.88565005               -2.18164152              112.60872567               66.67382987              -19.12719125
              32.30304713                6.82853728               95.13653358                0.00010000                2.67646152               -5.79247013                0.93972670              113.11725333               56.49511002              -51.76717537
              33.31280695                6.01124075               94.08591130                0.00010000               19.70296972              -29.54895005               -7.19749323               82.64113810               26.43222694             -110.66491190
              34.69710652                4.54196341               92.65630285                0.00010000               38.42995702              -78.83922828              -59.58517145               64.99960014                9.75443462             -228.42288249
              23.59097017               12.35453238               98.74920398                0.00010000               -0.02150667                0.11761095                0.00923892                0.04586126                0.00763822                0.50938726
              24.59075510               11.78550045               98.33933653                0.00010000                0.00412531               -0.01938465                0.01425016                0.06475439                0.01389241               -0.01544519
              25.59105268               11.21641990               97.92949382                0.00010000               28.52321110               -0.14173042                0.01615969               14.69322765               21.05296945               -0.53243191
              27.16121933               10.94023671               97.94036083                0.00010000               56.47035110               -0.28770133               -2.21066146               37.81912873               55.20405073               18.02234841
              28.72045970               10.43923868               97.50987354                0.00010000               54.92790356                2.02922301              -13.33108742               47.28466902               66.46091758               18.16748300
              30.25977740                9.84287110               96.90603029                0.00010000               48.91894691                2.00407847              -14.21358734               64.76435497               84.77392652               10.01050077
              31.69883864                9.20809499               96.22155962                0.00010000               37.76182942                0.74864663              -11.42849982               81.31376087               97.65097559               -2.80937040
              33.01501399                8.53183479               95.40211055                0.00010000               25.56187580               -1.97714887               -7.74679425               91.40390960               98.04216941              -21.03634554
              34.21007615                7.76227625               94.33054480                0.00010000               18.34390624               -7.64119631               -7.49836794               87.76887041               79.71547263              -48.27497181
              35.38189211                6.73033109               92.82963878                0.00010000               23.84172925              -18.71795214              -24.73427156               60.10558942               43.21185020              -94.25232786
              36.68691074                5.18511763               90.87429421                0.00010000               30.50186278              -14.60712796              -88.57641104               31.03165981               18.87946339             -174.89648474
              24.16108347               13.35537274               98.60939548                0.00010000               -0.01201072                0.06209798                0.00611858                0.03898363                0.00984940                0.50547641
              25.16096337               12.78535964               98.19686511                0.00010000                0.00577171               -0.01399016                0.00760137                0.04890362                0.01547704               -0.00593457
              26.16119891               12.21534785               97.78433186                0.00010000               37.01709634               -0.08941482                0.00541895               12.30109708               24.00751905               -0.51304843
              27.90130529               11.89049663               97.85157542                0.00010000               75.51514173               -7.93737201               -4.52701116               29.95909986               63.20660058               10.26349520
              29.67150174               11.38953218               97.40286735                0.00010000               76.32093085               -9.95117367              -16.49954213               34.72520894               75.93937786               11.09885541
              31.42772391               10.80044365               96.72527943                0.00010000               69.26512734               -9.69786444              -17.34840829               46.80444848               96.35733871                5.84808268
              33.05680429               10.16529305               95.91440738                0.00010000               55.27253702               -8.93924905              -14.97836700               58.82096519              110.16278742               -3.64747912
              34.53317465                9.47849027               94.90976747                0.00010000               40.15619754               -8.38502989              -12.63786041               64.72072165              109.85892453              -17.68189248
              35.85992824                8.67571335               93.58347027                0.00010000               27.94513545               -8.16422208              -15.45126752               58.15176305               89.93860682              -38.83186725
              37.09207736                7.63688171               91.76161299                0.00010000               27.41191979               -3.73097183              -38.27556454               34.25289242               49.34400258              -73.21001303
              38.40816664                6.24982085               89.40943654                0.00010000               31.60892761               15.02004582             -109.51209853               18.05734739               22.37573380             -131.03545002
              24.73177605               14.35577434               98.46955036                0.00010000               -0.00179746                0.02545781                0.00294741                0.02806357                0.01223018                0.48798216
              25.73175807               13.78522065               98.05444478                0.00010000                0.00807922               -0.01530686                0.00736487                0.03479877                0.02097613               -0.01499645
              26.73193763               13.21463161               97.63941892                0.00010000               42.72294590               -0.05997851                0.00977834                6.90106738               25.49510331               -0.48372205
              28.58621699               12.78148927               97.73368784                0.00010000               88.65396159              -12.96704973               -6.57698981               17.99024394               67.21509371                4.82780110
              30.50501686               12.24021521               97.26710740                0.00010000               91.69442530              -18.62531940              -18.95655924               22.80915483               80.28951610                5.13449262
              32.42010549               11.64891382               96.53343277                0.00010000               84.60972280              -19.26597315              -19.71822982               32.37917934              101.41623362                1.96540277
              34.19721132               11.02931001               95.62470529                0.00010000               68.94513131              -17.12007924              -17.64011843               41.09207967              115.48607532               -4.33308921
              35.79900812               10.36413420               94.47651677                0.00010000               50.87543289              -13.45499288              -16.25666603               44.05067619              114.92612745              -14.32110357
              37.21471998                9.59899181               92.96108507                0.00010000               34.69171712               -7.42011836              -20.93105930               37.28269043               93.90988979              -29.67078959
              38.49284246                8.65571165               90.90495717                0.00010000               30.37297159                4.46658247              -46.39350992               20.64782506               51.13375810              -54.27898915
              39.82217941                7.48551855               88.27982242                0.00010000               32.93369438               26.49811255             -120.69494531               10.63297660               22.88172104              -92.92498610
              25.30275212               15.35588190               98.32951890                0.00010000                0.00499527                0.00269145               -0.00068747                0.01890454                0.01929674                0.46104502
              26.30280207               14.78505350               97.91187308                0.00010000                0.00997572               -0.01578264                0.00977578                0.02025222                0.04299317               -0.05793262
              27.30295164               14.21414828               97.49469665                0.00010000               46.63622482               -0.03761659                0.02685765               -0.58460533               26.40532433               -0.51058978
              29.23552657               13.63115564               97.60411683                0.00010000               97.86543281              -17.34556513               -7.91254945                3.94330869               69.80836832                0.41786757
              31.26026029               13.01702579               97.12950837                0.00010000              102.53430633              -25.76020368              -20.45113040               12.00540203               83.36789043                0.18268125
              33.28621270               12.41512418               96.36091781                0.00010000               95.15826050              -26.57982622              -21.08450375               22.18230384              104.60950234               -1.32377261
              35.16342550               11.82289147               95.38447105                0.00010000               77.91468369              -22.85507966              -19.21031790               28.95167708              118.35956914               -4.98509016
              36.84450637               11.20939041               94.13418452                0.00010000               57.52895441              -16.58473244              -18.45003787               30.09798095              117.20993423              -11.51261067
              38.31400459               10.52731098               92.48494015                0.00010000               38.70003750               -6.97666461              -24.14582263               24.50075814               95.31894521              -21.95442483
              39.61850712                9.72621336               90.26797919                0.00010000               32.36038940                8.32544621              -50.92613249               13.13530801               51.37325836              -38.29914159
              40.96121238                8.77978310               87.46416791                0.00010000               34.27052571               30.64706264             -126.67519652                6.78004943               22.71274978              -62.93272096
              25.87381093               16.35582817               98.18916662                0.00010000                0.00858108               -0.00574629               -0.00394578                0.01191709                0.02434740                0.42078277
              26.87389674               15.78490500               97.76879893                0.00010000                0.01662332               -0.01109464                0.00035346                0.00875997                0.06284201               -0.12918284
              27.87414339               15.21387927               97.34920399                0.00010000               49.41544549               -0.03051763                0.02784478              -10.38471725               27.68561062               -0.55033255
              29.86220565               14.43457797               97.48084176                0.00010000              104.35064813              -23.45780350               -8.43532389              -12.62052568               73.22525049               -3.39351556
              31.96115635               13.72501113               97.01833533                0.00010000              109.78401252              -33.30627869              -20.62110024                3.72658711               87.20875453               -3.53925618
              34.05788590               13.11731729               96.23899102                0.00010000              101.04111380              -31.63263424              -21.09055748               15.30268040              107.76070587               -3.38557932
              35.98197863               12.57220841               95.22124662                0.00010000               81.93311642              -26.03552820              -19.47355831               20.39287428              120.19764307               -4.80943697
              37.69654823               12.03243955               93.90291264                0.00010000               60.29667813              -18.01162234              -19.21259279               20.21126233              118.03224250               -8.62141531
              39.18791219               11.45945852               92.16417512                0.00010000               40.32641426               -6.57841829              -25.55659946               16.11037616               95.43835049              -15.08694632
              40.50307651               10.82222058               89.84283725                0.00010000               33.13643604               10.33369759              -53.14356854                8.90767904               51.06685228              -24.89493368
              41.85064091               10.09845980               86.92768438                0.00010000               34.75644036               33.27357472             -129.84285212                4.49283866               22.42602771              -39.22273361
              26.44483681               17.35576697               98.04833706                0.00010000                0.00893634               -0.00346337               -0.01747451                0.00586868                0.02261155                0.32196402
              27.44492617               16.78483161               97.62512423                0.00010000                0.03737587               -0.00598315               -0.00769930               -0.01183766                0.13973018               -0.16802823
              28.44558432               16.21353793               97.20420953                0.00010000               51.35290151               -0.12026189               -0.02020012              -23.89880961               30.64598778               -0.52958374
              30.47198420               15.16199957               97.38886105                0.00010000              110.32341942              -36.85931395               -8.23737740              -22.16574310               79.99171385               -4.40225922
              32.65205271               14.35090022               96.97183647                0.00010000              113.65424139              -37.86101454              -18.90017482               -0.60190520               93.63796791               -4.98979624
              34.74506903               13.78247150               96.19987413                0.00010000              100.20540111              -33.59236598              -19.47155626                9.90282317              110.74607726               -3.06473868
              36.65616073               13.30218091               95.16035771                0.00010000               80.82062440              -26.86505065              -18.33548598               11.91087416              120.95996017               -3.05383177
              38.36148151               12.84915797               93.80072413                0.00010000               59.51351753              -18.21712523              -18.45763385               11.04976912              117.71403664               -4.81742927
              39.84643108               12.39574262               92.00817984                0.00010000               39.80889520               -6.25126643              -25.11500475                8.78262674               94.68799576               -8.05693692
              41.15765942               11.93288731               89.62619997                0.00010000               32.60798113               11.08710973              -53.04614194                5.25755131               50.45978343              -12.62473051
              42.49859071               11.44525459               86.65143750                0.00010000               34.09312876               36.55251552             -130.91417590                2.12961583               22.19081000              -18.81955374
              27.01579902               18.35575890               97.90621315                0.00010000                0.00900084               -0.00080719                0.00059906               -0.00113488                0.12899613                0.23962781
              28.01588903               17.78478534               97.48142980                0.00010000                0.16001115               -0.00462766               -0.00840148               -0.11795698                0.36037525               -0.16865376
              29.01899925               17.21147404               97.06117585                0.00010000               63.28197290               -0.20638888                0.01765286              -47.02819003               40.61458525               -1.08815832
              31.28152849               15.69739169               97.42333931                0.00010000              115.48235361              -46.46078777               -5.68775967              -31.22973069               99.07966240              -12.87515483
              33.32864632               14.96779084               97.04943879                0.00010000              101.15665931              -38.31093784              -15.52784335                5.06327487               98.23455843              -10.29319253
              35.30466168               14.44546997               96.28110086                0.00010000               91.24316647              -33.70015269              -17.06018103                9.31509273              110.14503742               -7.18728084
              37.15350965               14.03490740               95.22459562                0.00010000               75.96601095              -26.72735062              -16.31377887               10.86624493              119.43941921               -6.57057796
              38.82398189               13.66809704               93.84469905                0.00010000               56.31628683              -18.10609233              -16.00353462               11.22632735              116.57998971               -7.63913706
              40.27983538               13.33443319               92.03038591                0.00010000               36.73668343               -6.13094317              -21.72541942               12.13371651               93.48132170               -9.41940461
              41.55871556               13.04396277               89.62330847                0.00010000               29.43316397               11.10754622              -48.69256414               14.85946055               49.08027821              -11.20179703
              42.86849866               12.82951011               86.62650662                0.00010000               30.97831006               38.42555174             -126.41030149               15.54552958               21.01531682              -11.84639235
              21.72886746                8.49290154              100.31060054                0.00010000                0.01901237                0.05700320                0.00527745               -0.02510037               -0.09618162                0.12789035
              22.72905758                7.92745291               99.90765246                0.00010000                0.05505158               -0.00099161               -0.00963732               -0.04885510               -0.12170529                0.01671001
              23.72996849                7.36267542               99.50417546                0.00010000                0.09975779               -0.05761329                0.00272612               -0.02455223               -0.13982905                0.00329441
              24.73105274                6.79978671               99.10097147                0.00010000                0.12046826               -0.02846805                0.00388408                0.06177388               -0.11631236                0.00299846
              25.73237785                6.23896086               98.69809322                0.00010000                0.15018471               -0.00999476                0.00578781                0.09527624               -0.02071726               -0.00534496
              26.73405643                5.68042749               98.29627162                0.00010000                0.17237990               -0.04393761                0.02510068                0.08806814                0.22158114                0.03621832
              27.73582545                5.12414622               97.89607840                0.00010000                0.13029968               -0.06172789                0.09863442                0.03911386                0.46933992                0.16933399
              28.73666243                4.56853512               97.49599369                0.00010000                0.01998016               -0.05196435                0.12596697                0.03656294                0.45100829                0.19046048
              29.73622506                4.00969011               97.09352786                0.00010000               -0.06419816               -0.01379023                0.05667635                0.05002722                0.15680163                0.10584161
              30.73537846                3.44538750               96.68637196                0.00010000               -0.00796854                0.01998315               -0.10621106                0.00688267               -0.17382211                0.07995562
              31.73606569                2.87706474               96.27589253                0.00010000                0.06872233               -0.10351727               -0.44136875                0.02166238               -0.33779108               -0.51776401
              22.29406509                9.49347157              100.16916495                0.00010000               -0.03829977                0.12050311                0.01570946               -0.03140665                0.01310979                0.20652478
              23.29368209                8.92744299               99.76620005                0.00010000               -0.02545109                0.01452492                0.01908023               -0.05074483                0.03722791                0.02216601
              24.29355607                8.36209929               99.36386309                0.00010000               -0.00771672               -0.07805998                0.03112018                0.02178874                0.07196971               -0.05873105
              25.29352776                7.79950203               98.96198118                0.00010000               -0.02729205                0.02124256                0.01373216                0.05217285                0.11056158                0.02445059
              26.29301023                7.23886091               98.56028065                0.00010000               -0.05916613                0.02868722               -0.02671042                0.08563125                0.19978952               -0.00531776
              27.29234443                6.67998811               98.15936687                0.00010000               -0.04237246                0.02214524               -0.07441375                0.11019810                0.42117008                0.05333394
              28.29216278                6.12352894               97.75986907                0.00010000                0.09558377               -0.03090917               -0.20300018                0.19398819                0.74665277                0.31076460
              29.29425611                5.56801548               97.36046664                1.00000000                0.30681795               -0.10419050               -0.27901082                0.50162310                1.13391423                0.39857303
              30.29829914                5.00955221               96.96119900                1.00000000                0.37519316               -0.10091285               -0.25946587                1.33861687                1.49872171               -0.02570192
              31.30175997                4.44558734               96.56153260                1.00000000                0.31529685               -0.26207878               -0.19998458                2.98289975                1.43933738               -0.94487618
              32.30460507                3.87602957               96.15518609                1.00000000                0.28451000               -6.33351044               -0.38512896                9.26776282                1.27991131               -7.14909858
              22.86029649               10.49531160              100.02889895                0.00010000               -0.08815198                0.20675846               -0.01344628                0.00906470                0.03275148                0.31765720
              23.85941497                9.92774340               99.62449508                0.00010000               -0.09756309                0.03321119                0.02790328                0.04945954                0.10568283                0.01868352
              24.85834523                9.36111422               99.22187160                0.00010000               -0.20402003               -0.19462520                0.07692558                0.41492444                0.35812615               -0.33882463
              25.85533457                8.80021156               98.82335702                0.00010000               -0.23704178               16.40915029                0.02871336               30.80253458                0.45576298               12.86231784
              26.85360439                8.23953460               98.42272604                0.00010000               -0.18711015               16.99778910               -0.08077773               62.85789930                0.52880510                4.68258125
              27.85159237                7.68087039               98.02344665                0.00010000               -0.09632691               14.88269263               -0.26340166               87.54765184                1.20512159               -0.00023484
              28.85167785                7.12352803               97.62647493                1.00000000                0.45396266               12.45082330               -2.18011529              107.46217109                7.79161737               -5.37958553
              29.86067162                6.56645131               97.22882391                1.00000000                1.68738394                9.89980883               -6.79228930              123.94317858               33.76436618              -11.57664378
              30.88542553                6.00767185               96.82672767                1.00000000                3.39437376                5.19917922              -12.85092169              135.93837503               72.95868650              -23.12020564
              31.92855909                5.44014593               96.41705488                1.00000000                8.75554719               -8.34801912              -16.45848262              135.43212860              115.50356964              -51.34008646
              33.06053648                4.75039453               95.90410895                1.00000000               13.19773818              -76.37997615              -63.01410043              147.69780588              160.89618994             -191.47834721
              23.42938278               11.49760674               99.88898647                0.00010000               -0.05141153                0.20044617               -0.02215687                0.08150907                0.03022993                0.37630535
              24.42886866               10.92810721               99.48219138                0.00010000                0.00018115                0.00901380                0.01357342                0.09809705                0.02862621               -0.00597710
              25.42938640               10.35820678               99.07530382                0.00010000               30.11447003               -0.23311923                0.05649585               17.11647978               13.68313439               -0.48438047
              27.03115806               10.12768503               98.94150937                0.00010000               62.00614866               19.30686666              -28.23451105               69.84216634               95.27609831               29.15079075
              28.66950937                9.57881669               98.37945764                0.00010000               56.40729878               23.30713043              -26.60845516              107.97078624              114.06170025               16.38194004
              30.15930404                8.97764197               97.88749737                0.00010000               44.31579541               21.61860652              -23.30709115              149.65303670              135.08124365                7.54142922
              31.55582528                8.37254540               97.38478809                0.00010000               36.48359118               18.62442806              -19.75875881              184.31774341              147.30019773               -3.29188438
              32.88897586                7.76601165               96.82817073                0.00010000               29.37733666               14.52562667              -16.07163087              209.03607400              154.35219461              -17.18747743
              34.14337202                7.11353579               96.13717916                0.00010000               18.93520002                6.38765777              -11.09475223              217.29148189              150.40598345              -38.19118855
              35.26767986                6.27862695               95.05848936                0.00010000               24.73459834              -18.66697536               -7.67312240              166.39077575              110.34722057              -87.71794193
              36.63806398                4.34843005               92.99300512                0.00010000               37.03841194              -79.58743671              -46.24460299              117.79244813               59.13009181             -215.20292928
              24.00092573               12.49932053               99.74919313                0.00010000               -0.01488577                0.12639056               -0.01461530                0.07732002                0.01274402                0.39662303
              25.00077687               11.92792368               99.33945110                0.00010000                0.00856391               -0.01663704                0.00855481                0.09718404                0.01939282               -0.01379740
              26.00109701               11.35645184               98.92966459                0.00010000               51.53955580               -0.13810566                0.01792372               20.14918021               16.37943652               -0.42473948
              28.03156799               11.18634889               98.84687431                0.00010000              108.09830890               -1.51058107              -37.20195888               57.29946665              106.31708356               13.02671958
              30.16306318               10.70567721               98.26192651                0.00010000              100.96782021                2.51924546              -34.86568003               75.50753264              134.99680217               12.85379407
              32.05092439               10.11324252               97.68115573                0.00010000               79.32999265                4.10809828              -30.00596647              103.13898964              160.96195477                6.68650243
              33.74966304                9.49601660               97.04161938                0.00010000               62.47391622                4.15724835              -24.77650282              128.79421642              174.49040551               -1.96481496
              35.30040271                8.85696384               96.27916261                0.00010000               48.44884167                2.48423994              -19.90212781              145.62764566              178.94345117              -13.67395881
              36.71863987                8.13542501               95.24896017                0.00010000               36.05388207               -2.77296938              -16.22700885              142.00005201              166.37014319              -32.40662887
              38.02148036                7.06680642               93.62774340                0.00010000               27.90696929              -14.37554704              -19.99650178               96.72390371              118.15347131              -65.66336007
              39.27677926                5.15864580               90.93501080                0.00010000               25.52989001                0.60079450              -77.62820049               50.71621667               78.29932641             -139.42180532
              24.57372287               13.50013455               99.60941516                0.00010000               -0.00418359                0.05639239               -0.00440998                0.06658731                0.01228493                0.39092120
              25.57368103               12.92777447               99.19692476                0.00010000                0.01109625               -0.01681102                0.00465967                0.07746861                0.01945338               -0.00495922
              26.57394480               12.35544467               98.78437816                0.00010000               62.71204930               -0.07315767                0.00112064               15.79066741               17.55956147               -0.39270586
              28.82792202               12.09747341               98.72240836                0.00010000              133.94107993              -11.64463217              -44.04014703               39.50462994              111.76962340                6.98640769
              31.25276639               11.62920160               98.11073663                0.00010000              130.19112146              -13.64490948              -40.63244375               48.25747234              141.29990051                7.62938703
              33.43174445               11.05980393               97.46349661                0.00010000              106.76109499              -12.52896512              -34.76417420               66.26742711              169.08378378                4.82819625
              35.38798829               10.45569037               96.69759823                0.00010000               86.51879577              -11.03358752              -28.78900627               85.41545665              182.82241081               -1.00561059
              37.16212036                9.81569645               95.74013034                0.00010000               69.27710918              -10.22256145              -23.98359717               97.52303560              186.40594355               -9.72705256
              38.77353048                9.05807640               94.42899978                0.00010000               50.84083912              -10.62943214              -21.74803424               92.25411194              172.01765627              -23.06342687
              40.17893715                7.99111601               92.43285691                0.00010000               34.75895434               -5.34413739              -29.48242409               57.25831047              122.08241334              -46.34754370
              41.46870956                6.36044594               89.27561075                0.00010000               28.97724169               23.76619609              -91.13831871               31.94553403               79.94110670              -97.07032697
              25.14697763               14.50044837               99.46957822                0.00010000                0.00384910                0.02092048               -0.00108267                0.05413709                0.01027931                0.37718057
              26.14701612               13.92758746               99.05449660                0.00010000                0.01168912               -0.02438220                0.00657549                0.07039534                0.01721706               -0.01830612
              27.14721142               13.35498868               98.63949102                0.00010000               70.04437632               -0.03340530                0.00390084                8.63294377               17.44916355               -0.36088577
              29.54790365               12.95345625               98.57278631                0.00010000              150.93353466              -16.83940961              -48.49770237               23.40933272              113.65648100                2.68123013
              32.16588211               12.43277902               97.94096259                0.00010000              150.09402561              -24.18980778              -44.60520762               31.43902408              144.29200983                3.21953991
              34.54978416               11.86266322               97.24255585                0.00010000              126.80987705              -25.14058668              -38.05606970               45.43320100              172.45310983                1.88445587
              36.70207965               11.27534484               96.37941412                0.00010000              104.93466161              -23.18253357              -31.74230244               59.19589749              186.25378631               -1.56438421
              38.64847739               10.65251261               95.27317943                0.00010000               84.31114484              -20.18488909              -27.07201662               66.14405840              189.63302859               -7.31649308
              40.38830255                9.92283636               93.75907114                0.00010000               60.78998187              -15.11813436              -25.67848709               59.41884969              174.85136725              -16.56138992
              41.86427703                8.95992367               91.51015196                0.00010000               39.43637719               -2.40489924              -34.66383068               35.06884666              123.33106645              -32.42595260
              43.17703009                7.63396972               88.06198075                0.00010000               31.27530581               26.94453161              -96.89268275               19.00435850               80.33397943              -64.44061778
              25.72052744               15.50055296               99.32955830                0.00010000                0.00211931                0.00410285                0.00141534                0.04326676                0.01804806                0.36647395
              26.72054863               14.92728683               98.91194449                0.00010000                0.01037218               -0.03392270                0.00796500                0.08197167                0.04184309               -0.07400795
              27.72073488               14.35477656               98.49482605                0.00010000               74.88848508               -0.04076440               -0.00819257               -0.94548364               17.44807440               -0.39711813
              30.21831833               13.76068522               98.42471314                0.00010000              162.58025089              -22.48221149              -50.90548094                5.20875289              114.88883841               -0.46620935
              32.97233990               13.14540545               97.78392142                0.00010000              163.97621566              -33.35529231              -46.70540986               17.03023520              146.42675594               -0.11087165
              35.49784265               12.55699220               97.05386113                0.00010000              140.48584758              -34.79268494              -39.85691260               31.15389775              174.72414166               -0.38231584
              37.78205685               11.99203970               96.12270482                0.00010000              116.98336832              -31.52957908              -33.49858297               41.34662940              188.20136392               -2.22994796
              39.83751001               11.41199867               94.91063747                0.00010000               93.62197792              -26.18833386              -29.00885585               44.68377461              191.24634412               -5.94676421
              41.65449641               10.75571372               93.25614133                0.00010000               66.58353558              -17.53317165              -27.99557871               38.63684912              175.96175361              -12.17704614
              43.16918073                9.94301803               90.83857738                0.00010000               42.31041160               -1.55236536              -37.34119433               22.12851272              123.62397957              -22.61207276
              44.50070464                8.89933657               87.20512625                0.00010000               33.15239175               25.69423441              -99.33245704               11.98121104               79.99604265              -42.77938881
              26.29437524               16.50053043               99.18922134                0.00010000                0.00567205               -0.01118096                0.00497959                0.02300759                0.01963941                0.33666461
              27.29443196               15.92690901               98.76876988                0.00010000                0.02640588               -0.02659555               -0.00436234                0.07198720                0.07140690               -0.14391992
              28.29490335               15.35417339               98.34931696                0.00010000               78.35089344               -0.13732334               -0.04445596              -13.65443872               18.50225838               -0.48987587
              30.86144982               14.50381202               98.29509003                0.00010000              170.76382400              -31.47182938              -51.25538342              -15.61258799              117.17411422               -3.93022839
              33.71017983               13.76567318               97.67051796                0.00010000              173.23890200              -43.44648305              -46.62954080                6.45479003              149.49796217               -2.36691030
              36.32622786               13.16680952               96.93134385                0.00010000              148.19129666              -41.40753197              -40.00187953               21.55179648              177.07730255               -1.62120284
              38.67400577               12.64475326               95.95638568                0.00010000              122.61255036              -36.10980204              -33.89005838               28.36449507              189.40901617               -2.34525236
              40.77847887               12.12874594               94.67226509                0.00010000               97.80072019              -29.12030005              -29.70485437               28.96777482              191.76955958               -4.72346284
              42.63002017               11.57217293               92.92387270                0.00010000               69.23727815              -18.73297242              -28.94045483               24.35157213              176.07337933               -8.83147323
              44.16322443               10.92887637               90.39706868                0.00010000               43.69985307               -1.44932910              -38.49630674               14.08355026              123.44637386              -15.23075137
              45.50401723               10.14785441               86.64720450                0.00010000               34.07927968               24.87971191             -100.55184098                7.59411147               79.81555724              -27.51855672
              26.86823044               17.50032934               99.04820901                0.00010000                0.01149723               -0.02497295               -0.01253707                0.00979954                0.03085222                0.27352741
              27.86834541               16.92675492               98.62507403                0.00010000                0.12563281               -0.00630604               -0.00802034               -0.04181781                0.12935310               -0.18026775
              28.87074310               16.35203010               98.20363570                0.00010000               81.31106896               -0.79638062               -0.39727508              -31.47852111               22.24077308               -0.68119711
              31.49456679               15.13124863               98.20405822                0.00010000              178.38475495              -49.73564118              -48.78113530              -26.73251097              124.15699955               -6.39398140
              34.43843820               14.27647579               97.64692371                0.00010000              177.76158489              -49.95056253              -44.29795393                0.94057536              155.64616208               -2.92073315
              37.04979849               13.72884156               96.90982959                0.00010000              147.44860727              -44.06034901              -38.24176943               13.64125839              179.03994580               -1.24923005
              39.38741034               13.26984366               95.90613953                0.00010000              121.98236763              -37.45148385              -33.01513915               15.82973935              189.67919496               -1.41937041
              41.48944584               12.82959267               94.57636454                0.00010000               97.69935410              -29.89730848              -29.19323159               14.97893408              191.23905977               -2.80266444
              43.34139742               12.38105427               92.77108861                0.00010000               69.28622059              -19.03996830              -28.54802996               12.36682175              175.50646106               -5.14006115
              44.87517025               11.91403145               90.18209507                0.00010000               43.66166834               -1.62163379              -38.17438592                7.45745168              122.95941504               -8.26114938
              46.21463079               11.39693081               86.36242268                0.00010000               33.94605357               25.47306681             -100.83126988                3.80233948               79.58547720              -14.48778462
              27.44172008               18.50003097               98.90636108                0.00010000                0.01747688               -0.02983714                0.02213658                0.02415498                0.13041536                0.23185798
              28.44189485               17.92678288               98.48131518                0.00010000                0.95595704                0.00279675               -0.02941301               -0.73431620                0.39213879               -0.19275155
              29.46083922               17.33824578               98.06078012                1.00000000               98.02295349               -1.37843151               -3.95512240              -61.87457246               45.97829005               -6.74059908
              32.40235392               15.50909919               98.26206294                0.00010000              183.52795975              -62.21494367              -43.24129049              -37.80048045              143.05126843              -18.87275554
              35.13139841               14.76666193               97.76364593                0.00010000              160.16656217              -50.98138606              -39.12756480                8.12118916              158.45576724               -8.24060271
              37.60568516               14.28560254               97.01303593                0.00010000              137.92255155              -44.32390151              -36.01176729               12.04174994              177.44063548               -6.07528007
              39.88984944               13.89572359               95.98659386                0.00010000              118.05808935              -37.41200732              -31.69854519               12.50377143              188.67679611               -6.24345156
              41.96684695               13.53079977               94.64148496                0.00010000               95.15341918              -29.87929013              -27.55549089               12.52260930              191.63826953               -8.26521098
              43.79291783               13.19137357               92.82575584                0.00010000               66.48249919              -18.96807018              -25.73933272               13.43423663              176.13109547              -12.05498141
              45.29649693               12.89644369               90.22063870                0.00010000               41.06737369               -1.75877550              -34.94156876               15.42977650              123.34709279              -13.85614361
              46.61426530               12.65731574               86.38027045                0.00010000               31.77683713               26.03849382              -97.76857435               16.05065644               80.76420626              -17.89655274
              22.13139243                8.63497969              101.31050154                1.00000000                0.01800785                0.06737646               -0.00990016               -0.03257157               -0.05174044                0.06588172
              23.13157251                8.06879285              100.90745916                1.00000000                0.05025124                0.01998631               -0.01932934               -0.09111089               -0.07125738                0.01677693
              24.13239746                7.50287996              100.50404654                1.00000000                0.09098827               -0.02162198               -0.01289253               -0.11635421               -0.08723256                0.02908993
              25.13339228                6.93887075              100.10085658                1.00000000                0.13559567               -0.03079720               -0.01148971               -0.00897940               -0.07315641                0.02809135
              26.13510937                6.37710166               99.69790433                1.00000000                0.23724214               -0.02521572               -0.01888883                0.10495227                0.04170597                0.02636767
              27.13813712                5.81872257               99.29622766                1.00000000                0.33828677               -0.05922936               -0.00439566                0.29525775                0.35449724                0.04023767
              28.14187511                5.26410634               98.89683290                1.00000000                0.28018092                0.00857031                0.07545028                0.41656666                0.64304491               -0.00533820
              29.14374074                4.70825670               98.49698925                1.00000000                0.12631176                0.03230944                0.09955695                0.44489091                0.56210578               -0.05426158
              30.14440134                4.14475801               98.09391839                1.00000000                0.08226335               -0.03939806                0.03905271                0.31686247                0.26195846               -0.07394676
              31.14538600                3.57208686               97.68587585                1.00000000                0.10332956               -0.02890102               -0.04961049                0.16937758               -0.03821460               -0.00795930
              32.14646793                2.99358367               97.27313901                1.00000000                0.10819278               -0.13394040               -0.27535168                0.27025256               -0.23345945               -0.53077900
              22.69725356                9.63565346              101.16908221                1.00000000               -0.05422953                0.13580395               -0.00827421                0.00716451                0.03932591                0.11879525
              23.69671127                9.06899271              100.76628699                1.00000000               -0.05292999                0.05644514                0.00869420               -0.04572778                0.05545201                0.01766557
              24.69619496                8.50266374              100.36413289                1.00000000               -0.02598163               -0.01768582                0.02698028               -0.05222310                0.05221233               -0.00309144
              25.69619163                7.93856278               99.96205345                1.00000000                0.00190093                0.00567527                0.00722612               -0.02754759                0.06110365                0.05083292
              26.69623298                7.37684950               99.56002721                1.00000000                0.06978588               -0.00785104               -0.02534427                0.14206868                0.13635108                0.00422697
              27.69758735                6.81813028               99.15833496                1.00000000                0.25203636               -0.07956649               -0.10319122                0.76952175                0.36390092               -0.03999612
              28.70127371                6.26419205               98.75681939                1.00000000                0.51382309               -0.35303190               -0.30496792                7.09992071                0.83059825               -1.57098373
              29.70786381                5.70857980               98.35672506                1.00000000                0.71905887                1.33140627               -0.37415859               32.62612274                1.42535206               -6.01966067
              30.71565489                5.14436403               97.95811102                1.00000000                0.74015673                4.74916854               -0.30879761               71.53490319                1.85416742              -12.33404983
              31.72266695                4.57179785               97.55909690                1.00000000                0.60093806               11.27323699               -0.24356980              118.88399103                1.75076112              -16.34706176
              32.72767365                3.99224427               97.15131229                1.00000000                0.50066984              -44.95337226               -0.38738021              169.33023014                1.52839619              -63.67099905
              23.26485722               10.63769577              101.02851368                1.00000000               -0.12095468                0.22994979               -0.03852719                0.17477904                0.07600853                0.21175262
              24.26364767               10.06992175              100.62471304                1.00000000               -0.15371457                0.08395302                0.02179555                0.19650909                0.14037611                0.01527168
              25.26178293                9.50252624              100.22285580                1.00000000               -0.24960519               -0.09809396                0.09841996                0.46414234                0.29570458               -0.27169285
              26.25865557                8.93898425               99.82375173                1.00000000               -0.16998420               25.85931993                0.03947115              107.36681993                0.28989456              -14.47541214
              27.25838324                8.37694463               99.42201170                1.00000000                0.37647193               23.02682815               -0.07143487              157.28013856                0.24746886              -13.62034599
              28.26618501                7.81713124               99.01914341                1.00000000                6.75203810               21.76756510               -0.43032420              189.00506286               -0.43697046              -16.01598451
              29.39342400                7.25704571               98.58408701                1.00000000               32.49531028               20.25729691               -4.23879224              217.06516123                7.99081463              -19.61191122
              30.91609121                6.73488483               98.09546740                1.00000000               65.92286728               20.76826014              -13.33565122              243.43812039               55.21829620              -22.61604828
              32.71188135                6.23974138               97.57761375                1.00000000               87.95471871               24.90584922              -24.91139224              271.39300276              133.19789106              -28.96667125
              34.67518559                5.79755160               97.10651359                1.00000000               99.01491758               23.71977714              -31.05412953              239.80166503              184.14644318              -45.59183519
              36.69217970                4.09451623               95.76728963                1.00000000              101.69941160              -39.26206455             -113.68193239              193.84662250              229.24192681             -236.58290566
              23.83629719               11.64025245              100.88854892                1.00000000               -0.04862123                0.21701906               -0.04375498                0.33452591                0.06012232                0.28447098
              24.83581098               11.07067177              100.48223574                1.00000000                0.00590575                0.02846854                0.00443609                0.37366216                0.06053451               -0.00381494
              25.83641530               10.50070186              100.07587499                1.00000000              106.66493336               -0.18377353                0.05711671               26.72563387              -13.65890631               -0.40066725
              28.96910964               10.45574918               99.39499981                1.00000000              156.36367306               24.04439271              -54.65095625              151.66638548              140.64141983                1.43491063
              30.96368876                9.83738606               99.01280023                1.00000000               81.42389478               29.40454673              -36.66574128              206.27317454              187.94262685               -4.61565087
              32.59758754                9.25348158               98.56549357                1.00000000               58.05672929               29.17353335              -32.20038007              263.25452685              198.06562962               -8.07766059
              34.12482335                8.66933798               98.09754582                1.00000000               49.81715048               29.94714241              -28.72422690              303.38396386              207.00198108              -13.22361417
              35.59393055                8.12394500               97.56753705                1.00000000               47.80124086               30.57555928              -26.06336774              322.17970195              211.35010432              -18.77663556
              37.08084817                7.64248101               96.91463854                1.00000000               53.49974272               29.12908357              -22.25406176              319.96326367              211.99320509              -25.68593405
              38.66392540                7.04619339               95.93244886                1.00000000               46.49143393               12.25723706              -12.60405066              247.41236410              180.46316629              -57.08359806
              40.01067685                5.20700298               93.73141079                1.00000000               34.67514432                0.97798349              -26.15943300              163.39009676              117.15747954             -136.42067818
              24.41070910               12.64203615              100.74891168                1.00000000               -0.00375970                0.12768138               -0.02814534                0.34613579                0.03793233                0.30948071
              25.41067150               12.07049112              100.33950762                1.00000000                0.02545476               -0.02284043                0.00565206                0.36965401                0.03649452               -0.00712795
              26.41121820               11.49885077               99.92985230                1.00000000              127.23137862               -0.15172811                0.01877107               24.99361121              -16.14717941               -0.33614173
              29.95529908               11.41987211               99.19632165                1.00000000              208.74480656               -7.57181958              -65.05526613               65.37072209              136.50849146                2.14095533
              32.58611433               10.96503557               98.81255994                1.00000000              137.20122711                1.28488892              -44.93665637               88.67262709              197.78457998                4.80674805
              34.69932362               10.40060191               98.30591096                1.00000000              100.22627684                4.10629363              -37.52447657              125.79517199              210.51340403                1.96105742
              36.59063986                9.85598855               97.72602956                1.00000000               84.36093019                6.90240594              -31.55898160              162.87947652              219.00553442               -1.94873275
              38.38654222                9.34639601               97.00406800                1.00000000               79.91291818                8.29937027              -27.50946169              195.11479584              222.61270389               -7.92885924
              40.18889823                8.82232305               96.00600462                1.00000000               83.61843403                3.09264148              -24.29555423              211.15034784              218.30787334              -19.61664318
              42.05891090                8.04269634               94.42970875                1.00000000               72.47321214              -10.93355616              -19.80346561              165.74710510              169.52933383              -40.43522533
              43.63836247                6.11407590               91.32173020                1.00000000               57.94515675               -1.27793106              -61.32805950              122.67816781              125.36046743             -111.69402107
              24.98630997               13.64280608              100.60930728                1.00000000                0.00794651                0.05693296               -0.01078775                0.31267621                0.02381135                0.29800441
              25.98638943               13.07021496              100.19695830                1.00000000                0.02982840               -0.03281599                0.00335358                0.31896636                0.02318963               -0.00251768
              26.98690654               12.49766730               99.78435428                1.00000000              141.19749275               -0.09423842               -0.00238837               19.27554076              -20.01311694               -0.29550491
              30.81033929               12.30431278               98.97077248                1.00000000              238.47524840              -14.35315081              -75.16358860               48.39962504              138.53493669               -0.94545579
              33.75641150               11.86308384               98.59021847                1.00000000              170.60993522              -16.68071739              -52.05181590               58.31339340              203.32568440                1.51038875
              36.22253799               11.33560745               98.02999594                1.00000000              134.01036367              -15.21817506              -43.35006670               83.78474039              216.49979317                0.90037309
              38.43661878               10.80738610               97.33862725                1.00000000              115.36769873              -14.15364159              -35.89709752              112.76742745              224.86802778               -1.63894277
              40.52989197               10.28993240               96.43009553                1.00000000              108.54680080              -14.95494043              -31.00348071              136.12085943              227.27127719               -6.02598267
              42.60755479                9.70433384               95.14850959                1.00000000              107.86113457              -19.08502952              -28.04901906              141.17332107              220.49588057              -13.29872089
              44.68711466                8.82752227               93.17196451                1.00000000               85.69631495              -22.06121051              -26.08924002              103.73768948              172.72578025              -27.26078345
              46.32148109                7.18144436               89.58667017                1.00000000               63.43664341                7.65573958              -68.89405766               69.73415609              126.74771909              -66.88822984
              25.56214486               14.64317481              100.46952871                1.00000000                0.00447485                0.03810900               -0.00495076                0.26753551                0.02148152                0.28463969
              26.56218961               14.06983480              100.05457629                1.00000000                0.02431621               -0.04574445                0.00796932                0.28864758                0.01576019               -0.02156219
              27.56263119               13.49696600               99.63949694                1.00000000              149.78427126               -0.06436623                0.00059205               10.76061159              -23.00014808               -0.29334161
              31.55787504               13.13280909               98.76373379                1.00000000              257.92281693              -20.23925238              -80.90525258               28.41619486              137.77245391               -1.30297856
              34.72108753               12.63142122               98.37500324                1.00000000              193.64205628              -28.89154241              -56.59593464               38.33326155              205.94942127                0.12330471
              37.43071616               12.09623841               97.77231138                1.00000000              158.52879689              -30.84587933              -47.02444672               58.04343153              218.83600004                0.04669965
              39.89166346               11.57291572               96.98985924                1.00000000              139.06477552              -30.30325785              -38.95548748               79.25582324              227.09663420               -1.44930527
              42.21201167               11.04729720               95.93507644                1.00000000              129.15556595              -29.92814692              -33.81029915               93.69057607              229.23623199               -4.32594717
              44.47477478               10.44062246               94.44751533                1.00000000              122.22712532              -29.26826682              -31.15558113               92.59599437              222.47742985               -9.39544113
              46.65655418                9.60147213               92.21168056                1.00000000               92.52133200              -22.02335436              -29.84714051               64.07276800              173.95038672              -18.38561460
              48.32520142                8.26719069               88.34196877                1.00000000               66.86472432                7.87636092              -72.00119847               41.89957526              127.84595394              -42.13547320
              26.13834070               15.64356826              100.32954720                1.00000000                0.00304891                0.03679695               -0.00111000                0.22126977                0.02984362                0.28840470
              27.13837119               15.06930007               99.91203238                1.00000000                0.04018863               -0.04688685                0.00878828                0.29256777                0.03153573               -0.09190609
              28.13914447               14.49637997               99.49453280                1.00000000              155.29183891               -0.08469506               -0.02932485               -0.72675568              -24.46029889               -0.39876207
              32.24420797               13.89952774               98.58600721                1.00000000              271.02514724              -27.80903878              -83.87059283                5.77424549              137.63233216               -1.51573284
              35.55964742               13.28525299               98.19540017                1.00000000              209.88520767              -40.83752919              -58.85212463               20.64681918              207.61936926               -0.47818197
              38.44191212               12.71868987               97.56377956                1.00000000              175.55145144              -43.36568133              -49.00815726               39.94580087              220.36190856               -0.49813040
              41.07067645               12.20132095               96.71449939                1.00000000              154.70423138              -41.55235333              -40.82054346               55.51269223              228.37335179               -1.39256487
              43.53599675               11.69136947               95.55400741                1.00000000              141.73116526              -38.75269940              -35.66300617               63.50441451              230.37513283               -3.37596468
              45.90529975               11.11896851               93.92502857                1.00000000              130.30025205              -33.63703461              -33.11127554               60.27435603              223.43772897               -6.78198639
              48.14200179               10.38705518               91.52115530                1.00000000               96.13678663              -21.36921389              -31.74220775               40.60605358              174.90661642              -12.53475666
              49.82803549                9.33897157               87.47751877                1.00000000               68.60336944                6.18007734              -72.76074812               26.26558926              128.36943124              -27.30255951
              26.71510663               16.64391075              100.18926621                1.00000000                0.01226173                0.02647587                0.00448722                0.16778693                0.01768774                0.26498780
              27.71522925               16.06889706               99.76871169                1.00000000                0.13808870               -0.03095580               -0.00581894                0.25383531                0.03216291               -0.15462207
              28.71786841               15.49527210               99.34831487                1.00000000              158.46288389               -0.39645770               -0.10020844              -15.99988148              -23.35237406               -0.80356744
              32.88448693               14.57662832               98.45573409                1.00000000              279.84966851              -41.61903575              -83.93559327              -20.64866262              139.17519256               -1.35681338
              36.31486178               13.81467064               98.08574451                1.00000000              221.45386476              -54.29477005              -58.47734447                7.59268181              209.62916143               -0.57639277
              39.31356422               13.22892478               97.43895343                1.00000000              185.71879659              -52.14475248              -49.23904147               27.59690050              221.61868297               -0.22551521
              42.02923771               12.74186866               96.54344545                1.00000000              162.54440897              -47.88678150              -41.29402291               37.79258313              229.01630028               -1.01068400
              44.56445240               12.27224322               95.30881555                1.00000000              147.76692375              -43.37423315              -36.34495410               40.56649978              230.69338155               -2.50766738
              46.98457619               11.76788177               93.58536602                1.00000000              134.21098893              -36.39551294              -33.85066759               37.36873294              223.66037988               -4.81958267
              49.24867218               11.17408785               91.07291112                1.00000000               98.10521207              -22.14804395              -32.41575687               25.32111627              175.10885204               -8.40100370
              50.94668043               10.39079223               86.91664756                1.00000000               69.80082440                4.17306865              -73.05569363               16.75091548              128.63996438              -17.84155051
              27.29172382               17.64409778              100.04808632                1.00000000                0.03627276                0.00905888               -0.01226948                0.12794300                0.03708770                0.24632732
              28.29208654               17.06868096               99.62496382                1.00000000                0.98458871               -0.02245252               -0.01102102               -0.07817206               -0.21700136               -0.20090358
              29.31141559               16.48845082               99.19626403                1.00000000              160.98748201               -6.64494446               -0.73716709              -28.07925305              -16.51902435               -4.67000094
              33.51183618               15.06714702               98.41323835                1.00000000              287.38945003              -68.63505883              -79.08198781              -36.69460538              146.20760732               -1.27119062
              37.05920459               14.19935759               98.08587739                1.00000000              227.74079656              -62.25681445              -56.10463141                2.02873489              213.16665913                1.34532950
              40.06665211               13.67579482               97.43503874                1.00000000              186.20025435              -55.56865451              -47.47908477               18.05949749              222.39423917                0.79092997
              42.78320968               13.24358532               96.50005493                1.00000000              162.73307593              -49.63694724              -40.60846088               20.87244027              228.67097163               -0.26687127
              45.32131363               12.82388480               95.21685950                1.00000000              148.38100482              -44.98456192              -35.95050430               20.03029148              230.04499509               -1.33210252
              47.75082977               12.39105825               93.43721924                1.00000000              135.21000086              -39.19413378              -33.38693662               17.94684361              223.23587270               -2.48793995
              50.02551365               11.94409430               90.86271225                1.00000000               98.94076301              -24.21676066              -31.93828223               12.69226635              174.91398260               -4.41541506
              51.72964503               11.42243295               86.63481210                1.00000000               70.41313836                2.25456367              -72.76105764                8.72580712              128.71140985               -9.72540736
              27.86849914               18.64409193               99.90665589                1.00000000                0.08136291               -0.00058493                0.02948050                0.11314058                0.09647130                0.26305231
              28.86931277               18.06844801               99.48084154                1.00000000               14.46590716               -0.02329435               -0.04736389               -6.36331335               -3.48733184               -0.24571553
              30.15781728               17.36237321               98.98207341                1.00000000              178.51876427              -12.60776061               -7.87067144              -58.58587450               23.58140434              -19.00631901
              34.43968805               15.20392714               98.55851350                1.00000000              279.44856997              -86.32198811              -70.35494444              -46.85675648              167.97411811              -15.98969008
              37.74678868               14.56953435               98.26688750                1.00000000              209.54191982              -62.98232422              -49.67584312               14.43963652              211.65662735               -1.61174742
              40.63052645               14.11755169               97.56086551                1.00000000              177.59039257              -55.82431259              -45.21704152               15.36720146              218.67098985               -4.22240791
              43.29859653               13.74912971               96.59062471                1.00000000              159.35294277              -49.44556059              -39.59691499               14.28869964              227.51089473               -5.60240876
              45.81758530               13.37255198               95.29358923                1.00000000              146.23535121              -45.13328251              -34.78957348               11.37063612              231.32256316               -8.15180583
              48.22330356               12.98399909               93.51559926                1.00000000              132.67787529              -40.70591542              -31.01565839               13.10741134              224.58296624              -12.89944569
              50.47114281               12.68975264               90.92447710                1.00000000               97.06078642              -25.43416636              -29.61616048               17.15713667              175.24138165              -14.49262030
              52.16451928               12.43588351               86.67113513                1.00000000               69.33764744                1.34505613              -70.91353197               18.10051172              129.69120204              -18.51092053
         1          2         13         12        122        123        134        133  
         2          3         14         13        123        124        135        134  
         3          4         15         14        124        125        136        135  
         4          5         16         15        125        126        137        136  
         5          6         17         16        126        127        138        137  
         6          7         18         17        127        128        139        138  
         7          8         19         18        128        129        140        139  
         8          9         20         19        129        130        141        140  
         9         10         21         20        130        131        142        141  
        10         11         22         21        131        132        143        142  
        12         13         24         23        133        134        145        144  
        13         14         25         24        134        135        146        145  
        14         15         26         25        135        136        147        146  
        15         16         27         26        136        137        148        147  
        16         17         28         27        137        138        149        148  
        17         18         29         28        138        139        150        149  
        18         19         30         29        139        140        151        150  
        19         20         31         30        140        141        152        151  
        20         21         32         31        141        142        153        152  
        21         22         33         32        142        143        154        153  
        23         24         35         34        144        145        156        155  
        24         25         36         35        145        146        157        156  
        25         26         37         36        146        147        158        157  
        26         27         38         37        147        148        159        158  
        27         28         39         38        148        149        160        159  
        28         29         40         39        149        150        161        160  
        29         30         41         40        150        151        162        161  
        30         31         42         41        151        152        163        162  
        31         32         43         42        152        153        164        163  
        32         33         44         43        153        154        165        164  
        34         35         46         45        155        156        167        166  
        35         36         47         46        156        157        168        167  
        36         37         48         47        157        158        169        168  
        37         38         49         48        158        159        170        169  
        38         39         50         49        159        160        171        170  
        39         40         51         50        160        161        172        171  
        40         41         52         51        161        162        173        172  
        41         42         53         52        162        163        174        173  
        42         43         54         53        163        164        175        174  
        43         44         55         54        164        165        176        175  
        45         46         57         56        166        167        178        177  
        46         47         58         57        167        168        179        178  
        47         48         59         58        168        169        180        179  
        48         49         60         59        169        170        181        180  
        49         50         61         60        170        171        182        181  
        50         51         62         61        171        172        183        182  
        51         52         63         62        172        173        184        183  
        52         53         64         63        173        174        185        184  
        53         54         65         64        174        175        186        185  
        54         55         66         65        175        176        187        186  
        56         57         68         67        177        178        189        188  
        57         58         69         68        178        179        190        189  
        58         59         70         69        179        180        191        190  
        59         60         71         70        180        181        192        191  
        60         61         72         71        181        182        193        192  
        61         62         73         72        182        183        194        193  
        62         63         74         73        183        184        195        194  
        63         64         75         74        184        185        196        195  
        64         65         76         75        185        186        197        196  
        65         66         77         76        186        187        198        197  
        67         68         79         78        188        189        200        199  
        68         69         80         79        189        190        201        200  
        69         70         81         80        190        191        202        201  
        70         71         82         81        191        192        203        202  
        71         72         83         82        192        193        204        203  
        72         73         84         83        193        194        205        204  
        73         74         85         84        194        195        206        205  
        74         75         86         85        195        196        207        206  
        75         76         87         86        196        197        208        207  
        76         77         88         87        197        198        209        208  
        78         79         90         89        199        200        211        210  
        79         80         91         90        200        201        212        211  
        80         81         92         91        201        202        213        212  
        81         82         93         92        202        203        214        213  
        82         83         94         93        203        204        215        214  
        83         84         95         94        204        205        216        215  
        84         85         96         95        205        206        217        216  
        85         86         97         96        206        207        218        217  
        86         87         98         97        207        208        219        218  
        87         88         99         98        208        209        220        219  
        89         90        101        100        210        211        222        221  
        90         91        102        101        211        212        223        222  
        91         92        103        102        212        213        224        223  
        92         93        104        103        213        214        225        224  
        93         94        105        104        214        215        226        225  
        94         95        106        105        215        216        227        226  
        95         96        107        106        216        217        228        227  
        96         97        108        107        217        218        229        228  
        97         98        109        108        218        219        230        229  
        98         99        110        109        219        220        231        230  
       100        101        112        111        221        222        233        232  
       101        102        113        112        222        223        234        233  
       102        103        114        113        223        224        235        234  
       103        104        115        114        224        225        236        235  
       104        105        116        115        225        226        237        236  
       105        106        117        116        226        227        238        237  
       106        107        118        117        227        228        239        238  
       107        108        119        118        228        229        240        239  
       108        109        120        119        229        230        241        240  
       109        110        121        120        230        231        242        241  
       122        123        134        133        243        244        255        254  
       123        124        135        134        244        245        256        255  
       124        125        136        135        245        246        257        256  
       125        126        137        136        246        247        258        257  
       126        127        138        137        247        248        259        258  
       127        128        139        138        248        249        260        259  
       128        129        140        139        249        250        261        260  
       129        130        141        140        250        251        262        261  
       130        131        142        141        251        252        263        262  
       131        132        143        142        252        253        264        263  
       133        134        145        144        254        255        266        265  
       134        135        146        145        255        256        267        266  
       135        136        147        146        256        257        268        267  
       136        137        148        147        257        258        269        268  
       137        138        149        148        258        259        270        269  
       138        139        150        149        259        260        271        270  
       139        140        151        150        260        261        272        271  
       140        141        152        151        261        262        273        272  
       141        142        153        152        262        263        274        273  
       142        143        154        153        263        264        275        274  
       144        145        156        155        265        266        277        276  
       145        146        157        156        266        267        278        277  
       146        147        158        157        267        268        279        278  
       147        148        159        158        268        269        280        279  
       148        149        160        159        269        270        281        280  
       149        150        161        160        270        271        282        281  
       150        151        162        161        271        272        283        282  
       151        152        163        162        272        273        284        283  
       152        153        164        163        273        274        285        284  
       153        154        165        164        274        275        286        285  
       155        156        167        166        276        277        288        287  
       156        157        168        167        277        278        289        288  
       157        158        169        168        278        279        290        289  
       158        159        170        169        279        280        291        290  
       159        160        171        170        280        281        292        291  
       160        161        172        171        281        282        293        292  
       161        162        173        172        282        283        294        293  
       162        163        174        173        283        284        295        294  
       163        164        175        174        284        285        296        295  
       164        165        176        175        285        286        297        296  
       166        167        178        177        287        288        299        298  
       167        168        179        178        288        289        300        299  
       168        169        180        179        289        290        301        300  
       169        170        181        180        290        291        302        301  
       170        171        182        181        291        292        303        302  
       171        172        183        182        292        293        304        303  
       172        173        184        183        293        294        305        304  
       173        174        185        184        294        295        306        305  
       174        175        186        185        295        296        307        306  
       175        176        187        186        296        297        308        307  
       177        178        189        188        298        299        310        309  
       178        179        190        189        299        300        311        310  
       179        180        191        190        300        301        312        311  
       180        181        192        191        301        302        313        312  
       181        182        193        192        302        303        314        313  
       182        183        194        193        303        304        315        314  
       183        184        195        194        304        305        316        315  
       184        185        196        195        305        306        317        316  
       185        186        197        196        306        307        318        317  
       186        187        198        197        307        308        319        318  
       188        189        200        199        309        310        321        320  
       189        190        201        200        310        311        322        321  
       190        191        202        201        311        312        323        322  
       191        192        203        202        312        313        324        323  
       192        193        204        203        313        314        325        324  
       193        194        205        204        314        315        326        325  
       194        195        206        205        315        316        327        326  
       195        196        207        206        316        317        328        327  
       196        197        208        207        317        318        329        328  
       197        198        209        208        318        319        330        329  
       199        200        211        210        320        321        332        331  
       200        201        212        211        321        322        333        332  
       201        202        213        212        322        323        334        333  
       202        203        214        213        323        324        335        334  
       203        204        215        214        324        325        336        335  
       204        205        216        215        325        326        337        336  
       205        206        217        216        326        327        338        337  
       206        207        218        217        327        328        339        338  
       207        208        219        218        328        329        340        339  
       208        209        220        219        329        330        341        340  
       210        211        222        221        331        332        343        342  
       211        212        223        222        332        333        344        343  
       212        213        224        223        333        334        345        344  
       213        214        225        224        334        335        346        345  
       214        215        226        225        335        336        347        346  
       215        216        227        226        336        337        348        347  
       216        217        228        227        337        338        349        348  
       217        218        229        228        338        339        350        349  
       218        219        230        229        339        340        351        350  
       219        220        231        230        340        341        352        351  
       221        222        233        232        342        343        354        353  
       222        223        234        233        343        344        355        354  
       223        224        235        234        344        345        356        355  
       224        225        236        235        345        346        357        356  
       225        226        237        236        346        347        358        357  
       226        227        238        237        347        348        359        358  
       227        228        239        238        348        349        360        359  
       228        229        240        239        349        350        361        360  
       229        230        241        240        350        351        362        361  
       230        231        242        241        351        352        363        362  
       243        244        255        254        364        365        376        375  
       244        245        256        255        365        366        377        376  
       245        246        257        256        366        367        378        377  
       246        247        258        257        367        368        379        378  
       247        248        259        258        368        369        380        379  
       248        249        260        259        369        370        381        380  
       249        250        261        260        370        371        382        381  
       250        251        262        261        371        372        383        382  
       251        252        263        262        372        373        384        383  
       252        253        264        263        373        374        385        384  
       254        255        266        265        375        376        387        386  
       255        256        267        266        376        377        388        387  
       256        257        268        267        377        378        389        388  
       257        258        269        268        378        379        390        389  
       258        259        270        269        379        380        391        390  
       259        260        271        270        380        381        392        391  
       260        261        272        271        381        382        393        392  
       261        262        273        272        382        383        394        393  
       262        263        274        273        383        384        395        394  
       263        264        275        274        384        385        396        395  
       265        266        277        276        386        387        398        397  
       266        267        278        277        387        388        399        398  
       267        268        279        278        388        389        400        399  
       268        269        280        279        389        390        401        400  
       269        270        281        280        390        391        402        401  
       270        271        282        281        391        392        403        402  
       271        272        283        282        392        393        404        403  
       272        273        284        283        393        394        405        404  
       273        274        285        284        394        395        406        405  
       274        275        286        285        395        396        407        406  
       276        277        288        287        397        398        409        408  
       277        278        289        288        398        399        410        409  
       278        279        290        289        399        400        411        410  
       279        280        291        290        400        401        412        411  
       280        281        292        291        401        402        413        412  
       281        282        293        292        402        403        414        413  
       282        283        294        293        403        404        415        414  
       283        284        295        294        404        405        416        415  
       284        285        296        295        405        406        417        416  
       285        286        297        296        406        407        418        417  
       287        288        299        298        408        409        420        419  
       288        289        300        299        409        410        421        420  
       289        290        301        300        410        411        422        421  
       290        291        302        301        411        412        423        422  
       291        292        303        302        412        413        424        423  
       292        293        304        303        413        414        425        424  
       293        294        305        304        414        415        426        425  
       294        295        306        305        415        416        427        426  
       295        296        307        306        416        417        428        427  
       296        297        308        307        417        418        429        428  
       298        299        310        309        419        420        431        430  
       299        300        311        310        420        421        432        431  
       300        301        312        311        421        422        433        432  
       301        302        313        312        422        423        434        433  
       302        303        314        313        423        424        435        434  
       303        304        315        314        424        425        436        435  
       304        305        316        315        425        426        437        436  
       305        306        317        316        426        427        438        437  
       306        307        318        317        427        428        439        438  
       307        308        319        318        428        429        440        439  
       309        310        321        320        430        431        442        441  
       310        311        322        321        431        432        443        442  
       311        312        323        322        432        433        444        443  
       312        313        324        323        433        434        445        444  
       313        314        325        324        434        435        446        445  
       314        315        326        325        435        436        447        446  
       315        316        327        326        436        437        448        447  
       316        317        328        327        437        438        449        448  
       317        318        329        328        438        439        450        449  
       318        319        330        329        439        440        451        450  
       320        321        332        331        441        442        453        452  
       321        322        333        332        442        443        454        453  
       322        323        334        333        443        444        455        454  
       323        324        335        334        444        445        456        455  
       324        325        336        335        445        446        457        456  
       325        326        337        336        446        447        458        457  
       326        327        338        337        447        448        459        458  
       327        328        339        338        448        449        460        459  
       328        329        340        339        449        450        461        460  
       329        330        341        340        450        451        462        461  
       331        332        343        342        452        453        464        463  
       332        333        344        343        453        454        465        464  
       333        334        345        344        454        455        466        465  
       334        335        346        345        455        456        467        466  
       335        336        347        346        456        457        468        467  
       336        337        348        347        457        458        469        468  
       337        338        349        348        458        459        470        469  
       338        339        350        349        459        460        471        470  
       339        340        351        350        460        461        472        471  
       340        341        352        351        461        462        473        472  
       342        343        354        353        463        464        475        474  
       343        344        355        354        464        465        476        475  
       344        345        356        355        465        466        477        476  
       345        346        357        356        466        467        478        477  
       346        347        358        357        467        468        479        478  
       347        348        359        358        468        469        480        479  
       348        349        360        359        469        470        481        480  
       349        350        361        360        470        471        482        481  
       350        351        362        361        471        472        483        482  
       351        352        363        362        472        473        484        483  
       364        365        376        375        485        486        497        496  
       365        366        377        376        486        487        498        497  
       366        367        378        377        487        488        499        498  
       367        368        379        378        488        489        500        499  
       368        369        380        379        489        490        501        500  
       369        370        381        380        490        491        502        501  
       370        371        382        381        491        492        503        502  
       371        372        383        382        492        493        504        503  
       372        373        384        383        493        494        505        504  
       373        374        385        384        494        495        506        505  
       375        376        387        386        496        497        508        507  
       376        377        388        387        497        498        509        508  
       377        378        389        388        498        499        510        509  
       378        379        390        389        499        500        511        510  
       379        380        391        390        500        501        512        511  
       380        381        392        391        501        502        513        512  
       381        382        393        392        502        503        514        513  
       382        383        394        393        503        504        515        514  
       383        384        395        394        504        505        516        515  
       384        385        396        395        505        506        517        516  
       386        387        398        397        507        508        519        518  
       387        388        399        398        508        509        520        519  
       388        389        400        399        509        510        521        520  
       389        390        401        400        510        511        522        521  
       390        391        402        401        511        512        523        522  
       391        392        403        402        512        513        524        523  
       392        393        404        403        513        514        525        524  
       393        394        405        404        514        515        526        525  
       394        395        406        405        515        516        527        526  
       395        396        407        406        516        517        528        527  
       397        398        409        408        518        519        530        529  
       398        399        410        409        519        520        531        530  
       399        400        411        410        520        521        532        531  
       400        401        412        411        521        522        533        532  
       401        402        413        412        522        523        534        533  
       402        403        414        413        523        524        535        534  
       403        404        415        414        524        525        536        535  
       404        405        416        415        525        526        537        536  
       405        406        417        416        526        527        538        537  
       406        407        418        417        527        528        539        538  
       408        409        420        419        529        530        541        540  
       409        410        421        420        530        531        542        541  
       410        411        422        421        531        532        543        542  
       411        412        423        422        532        533        544        543  
       412        413        424        423        533        534        545        544  
       413        414        425        424        534        535        546        545  
       414        415        426        425        535        536        547        546  
       415        416        427        426        536        537        548        547  
       416        417        428        427        537        538        549        548  
       417        418        429        428        538        539        550        549  
       419        420        431        430        540        541        552        551  
       420        421        432        431        541        542        553        552  
       421        422        433        432        542        543        554        553  
       422        423        434        433        543        544        555        554  
       423        424        435        434        544        545        556        555  
       424        425        436        435        545        546        557        556  
       425        426        437        436        546        547        558        557  
       426        427        438        437        547        548        559        558  
       427        428        439        438        548        549        560        559  
       428        429        440        439        549        550        561        560  
       430        431        442        441        551        552        563        562  
       431        432        443        442        552        553        564        563  
       432        433        444        443        553        554        565        564  
       433        434        445        444        554        555        566        565  
       434        435        446        445        555        556        567        566  
       435        436        447        446        556        557        568        567  
       436        437        448        447        557        558        569        568  
       437        438        449        448        558        559        570        569  
       438        439        450        449        559        560        571        570  
       439        440        451        450        560        561        572        571  
       441        442        453        452        562        563        574        573  
       442        443        454        453        563        564        575        574  
       443        444        455        454        564        565        576        575  
       444        445        456        455        565        566        577        576  
       445        446        457        456        566        567        578        577  
       446        447        458        457        567        568        579        578  
       447        448        459        458        568        569        580        579  
       448        449        460        459        569        570        581        580  
       449        450        461        460        570        571        582        581  
       450        451        462        461        571        572        583        582  
       452        453        464        463        573        574        585        584  
       453        454        465        464        574        575        586        585  
       454        455        466        465        575        576        587        586  
       455        456        467        466        576        577        588        587  
       456        457        468        467        577        578        589        588  
       457        458        469        468        578        579        590        589  
       458        459        470        469        579        580        591        590  
       459        460        471        470        580        581        592        591  
       460        461        472        471        581        582        593        592  
       461        462        473        472        582        583        594        593  
       463        464        475        474        584        585        596        595  
       464        465        476        475        585        586        597        596  
       465        466        477        476        586        587        598        597  
       466        467        478        477        587        588        599        598  
       467        468        479        478        588        589        600        599  
       468        469        480        479        589        590        601        600  
       469        470        481        480        590        591        602        601  
       470        471        482        481        591        592        603        602  
       471        472        483        482        592        593        604        603  
       472        473        484        483        593        594        605        604  
       485        486        497        496        606        607        618        617  
       486        487        498        497        607        608        619        618  
       487        488        499        498        608        609        620        619  
       488        489        500        499        609        610        621        620  
       489        490        501        500        610        611        622        621  
       490        491        502        501        611        612        623        622  
       491        492        503        502        612        613        624        623  
       492        493        504        503        613        614        625        624  
       493        494        505        504        614        615        626        625  
       494        495        506        505        615        616        627        626  
       496        497        508        507        617        618        629        628  
       497        498        509        508        618        619        630        629  
       498        499        510        509        619        620        631        630  
       499        500        511        510        620        621        632        631  
       500        501        512        511        621        622        633        632  
       501        502        513        512        622        623        634        633  
       502        503        514        513        623        624        635        634  
       503        504        515        514        624        625        636        635  
       504        505        516        515        625        626        637        636  
       505        506        517        516        626        627        638        637  
       507        508        519        518        628        629        640        639  
       508        509        520        519        629        630        641        640  
       509        510        521        520        630        631        642        641  
       510        511        522        521        631        632        643        642  
       511        512        523        522        632        633        644        643  
       512        513        524        523        633        634        645        644  
       513        514        525        524        634        635        646        645  
       514        515        526        525        635        636        647        646  
       515        516        527        526        636        637        648        647  
       516        517        528        527        637        638        649        648  
       518        519        530        529        639        640        651        650  
       519        520        531        530        640        641        652        651  
       520        521        532        531        641        642        653        652  
       521        522        533        532        642        643        654        653  
       522        523        534        533        643        644        655        654  
       523        524        535        534        644        645        656        655  
       524        525        536        535        645        646        657        656  
       525        526        537        536        646        647        658        657  
       526        527        538        537        647        648        659        658  
       527        528        539        538        648        649        660        659  
       529        530        541        540        650        651        662        661  
       530        531        542        541        651        652        663        662  
       531        532        543        542        652        653        664        663  
       532        533        544        543        653        654        665        664  
       533        534        545        544        654        655        666        665  
       534        535        546        545        655        656        667        666  
       535        536        547        546        656        657        668        667  
       536        537        548        547        657        658        669        668  
       537        538        549        548        658        659        670        669  
       538        539        550        549        659        660        671        670  
       540        541        552        551        661        662        673        672  
       541        542        553        552        662        663        674        673  
       542        543        554        553        663        664        675        674  
       543        544        555        554        664        665        676        675  
       544        545        556        555        665        666        677        676  
       545        546        557        556        666        667        678        677  
       546        547        558        557        667        668        679        678  
       547        548        559        558        668        669        680        679  
       548        549        560        559        669        670        681        680  
       549        550        561        560        670        671        682        681  
       551        552        563        562        672        673        684        683  
       552        553        564        563        673        674        685        684  
       553        554        565        564        674        675        686        685  
       554        555        566        565        675        676        687        686  
       555        556        567        566        676        677        688        687  
       556        557        568        567        677        678        689        688  
       557        558        569        568        678        679        690        689  
       558        559        570        569        679        680        691        690  
       559        560        571        570        680        681        692        691  
       560        561        572        571        681        682        693        692  
       562        563        574        573        683        684        695        694  
       563        564        575        574        684        685        696        695  
       564        565        576        575        685        686        697        696  
       565        566        577        576        686        687        698        697  
       566        567        578        577        687        688        699        698  
       567        568        579        578        688        689        700        699  
       568        569        580        579        689        690        701        700  
       569        570        581        580        690        691        702        701  
       570        571        582        581        691        692        703        702  
       571        572        583        582        692        693        704        703  
       573        574        585        584        694        695        706        705  
       574        575        586        585        695        696        707        706  
       575        576        587        586        696        697        708        707  
       576        577        588        587        697        698        709        708  
       577        578        589        588        698        699        710        709  
       578        579        590        589        699        700        711        710  
       579        580        591        590        700        701        712        711  
       580        581        592        591        701        702        713        712  
       581        582        593        592        702        703        714        713  
       582        583        594        593        703        704        715        714  
       584        585        596        595        705        706        717        716  
       585        586        597        596        706        707        718        717  
       586        587        598        597        707        708        719        718  
       587        588        599        598        708        709        720        719  
       588        589        600        599        709        710        721        720  
       589        590        601        600        710        711        722        721  
       590        591        602        601        711        712        723        722  
       591        592        603        602        712        713        724        723  
       592        593        604        603        713        714        725        724  
       593        594        605        604        714        715        726        725  
       606        607        618        617        727        728        739        738  
       607        608        619        618        728        729        740        739  
       608        609        620        619        729        730        741        740  
       609        610        621        620        730        731        742        741  
       610        611        622        621        731        732        743        742  
       611        612        623        622        732        733        744        743  
       612        613        624        623        733        734        745        744  
       613        614        625        624        734        735        746        745  
       614        615        626        625        735        736        747        746  
       615        616        627        626        736        737        748        747  
       617        618        629        628        738        739        750        749  
       618        619        630        629        739        740        751        750  
       619        620        631        630        740        741        752        751  
       620        621        632        631        741        742        753        752  
       621        622        633        632        742        743        754        753  
       622        623        634        633        743        744        755        754  
       623        624        635        634        744        745        756        755  
       624        625        636        635        745        746        757        756  
       625        626        637        636        746        747        758        757  
       626        627        638        637        747        748        759        758  
       628        629        640        639        749        750        761        760  
       629        630        641        640        750        751        762        761  
       630        631        642        641        751        752        763        762  
       631        632        643        642        752        753        764        763  
       632        633        644        643        753        754        765        764  
       633        634        645        644        754        755        766        765  
       634        635        646        645        755        756        767        766  
       635        636        647        646        756        757        768        767  
       636        637        648        647        757        758        769        768  
       637        638        649        648        758        759        770        769  
       639        640        651        650        760        761        772        771  
       640        641        652        651        761        762        773        772  
       641        642        653        652        762        763        774        773  
       642        643        654        653        763        764        775        774  
       643        644        655        654        764        765        776        775  
       644        645        656        655        765        766        777        776  
       645        646        657        656        766        767        778        777  
       646        647        658        657        767        768        779        778  
       647        648        659        658        768        769        780        779  
       648        649        660        659        769        770        781        780  
       650        651        662        661        771        772        783        782  
       651        652        663        662        772        773        784        783  
       652        653        664        663        773        774        785        784  
       653        654        665        664        774        775        786        785  
       654        655        666        665        775        776        787        786  
       655        656        667        666        776        777        788        787  
       656        657        668        667        777        778        789        788  
       657        658        669        668        778        779        790        789  
       658        659        670        669        779        780        791        790  
       659        660        671        670        780        781        792        791  
       661        662        673        672        782        783        794        793  
       662        663        674        673        783        784        795        794  
       663        664        675        674        784        785        796        795  
       664        665        676        675        785        786        797        796  
       665        666        677        676        786        787        798        797  
       666        667        678        677        787        788        799        798  
       667        668        679        678        788        789        800        799  
       668        669        680        679        789        790        801        800  
       669        670        681        680        790        791        802        801  
       670        671        682        681        791        792        803        802  
       672        673        684        683        793        794        805        804  
       673        674        685        684        794        795        806        805  
       674        675        686        685        795        796        807        806  
       675        676        687        686        796        797        808        807  
       676        677        688        687        797        798        809        808  
       677        678        689        688        798        799        810        809  
       678        679        690        689        799        800        811        810  
       679        680        691        690        800        801        812        811  
       680        681        692        691        801        802        813        812  
       681        682        693        692        802        803        814        813  
       683        684        695        694        804        805        816        815  
       684        685        696        695        805        806        817        816  
       685        686        697        696        806        807        818        817  
       686        687        698        697        807        808        819        818  
       687        688        699        698        808        809        820        819  
       688        689        700        699        809        810        821        820  
       689        690        701        700        810        811        822        821  
       690        691        702        701        811        812        823        822  
       691        692        703        702        812        813        824        823  
       692        693        704        703        813        814        825        824  
       694        695        706        705        815        816        827        826  
       695        696        707        706        816        817        828        827  
       696        697        708        707        817        818        829        828  
       697        698        709        708        818        819        830        829  
       698        699        710        709        819        820        831        830  
       699        700        711        710        820        821        832        831  
       700        701        712        711        821        822        833        832  
       701        702        713        712        822        823        834        833  
       702        703        714        713        823        824        835        834  
       703        704        715        714        824        825        836        835  
       705        706        717        716        826        827        838        837  
       706        707        718        717        827        828        839        838  
       707        708        719        718        828        829        840        839  
       708        709        720        719        829        830        841        840  
       709        710        721        720        830        831        842        841  
       710        711        722        721        831        832        843        842  
       711        712        723        722        832        833        844        843  
       712        713        724        723        833        834        845        844  
       713        714        725        724        834        835        846        845  
       714        715        726        725        835        836        847        846  
       727        728        739        738        848        849        860        859  
       728        729        740        739        849        850        861        860  
       729        730        741        740        850        851        862        861  
       730        731        742        741        851        852        863        862  
       731        732        743        742        852        853        864        863  
       732        733        744        743        853        854        865        864  
       733        734        745        744        854        855        866        865  
       734        735        746        745        855        856        867        866  
       735        736        747        746        856        857        868        867  
       736        737        748        747        857        858        869        868  
       738        739        750        749        859        860        871        870  
       739        740        751        750        860        861        872        871  
       740        741        752        751        861        862        873        872  
       741        742        753        752        862        863        874        873  
       742        743        754        753        863        864        875        874  
       743        744        755        754        864        865        876        875  
       744        745        756        755        865        866        877        876  
       745        746        757        756        866        867        878        877  
       746        747        758        757        867        868        879        878  
       747        748        759        758        868        869        880        879  
       749        750        761        760        870        871        882        881  
       750        751        762        761        871        872        883        882  
       751        752        763        762        872        873        884        883  
       752        753        764        763        873        874        885        884  
       753        754        765        764        874        875        886        885  
       754        755        766        765        875        876        887        886  
       755        756        767        766        876        877        888        887  
       756        757        768        767        877        878        889        888  
       757        758        769        768        878        879        890        889  
       758        759        770        769        879        880        891        890  
       760        761        772        771        881        882        893        892  
       761        762        773        772        882        883        894        893  
       762        763        774        773        883        884        895        894  
       763        764        775        774        884        885        896        895  
       764        765        776        775        885        886        897        896  
       765        766        777        776        886        887        898        897  
       766        767        778        777        887        888        899        898  
       767        768        779        778        888        889        900        899  
       768        769        780        779        889        890        901        900  
       769        770        781        780        890        891        902        901  
       771        772        783        782        892        893        904        903  
       772        773        784        783        893        894        905        904  
       773        774        785        784        894        895        906        905  
       774        775        786        785        895        896        907        906  
       775        776        787        786        896        897        908        907  
       776        777        788        787        897        898        909        908  
       777        778        789        788        898        899        910        909  
       778        779        790        789        899        900        911        910  
       779        780        791        790        900        901        912        911  
       780        781        792        791        901        902        913        912  
       782        783        794        793        903        904        915        914  
       783        784        795        794        904        905        916        915  
       784        785        796        795        905        906        917        916  
       785        786        797        796        906        907        918        917  
       786        787        798        797        907        908        919        918  
       787        788        799        798        908        909        920        919  
       788        789        800        799        909        910        921        920  
       789        790        801        800        910        911        922        921  
       790        791        802        801        911        912        923        922  
       791        792        803        802        912        913        924        923  
       793        794        805        804        914        915        926        925  
       794        795        806        805        915        916        927        926  
       795        796        807        806        916        917        928        927  
       796        797        808        807        917        918        929        928  
       797        798        809        808        918        919        930        929  
       798        799        810        809        919        920        931        930  
       799        800        811        810        920        921        932        931  
       800        801        812        811        921        922        933        932  
       801        802        813        812        922        923        934        933  
       802        803        814        813        923        924        935        934  
       804        805        816        815        925        926        937        936  
       805        806        817        816        926        927        938        937  
       806        807        818        817        927        928        939        938  
       807        808        819        818        928        929        940        939  
       808        809        820        819        929        930        941        940  
       809        810        821        820        930        931        942        941  
       810        811        822        821        931        932        943        942  
       811        812        823        822        932        933        944        943  
       812        813        824        823        933        934        945        944  
       813        814        825        824        934        935        946        945  
       815        816        827        826        936        937        948        947  
       816        817        828        827        937        938        949        948  
       817        818        829        828        938        939        950        949  
       818        819        830        829        939        940        951        950  
       819        820        831        830        940        941        952        951  
       820        821        832        831        941        942        953        952  
       821        822        833        832        942        943        954        953  
       822        823        834        833        943        944        955        954  
       823        824        835        834        944        945        956        955  
       824        825        836        835        945        946        957        956  
       826        827        838        837        947        948        959        958  
       827        828        839        838        948        949        960        959  
       828        829        840        839        949        950        961        960  
       829        830        841        840        950        951        962        961  
       830        831        842        841        951        952        963        962  
       831        832        843        842        952        953        964        963  
       832        833        844        843        953        954        965        964  
       833        834        845        844        954        955        966        965  
       834        835        846        845        955        956        967        966  
       835        836        847        846        956        957        968        967  
       848        849        860        859        969        970        981        980  
       849        850        861        860        970        971        982        981  
       850        851        862        861        971        972        983        982  
       851        852        863        862        972        973        984        983  
       852        853        864        863        973        974        985        984  
       853        854        865        864        974        975        986        985  
       854        855        866        865        975        976        987        986  
       855        856        867        866        976        977        988        987  
       856        857        868        867        977        978        989        988  
       857        858        869        868        978        979        990        989  
       859        860        871        870        980        981        992        991  
       860        861        872        871        981        982        993        992  
       861        862        873        872        982        983        994        993  
       862        863        874        873        983        984        995        994  
       863        864        875        874        984        985        996        995  
       864        865        876        875        985        986        997        996  
       865        866        877        876        986        987        998        997  
       866        867        878        877        987        988        999        998  
       867        868        879        878        988        989       1000        999  
       868        869        880        879        989        990       1001       1000  
       870        871        882        881        991        992       1003       1002  
       871        872        883        882        992        993       1004       1003  
       872        873        884        883        993        994       1005       1004  
       873        874        885        884        994        995       1006       1005  
       874        875        886        885        995        996       1007       1006  
       875        876        887        886        996        997       1008       1007  
       876        877        888        887        997        998       1009       1008  
       877        878        889        888        998        999       1010       1009  
       878        879        890        889        999       1000       1011       1010  
       879        880        891        890       1000       1001       1012       1011  
       881        882        893        892       1002       1003       1014       1013  
       882        883        894        893       1003       1004       1015       1014  
       883        884        895        894       1004       1005       1016       1015  
       884        885        896        895       1005       1006       1017       1016  
       885        886        897        896       1006       1007       1018       1017  
       886        887        898        897       1007       1008       1019       1018  
       887        888        899        898       1008       1009       1020       1019  
       888        889        900        899       1009       1010       1021       1020  
       889        890        901        900       1010       1011       1022       1021  
       890        891        902        901       1011       1012       1023       1022  
       892        893        904        903       1013       1014       1025       1024  
       893        894        905        904       1014       1015       1026       1025  
       894        895        906        905       1015       1016       1027       1026  
       895        896        907        906       1016       1017       1028       1027  
       896        897        908        907       1017       1018       1029       1028  
       897        898        909        908       1018       1019       1030       1029  
       898        899        910        909       1019       1020       1031       1030  
       899        900        911        910       1020       1021       1032       1031  
       900        901        912        911       1021       1022       1033       1032  
       901        902        913        912       1022       1023       1034       1033  
       903        904        915        914       1024       1025       1036       1035  
       904        905        916        915       1025       1026       1037       1036  
       905        906        917        916       1026       1027       1038       1037  
       906        907        918        917       1027       1028       1039       1038  
       907        908        919        918       1028       1029       1040       1039  
       908        909        920        919       1029       1030       1041       1040  
       909        910        921        920       1030       1031       1042       1041  
       910        911        922        921       1031       1032       1043       1042  
       911        912        923        922       1032       1033       1044       1043  
       912        913        924        923       1033       1034       1045       1044  
       914        915        926        925       1035       1036       1047       1046  
       915        916        927        926       1036       1037       1048       1047  
       916        917        928        927       1037       1038       1049       1048  
       917        918        929        928       1038       1039       1050       1049  
       918        919        930        929       1039       1040       1051       1050  
       919        920        931        930       1040       1041       1052       1051  
       920        921        932        931       1041       1042       1053       1052  
       921        922        933        932       1042       1043       1054       1053  
       922        923        934        933       1043       1044       1055       1054  
       923        924        935        934       1044       1045       1056       1055  
       925        926        937        936       1046       1047       1058       1057  
       926        927        938        937       1047       1048       1059       1058  
       927        928        939        938       1048       1049       1060       1059  
       928        929        940        939       1049       1050       1061       1060  
       929        930        941        940       1050       1051       1062       1061  
       930        931        942        941       1051       1052       1063       1062  
       931        932        943        942       1052       1053       1064       1063  
       932        933        944        943       1053       1054       1065       1064  
       933        934        945        944       1054       1055       1066       1065  
       934        935        946        945       1055       1056       1067       1066  
       936        937        948        947       1057       1058       1069       1068  
       937        938        949        948       1058       1059       1070       1069  
       938        939        950        949       1059       1060       1071       1070  
       939        940        951        950       1060       1061       1072       1071  
       940        941        952        951       1061       1062       1073       1072  
       941        942        953        952       1062       1063       1074       1073  
       942        943        954        953       1063       1064       1075       1074  
       943        944        955        954       1064       1065       1076       1075  
       944        945        956        955       1065       1066       1077       1076  
       945        946        957        956       1066       1067       1078       1077  
       947        948        959        958       1068       1069       1080       1079  
       948        949        960        959       1069       1070       1081       1080  
       949        950        961        960       1070       1071       1082       1081  
       950        951        962        961       1071       1072       1083       1082  
       951        952        963        962       1072       1073       1084       1083  
       952        953        964        963       1073       1074       1085       1084  
       953        954        965        964       1074       1075       1086       1085  
       954        955        966        965       1075       1076       1087       1086  
       955        956        967        966       1076       1077       1088       1087  
       956        957        968        967       1077       1078       1089       1088  
       969        970        981        980       1090       1091       1102       1101  
       970        971        982        981       1091       1092       1103       1102  
       971        972        983        982       1092       1093       1104       1103  
       972        973        984        983       1093       1094       1105       1104  
       973        974        985        984       1094       1095       1106       1105  
       974        975        986        985       1095       1096       1107       1106  
       975        976        987        986       1096       1097       1108       1107  
       976        977        988        987       1097       1098       1109       1108  
       977        978        989        988       1098       1099       1110       1109  
       978        979        990        989       1099       1100       1111       1110  
       980        981        992        991       1101       1102       1113       1112  
       981        982        993        992       1102       1103       1114       1113  
       982        983        994        993       1103       1104       1115       1114  
       983        984        995        994       1104       1105       1116       1115  
       984        985        996        995       1105       1106       1117       1116  
       985        986        997        996       1106       1107       1118       1117  
       986        987        998        997       1107       1108       1119       1118  
       987        988        999        998       1108       1109       1120       1119  
       988        989       1000        999       1109       1110       1121       1120  
       989        990       1001       1000       1110       1111       1122       1121  
       991        992       1003       1002       1112       1113       1124       1123  
       992        993       1004       1003       1113       1114       1125       1124  
       993        994       1005       1004       1114       1115       1126       1125  
       994        995       1006       1005       1115       1116       1127       1126  
       995        996       1007       1006       1116       1117       1128       1127  
       996        997       1008       1007       1117       1118       1129       1128  
       997        998       1009       1008       1118       1119       1130       1129  
       998        999       1010       1009       1119       1120       1131       1130  
       999       1000       1011       1010       1120       1121       1132       1131  
      1000       1001       1012       1011       1121       1122       1133       1132  
      1002       1003       1014       1013       1123       1124       1135       1134  
      1003       1004       1015       1014       1124       1125       1136       1135  
      1004       1005       1016       1015       1125       1126       1137       1136  
      1005       1006       1017       1016       1126       1127       1138       1137  
      1006       1007       1018       1017       1127       1128       1139       1138  
      1007       1008       1019       1018       1128       1129       1140       1139  
      1008       1009       1020       1019       1129       1130       1141       1140  
      1009       1010       1021       1020       1130       1131       1142       1141  
      1010       1011       1022       1021       1131       1132       1143       1142  
      1011       1012       1023       1022       1132       1133       1144       1143  
      1013       1014       1025       1024       1134       1135       1146       1145  
      1014       1015       1026       1025       1135       1136       1147       1146  
      1015       1016       1027       1026       1136       1137       1148       1147  
      1016       1017       1028       1027       1137       1138       1149       1148  
      1017       1018       1029       1028       1138       1139       1150       1149  
      1018       1019       1030       1029       1139       1140       1151       1150  
      1019       1020       1031       1030       1140       1141       1152       1151  
      1020       1021       1032       1031       1141       1142       1153       1152  
      1021       1022       1033       1032       1142       1143       1154       1153  
      1022       1023       1034       1033       1143       1144       1155       1154  
      1024       1025       1036       1035       1145       1146       1157       1156  
      1025       1026       1037       1036       1146       1147       1158       1157  
      1026       1027       1038       1037       1147       1148       1159       1158  
      1027       1028       1039       1038       1148       1149       1160       1159  
      1028       1029       1040       1039       1149       1150       1161       1160  
      1029       1030       1041       1040       1150       1151       1162       1161  
      1030       1031       1042       1041       1151       1152       1163       1162  
      1031       1032       1043       1042       1152       1153       1164       1163  
      1032       1033       1044       1043       1153       1154       1165       1164  
      1033       1034       1045       1044       1154       1155       1166       1165  
      1035       1036       1047       1046       1156       1157       1168       1167  
      1036       1037       1048       1047       1157       1158       1169       1168  
      1037       1038       1049       1048       1158       1159       1170       1169  
      1038       1039       1050       1049       1159       1160       1171       1170  
      1039       1040       1051       1050       1160       1161       1172       1171  
      1040       1041       1052       1051       1161       1162       1173       1172  
      1041       1042       1053       1052       1162       1163       1174       1173  
      1042       1043       1054       1053       1163       1164       1175       1174  
      1043       1044       1055       1054       1164       1165       1176       1175  
      1044       1045       1056       1055       1165       1166       1177       1176  
      1046       1047       1058       1057       1167       1168       1179       1178  
      1047       1048       1059       1058       1168       1169       1180       1179  
      1048       1049       1060       1059       1169       1170       1181       1180  
      1049       1050       1061       1060       1170       1171       1182       1181  
      1050       1051       1062       1061       1171       1172       1183       1182  
      1051       1052       1063       1062       1172       1173       1184       1183  
      1052       1053       1064       1063       1173       1174       1185       1184  
      1053       1054       1065       1064       1174       1175       1186       1185  
      1054       1055       1066       1065       1175       1176       1187       1186  
      1055       1056       1067       1066       1176       1177       1188       1187  
      1057       1058       1069       1068       1178       1179       1190       1189  
      1058       1059       1070       1069       1179       1180       1191       1190  
      1059       1060       1071       1070       1180       1181       1192       1191  
      1060       1061       1072       1071       1181       1182       1193       1192  
      1061       1062       1073       1072       1182       1183       1194       1193  
      1062       1063       1074       1073       1183       1184       1195       1194  
      1063       1064       1075       1074       1184       1185       1196       1195  
      1064       1065       1076       1075       1185       1186       1197       1196  
      1065       1066       1077       1076       1186       1187       1198       1197  
      1066       1067       1078       1077       1187       1188       1199       1198  
      1068       1069       1080       1079       1189       1190       1201       1200  
      1069       1070       1081       1080       1190       1191       1202       1201  
      1070       1071       1082       1081       1191       1192       1203       1202  
      1071       1072       1083       1082       1192       1193       1204       1203  
      1072       1073       1084       1083       1193       1194       1205       1204  
      1073       1074       1085       1084       1194       1195       1206       1205  
      1074       1075       1086       1085       1195       1196       1207       1206  
      1075       1076       1087       1086       1196       1197       1208       1207  
      1076       1077       1088       1087       1197       1198       1209       1208  
      1077       1078       1089       1088       1198       1199       1210       1209  
      1090       1091       1102       1101       1211       1212       1223       1222  
      1091       1092       1103       1102       1212       1213       1224       1223  
      1092       1093       1104       1103       1213       1214       1225       1224  
      1093       1094       1105       1104       1214       1215       1226       1225  
      1094       1095       1106       1105       1215       1216       1227       1226  
      1095       1096       1107       1106       1216       1217       1228       1227  
      1096       1097       1108       1107       1217       1218       1229       1228  
      1097       1098       1109       1108       1218       1219       1230       1229  
      1098       1099       1110       1109       1219       1220       1231       1230  
      1099       1100       1111       1110       1220       1221       1232       1231  
      1101       1102       1113       1112       1222       1223       1234       1233  
      1102       1103       1114       1113       1223       1224       1235       1234  
      1103       1104       1115       1114       1224       1225       1236       1235  
      1104       1105       1116       1115       1225       1226       1237       1236  
      1105       1106       1117       1116       1226       1227       1238       1237  
      1106       1107       1118       1117       1227       1228       1239       1238  
      1107       1108       1119       1118       1228       1229       1240       1239  
      1108       1109       1120       1119       1229       1230       1241       1240  
      1109       1110       1121       1120       1230       1231       1242       1241  
      1110       1111       1122       1121       1231       1232       1243       1242  
      1112       1113       1124       1123       1233       1234       1245       1244  
      1113       1114       1125       1124       1234       1235       1246       1245  
      1114       1115       1126       1125       1235       1236       1247       1246  
      1115       1116       1127       1126       1236       1237       1248       1247  
      1116       1117       1128       1127       1237       1238       1249       1248  
      1117       1118       1129       1128       1238       1239       1250       1249  
      1118       1119       1130       1129       1239       1240       1251       1250  
      1119       1120       1131       1130       1240       1241       1252       1251  
      1120       1121       1132       1131       1241       1242       1253       1252  
      1121       1122       1133       1132       1242       1243       1254       1253  
      1123       1124       1135       1134       1244       1245       1256       1255  
      1124       1125       1136       1135       1245       1246       1257       1256  
      1125       1126       1137       1136       1246       1247       1258       1257  
      1126       1127       1138       1137       1247       1248       1259       1258  
      1127       1128       1139       1138       1248       1249       1260       1259  
      1128       1129       1140       1139       1249       1250       1261       1260  
      1129       1130       1141       1140       1250       1251       1262       1261  
      1130       1131       1142       1141       1251       1252       1263       1262  
      1131       1132       1143       1142       1252       1253       1264       1263  
      1132       1133       1144       1143       1253       1254       1265       1264  
      1134       1135       1146       1145       1255       1256       1267       1266  
      1135       1136       1147       1146       1256       1257       1268       1267  
      1136       1137       1148       1147       1257       1258       1269       1268  
      1137       1138       1149       1148       1258       1259       1270       1269  
      1138       1139       1150       1149       1259       1260       1271       1270  
      1139       1140       1151       1150       1260       1261       1272       1271  
      1140       1141       1152       1151       1261       1262       1273       1272  
      1141       1142       1153       1152       1262       1263       1274       1273  
      1142       1143       1154       1153       1263       1264       1275       1274  
      1143       1144       1155       1154       1264       1265       1276       1275  
      1145       1146       1157       1156       1266       1267       1278       1277  
      1146       1147       1158       1157       1267       1268       1279       1278  
      1147       1148       1159       1158       1268       1269       1280       1279  
      1148       1149       1160       1159       1269       1270       1281       1280  
      1149       1150       1161       1160       1270       1271       1282       1281  
      1150       1151       1162       1161       1271       1272       1283       1282  
      1151       1152       1163       1162       1272       1273       1284       1283  
      1152       1153       1164       1163       1273       1274       1285       1284  
      1153       1154       1165       1164       1274       1275       1286       1285  
      1154       1155       1166       1165       1275       1276       1287       1286  
      1156       1157       1168       1167       1277       1278       1289       1288  
      1157       1158       1169       1168       1278       1279       1290       1289  
      1158       1159       1170       1169       1279       1280       1291       1290  
      1159       1160       1171       1170       1280       1281       1292       1291  
      1160       1161       1172       1171       1281       1282       1293       1292  
      1161       1162       1173       1172       1282       1283       1294       1293  
      1162       1163       1174       1173       1283       1284       1295       1294  
      1163       1164       1175       1174       1284       1285       1296       1295  
      1164       1165       1176       1175       1285       1286       1297       1296  
      1165       1166       1177       1176       1286       1287       1298       1297  
      1167       1168       1179       1178       1288       1289       1300       1299  
      1168       1169       1180       1179       1289       1290       1301       1300  
      1169       1170       1181       1180       1290       1291       1302       1301  
      1170       1171       1182       1181       1291       1292       1303       1302  
      1171       1172       1183       1182       1292       1293       1304       1303  
      1172       1173       1184       1183       1293       1294       1305       1304  
      1173       1174       1185       1184       1294       1295       1306       1305  
      1174       1175       1186       1185       1295       1296       1307       1306  
      1175       1176       1187       1186       1296       1297       1308       1307  
      1176       1177       1188       1187       1297       1298       1309       1308  
      1178       1179       1190       1189       1299       1300       1311       1310  
      1179       1180       1191       1190       1300       1301       1312       1311  
      1180       1181       1192       1191       1301       1302       1313       1312  
      1181       1182       1193       1192       1302       1303       1314       1313  
      1182       1183       1194       1193       1303       1304       1315       1314  
      1183       1184       1195       1194       1304       1305       1316       1315  
      1184       1185       1196       1195       1305       1306       1317       1316  
      1185       1186       1197       1196       1306       1307       1318       1317  
      1186       1187       1198       1197       1307       1308       1319       1318  
      1187       1188       1199       1198       1308       1309       1320       1319  
      1189       1190       1201       1200       1310       1311       1322       1321  
      1190       1191       1202       1201       1311       1312       1323       1322  
      1191       1192       1203       1202       1312       1313       1324       1323  
      1192       1193       1204       1203       1313       1314       1325       1324  
      1193       1194       1205       1204       1314       1315       1326       1325  
      1194       1195       1206       1205       1315       1316       1327       1326  
      1195       1196       1207       1206       1316       1317       1328       1327  
      1196       1197       1208       1207       1317       1318       1329       1328  
      1197       1198       1209       1208       1318       1319       1330       1329  
      1198       1199       1210       1209       1319       1320       1331       1330  
      1211       1212       1223       1222       1332       1333       1344       1343  
      1212       1213       1224       1223       1333       1334       1345       1344  
      1213       1214       1225       1224       1334       1335       1346       1345  
      1214       1215       1226       1225       1335       1336       1347       1346  
      1215       1216       1227       1226       1336       1337       1348       1347  
      1216       1217       1228       1227       1337       1338       1349       1348  
      1217       1218       1229       1228       1338       1339       1350       1349  
      1218       1219       1230       1229       1339       1340       1351       1350  
      1219       1220       1231       1230       1340       1341       1352       1351  
      1220       1221       1232       1231       1341       1342       1353       1352  
      1222       1223       1234       1233       1343       1344       1355       1354  
      1223       1224       1235       1234       1344       1345       1356       1355  
      1224       1225       1236       1235       1345       1346       1357       1356  
      1225       1226       1237       1236       1346       1347       1358       1357  
      1226       1227       1238       1237       1347       1348       1359       1358  
      1227       1228       1239       1238       1348       1349       1360       1359  
      1228       1229       1240       1239       1349       1350       1361       1360  
      1229       1230       1241       1240       1350       1351       1362       1361  
      1230       1231       1242       1241       1351       1352       1363       1362  
      1231       1232       1243       1242       1352       1353       1364       1363  
      1233       1234       1245       1244       1354       1355       1366       1365  
      1234       1235       1246       1245       1355       1356       1367       1366  
      1235       1236       1247       1246       1356       1357       1368       1367  
      1236       1237       1248       1247       1357       1358       1369       1368  
      1237       1238       1249       1248       1358       1359       1370       1369  
      1238       1239       1250       1249       1359       1360       1371       1370  
      1239       1240       1251       1250       1360       1361       1372       1371  
      1240       1241       1252       1251       1361       1362       1373       1372  
      1241       1242       1253       1252       1362       1363       1374       1373  
      1242       1243       1254       1253       1363       1364       1375       1374  
      1244       1245       1256       1255       1365       1366       1377       1376  
      1245       1246       1257       1256       1366       1367       1378       1377  
      1246       1247       1258       1257       1367       1368       1379       1378  
      1247       1248       1259       1258       1368       1369       1380       1379  
      1248       1249       1260       1259       1369       1370       1381       1380  
      1249       1250       1261       1260       1370       1371       1382       1381  
      1250       1251       1262       1261       1371       1372       1383       1382  
      1251       1252       1263       1262       1372       1373       1384       1383  
      1252       1253       1264       1263       1373       1374       1385       1384  
      1253       1254       1265       1264       1374       1375       1386       1385  
      1255       1256       1267       1266       1376       1377       1388       1387  
      1256       1257       1268       1267       1377       1378       1389       1388  
      1257       1258       1269       1268       1378       1379       1390       1389  
      1258       1259       1270       1269       1379       1380       1391       1390  
      1259       1260       1271       1270       1380       1381       1392       1391  
      1260       1261       1272       1271       1381       1382       1393       1392  
      1261       1262       1273       1272       1382       1383       1394       1393  
      1262       1263       1274       1273       1383       1384       1395       1394  
      1263       1264       1275       1274       1384       1385       1396       1395  
      1264       1265       1276       1275       1385       1386       1397       1396  
      1266       1267       1278       1277       1387       1388       1399       1398  
      1267       1268       1279       1278       1388       1389       1400       1399  
      1268       1269       1280       1279       1389       1390       1401       1400  
      1269       1270       1281       1280       1390       1391       1402       1401  
      1270       1271       1282       1281       1391       1392       1403       1402  
      1271       1272       1283       1282       1392       1393       1404       1403  
      1272       1273       1284       1283       1393       1394       1405       1404  
      1273       1274       1285       1284       1394       1395       1406       1405  
      1274       1275       1286       1285       1395       1396       1407       1406  
      1275       1276       1287       1286       1396       1397       1408       1407  
      1277       1278       1289       1288       1398       1399       1410       1409  
      1278       1279       1290       1289       1399       1400       1411       1410  
      1279       1280       1291       1290       1400       1401       1412       1411  
      1280       1281       1292       1291       1401       1402       1413       1412  
      1281       1282       1293       1292       1402       1403       1414       1413  
      1282       1283       1294       1293       1403       1404       1415       1414  
      1283       1284       1295       1294       1404       1405       1416       1415  
      1284       1285       1296       1295       1405       1406       1417       1416  
      1285       1286       1297       1296       1406       1407       1418       1417  
      1286       1287       1298       1297       1407       1408       1419       1418  
      1288       1289       1300       1299       1409       1410       1421       1420  
      1289       1290       1301       1300       1410       1411       1422       1421  
      1290       1291       1302       1301       1411       1412       1423       1422  
      1291       1292       1303       1302       1412       1413       1424       1423  
      1292       1293       1304       1303       1413       1414       1425       1424  
      1293       1294       1305       1304       1414       1415       1426       1425  
      1294       1295       1306       1305       1415       1416       1427       1426  
      1295       1296       1307       1306       1416       1417       1428       1427  
      1296       1297       1308       1307       1417       1418       1429       1428  
      1297       1298       1309       1308       1418       1419       1430       1429  
      1299       1300       1311       1310       1420       1421       1432       1431  
      1300       1301       1312       1311       1421       1422       1433       1432  
      1301       1302       1313       1312       1422       1423       1434       1433  
      1302       1303       1314       1313       1423       1424       1435       1434  
      1303       1304       1315       1314       1424       1425       1436       1435  
      1304       1305       1316       1315       1425       1426       1437       1436  
      1305       1306       1317       1316       1426       1427       1438       1437  
      1306       1307       1318       1317       1427       1428       1439       1438  
      1307       1308       1319       1318       1428       1429       1440       1439  
      1308       1309       1320       1319       1429       1430       1441       1440  
      1310       1311       1322       1321       1431       1432       1443       1442  
      1311       1312       1323       1322       1432       1433       1444       1443  
      1312       1313       1324       1323       1433       1434       1445       1444  
      1313       1314       1325       1324       1434       1435       1446       1445  
      1314       1315       1326       1325       1435       1436       1447       1446  
      1315       1316       1327       1326       1436       1437       1448       1447  
      1316       1317       1328       1327       1437       1438       1449       1448  
      1317       1318       1329       1328       1438       1439       1450       1449  
      1318       1319       1330       1329       1439       1440       1451       1450  
      1319       1320       1331       1330       1440       1441       1452       1451  
      1332       1333       1344       1343       1453       1454       1465       1464  
      1333       1334       1345       1344       1454       1455       1466       1465  
      1334       1335       1346       1345       1455       1456       1467       1466  
      1335       1336       1347       1346       1456       1457       1468       1467  
      1336       1337       1348       1347       1457       1458       1469       1468  
      1337       1338       1349       1348       1458       1459       1470       1469  
      1338       1339       1350       1349       1459       1460       1471       1470  
      1339       1340       1351       1350       1460       1461       1472       1471  
      1340       1341       1352       1351       1461       1462       1473       1472  
      1341       1342       1353       1352       1462       1463       1474       1473  
      1343       1344       1355       1354       1464       1465       1476       1475  
      1344       1345       1356       1355       1465       1466       1477       1476  
      1345       1346       1357       1356       1466       1467       1478       1477  
      1346       1347       1358       1357       1467       1468       1479       1478  
      1347       1348       1359       1358       1468       1469       1480       1479  
      1348       1349       1360       1359       1469       1470       1481       1480  
      1349       1350       1361       1360       1470       1471       1482       1481  
      1350       1351       1362       1361       1471       1472       1483       1482  
      1351       1352       1363       1362       1472       1473       1484       1483  
      1352       1353       1364       1363       1473       1474       1485       1484  
      1354       1355       1366       1365       1475       1476       1487       1486  
      1355       1356       1367       1366       1476       1477       1488       1487  
      1356       1357       1368       1367       1477       1478       1489       1488  
      1357       1358       1369       1368       1478       1479       1490       1489  
      1358       1359       1370       1369       1479       1480       1491       1490  
      1359       1360       1371       1370       1480       1481       1492       1491  
      1360       1361       1372       1371       1481       1482       1493       1492  
      1361       1362       1373       1372       1482       1483       1494       1493  
      1362       1363       1374       1373       1483       1484       1495       1494  
      1363       1364       1375       1374       1484       1485       1496       1495  
      1365       1366       1377       1376       1486       1487       1498       1497  
      1366       1367       1378       1377       1487       1488       1499       1498  
      1367       1368       1379       1378       1488       1489       1500       1499  
      1368       1369       1380       1379       1489       1490       1501       1500  
      1369       1370       1381       1380       1490       1491       1502       1501  
      1370       1371       1382       1381       1491       1492       1503       1502  
      1371       1372       1383       1382       1492       1493       1504       1503  
      1372       1373       1384       1383       1493       1494       1505       1504  
      1373       1374       1385       1384       1494       1495       1506       1505  
      1374       1375       1386       1385       1495       1496       1507       1506  
      1376       1377       1388       1387       1497       1498       1509       1508  
      1377       1378       1389       1388       1498       1499       1510       1509  
      1378       1379       1390       1389       1499       1500       1511       1510  
      1379       1380       1391       1390       1500       1501       1512       1511  
      1380       1381       1392       1391       1501       1502       1513       1512  
      1381       1382       1393       1392       1502       1503       1514       1513  
      1382       1383       1394       1393       1503       1504       1515       1514  
      1383       1384       1395       1394       1504       1505       1516       1515  
      1384       1385       1396       1395       1505       1506       1517       1516  
      1385       1386       1397       1396       1506       1507       1518       1517  
      1387       1388       1399       1398       1508       1509       1520       1519  
      1388       1389       1400       1399       1509       1510       1521       1520  
      1389       1390       1401       1400       1510       1511       1522       1521  
      1390       1391       1402       1401       1511       1512       1523       1522  
      1391       1392       1403       1402       1512       1513       1524       1523  
      1392       1393       1404       1403       1513       1514       1525       1524  
      1393       1394       1405       1404       1514       1515       1526       1525  
      1394       1395       1406       1405       1515       1516       1527       1526  
      1395       1396       1407       1406       1516       1517       1528       1527  
      1396       1397       1408       1407       1517       1518       1529       1528  
      1398       1399       1410       1409       1519       1520       1531       1530  
      1399       1400       1411       1410       1520       1521       1532       1531  
      1400       1401       1412       1411       1521       1522       1533       1532  
      1401       1402       1413       1412       1522       1523       1534       1533  
      1402       1403       1414       1413       1523       1524       1535       1534  
      1403       1404       1415       1414       1524       1525       1536       1535  
      1404       1405       1416       1415       1525       1526       1537       1536  
      1405       1406       1417       1416       1526       1527       1538       1537  
      1406       1407       1418       1417       1527       1528       1539       1538  
      1407       1408       1419       1418       1528       1529       1540       1539  
      1409       1410       1421       1420       1530       1531       1542       1541  
      1410       1411       1422       1421       1531       1532       1543       1542  
      1411       1412       1423       1422       1532       1533       1544       1543  
      1412       1413       1424       1423       1533       1534       1545       1544  
      1413       1414       1425       1424       1534       1535       1546       1545  
      1414       1415       1426       1425       1535       1536       1547       1546  
      1415       1416       1427       1426       1536       1537       1548       1547  
      1416       1417       1428       1427       1537       1538       1549       1548  
      1417       1418       1429       1428       1538       1539       1550       1549  
      1418       1419       1430       1429       1539       1540       1551       1550  
      1420       1421       1432       1431       1541       1542       1553       1552  
      1421       1422       1433       1432       1542       1543       1554       1553  
      1422       1423       1434       1433       1543       1544       1555       1554  
      1423       1424       1435       1434       1544       1545       1556       1555  
      1424       1425       1436       1435       1545       1546       1557       1556  
      1425       1426       1437       1436       1546       1547       1558       1557  
      1426       1427       1438       1437       1547       1548       1559       1558  
      1427       1428       1439       1438       1548       1549       1560       1559  
      1428       1429       1440       1439       1549       1550       1561       1560  
      1429       1430       1441       1440       1550       1551       1562       1561  
      1431       1432       1443       1442       1552       1553       1564       1563  
      1432       1433       1444       1443       1553       1554       1565       1564  
      1433       1434       1445       1444       1554       1555       1566       1565  
      1434       1435       1446       1445       1555       1556       1567       1566  
      1435       1436       1447       1446       1556       1557       1568       1567  
      1436       1437       1448       1447       1557       1558       1569       1568  
      1437       1438       1449       1448       1558       1559       1570       1569  
      1438       1439       1450       1449       1559       1560       1571       1570  
      1439       1440       1451       1450       1560       1561       1572       1571  
      1440       1441       1452       1451       1561       1562       1573       1572  
      1453       1454       1465       1464       1574       1575       1586       1585  
      1454       1455       1466       1465       1575       1576       1587       1586  
      1455       1456       1467       1466       1576       1577       1588       1587  
      1456       1457       1468       1467       1577       1578       1589       1588  
      1457       1458       1469       1468       1578       1579       1590       1589  
      1458       1459       1470       1469       1579       1580       1591       1590  
      1459       1460       1471       1470       1580       1581       1592       1591  
      1460       1461       1472       1471       1581       1582       1593       1592  
      1461       1462       1473       1472       1582       1583       1594       1593  
      1462       1463       1474       1473       1583       1584       1595       1594  
      1464       1465       1476       1475       1585       1586       1597       1596  
      1465       1466       1477       1476       1586       1587       1598       1597  
      1466       1467       1478       1477       1587       1588       1599       1598  
      1467       1468       1479       1478       1588       1589       1600       1599  
      1468       1469       1480       1479       1589       1590       1601       1600  
      1469       1470       1481       1480       1590       1591       1602       1601  
      1470       1471       1482       1481       1591       1592       1603       1602  
      1471       1472       1483       1482       1592       1593       1604       1603  
      1472       1473       1484       1483       1593       1594       1605       1604  
      1473       1474       1485       1484       1594       1595       1606       1605  
      1475       1476       1487       1486       1596       1597       1608       1607  
      1476       1477       1488       1487       1597       1598       1609       1608  
      1477       1478       1489       1488       1598       1599       1610       1609  
      1478       1479       1490       1489       1599       1600       1611       1610  
      1479       1480       1491       1490       1600       1601       1612       1611  
      1480       1481       1492       1491       1601       1602       1613       1612  
      1481       1482       1493       1492       1602       1603       1614       1613  
      1482       1483       1494       1493       1603       1604       1615       1614  
      1483       1484       1495       1494       1604       1605       1616       1615  
      1484       1485       1496       1495       1605       1606       1617       1616  
      1486       1487       1498       1497       1607       1608       1619       1618  
      1487       1488       1499       1498       1608       1609       1620       1619  
      1488       1489       1500       1499       1609       1610       1621       1620  
      1489       1490       1501       1500       1610       1611       1622       1621  
      1490       1491       1502       1501       1611       1612       1623       1622  
      1491       1492       1503       1502       1612       1613       1624       1623  
      1492       1493       1504       1503       1613       1614       1625       1624  
      1493       1494       1505       1504       1614       1615       1626       1625  
      1494       1495       1506       1505       1615       1616       1627       1626  
      1495       1496       1507       1506       1616       1617       1628       1627  
      1497       1498       1509       1508       1618       1619       1630       1629  
      1498       1499       1510       1509       1619       1620       1631       1630  
      1499       1500       1511       1510       1620       1621       1632       1631  
      1500       1501       1512       1511       1621       1622       1633       1632  
      1501       1502       1513       1512       1622       1623       1634       1633  
      1502       1503       1514       1513       1623       1624       1635       1634  
      1503       1504       1515       1514       1624       1625       1636       1635  
      1504       1505       1516       1515       1625       1626       1637       1636  
      1505       1506       1517       1516       1626       1627       1638       1637  
      1506       1507       1518       1517       1627       1628       1639       1638  
      1508       1509       1520       1519       1629       1630       1641       1640  
      1509       1510       1521       1520       1630       1631       1642       1641  
      1510       1511       1522       1521       1631       1632       1643       1642  
      1511       1512       1523       1522       1632       1633       1644       1643  
      1512       1513       1524       1523       1633       1634       1645       1644  
      1513       1514       1525       1524       1634       1635       1646       1645  
      1514       1515       1526       1525       1635       1636       1647       1646  
      1515       1516       1527       1526       1636       1637       1648       1647  
      1516       1517       1528       1527       1637       1638       1649       1648  
      1517       1518       1529       1528       1638       1639       1650       1649  
      1519       1520       1531       1530       1640       1641       1652       1651  
      1520       1521       1532       1531       1641       1642       1653       1652  
      1521       1522       1533       1532       1642       1643       1654       1653  
      1522       1523       1534       1533       1643       1644       1655       1654  
      1523       1524       1535       1534       1644       1645       1656       1655  
      1524       1525       1536       1535       1645       1646       1657       1656  
      1525       1526       1537       1536       1646       1647       1658       1657  
      1526       1527       1538       1537       1647       1648       1659       1658  
      1527       1528       1539       1538       1648       1649       1660       1659  
      1528       1529       1540       1539       1649       1650       1661       1660  
      1530       1531       1542       1541       1651       1652       1663       1662  
      1531       1532       1543       1542       1652       1653       1664       1663  
      1532       1533       1544       1543       1653       1654       1665       1664  
      1533       1534       1545       1544       1654       1655       1666       1665  
      1534       1535       1546       1545       1655       1656       1667       1666  
      1535       1536       1547       1546       1656       1657       1668       1667  
      1536       1537       1548       1547       1657       1658       1669       1668  
      1537       1538       1549       1548       1658       1659       1670       1669  
      1538       1539       1550       1549       1659       1660       1671       1670  
      1539       1540       1551       1550       1660       1661       1672       1671  
      1541       1542       1553       1552       1662       1663       1674       1673  
      1542       1543       1554       1553       1663       1664       1675       1674  
      1543       1544       1555       1554       1664       1665       1676       1675  
      1544       1545       1556       1555       1665       1666       1677       1676  
      1545       1546       1557       1556       1666       1667       1678       1677  
      1546       1547       1558       1557       1667       1668       1679       1678  
      1547       1548       1559       1558       1668       1669       1680       1679  
      1548       1549       1560       1559       1669       1670       1681       1680  
      1549       1550       1561       1560       1670       1671       1682       1681  
      1550       1551       1562       1561       1671       1672       1683       1682  
      1552       1553       1564       1563       1673       1674       1685       1684  
      1553       1554       1565       1564       1674       1675       1686       1685  
      1554       1555       1566       1565       1675       1676       1687       1686  
      1555       1556       1567       1566       1676       1677       1688       1687  
      1556       1557       1568       1567       1677       1678       1689       1688  
      1557       1558       1569       1568       1678       1679       1690       1689  
      1558       1559       1570       1569       1679       1680       1691       1690  
      1559       1560       1571       1570       1680       1681       1692       1691  
      1560       1561       1572       1571       1681       1682       1693       1692  
      1561       1562       1573       1572       1682       1683       1694       1693  
      1574       1575       1586       1585       1695       1696       1707       1706  
      1575       1576       1587       1586       1696       1697       1708       1707  
      1576       1577       1588       1587       1697       1698       1709       1708  
      1577       1578       1589       1588       1698       1699       1710       1709  
      1578       1579       1590       1589       1699       1700       1711       1710  
      1579       1580       1591       1590       1700       1701       1712       1711  
      1580       1581       1592       1591       1701       1702       1713       1712  
      1581       1582       1593       1592       1702       1703       1714       1713  
      1582       1583       1594       1593       1703       1704       1715       1714  
      1583       1584       1595       1594       1704       1705       1716       1715  
      1585       1586       1597       1596       1706       1707       1718       1717  
      1586       1587       1598       1597       1707       1708       1719       1718  
      1587       1588       1599       1598       1708       1709       1720       1719  
      1588       1589       1600       1599       1709       1710       1721       1720  
      1589       1590       1601       1600       1710       1711       1722       1721  
      1590       1591       1602       1601       1711       1712       1723       1722  
      1591       1592       1603       1602       1712       1713       1724       1723  
      1592       1593       1604       1603       1713       1714       1725       1724  
      1593       1594       1605       1604       1714       1715       1726       1725  
      1594       1595       1606       1605       1715       1716       1727       1726  
      1596       1597       1608       1607       1717       1718       1729       1728  
      1597       1598       1609       1608       1718       1719       1730       1729  
      1598       1599       1610       1609       1719       1720       1731       1730  
      1599       1600       1611       1610       1720       1721       1732       1731  
      1600       1601       1612       1611       1721       1722       1733       1732  
      1601       1602       1613       1612       1722       1723       1734       1733  
      1602       1603       1614       1613       1723       1724       1735       1734  
      1603       1604       1615       1614       1724       1725       1736       1735  
      1604       1605       1616       1615       1725       1726       1737       1736  
      1605       1606       1617       1616       1726       1727       1738       1737  
      1607       1608       1619       1618       1728       1729       1740       1739  
      1608       1609       1620       1619       1729       1730       1741       1740  
      1609       1610       1621       1620       1730       1731       1742       1741  
      1610       1611       1622       1621       1731       1732       1743       1742  
      1611       1612       1623       1622       1732       1733       1744       1743  
      1612       1613       1624       1623       1733       1734       1745       1744  
      1613       1614       1625       1624       1734       1735       1746       1745  
      1614       1615       1626       1625       1735       1736       1747       1746  
      1615       1616       1627       1626       1736       1737       1748       1747  
      1616       1617       1628       1627       1737       1738       1749       1748  
      1618       1619       1630       1629       1739       1740       1751       1750  
      1619       1620       1631       1630       1740       1741       1752       1751  
      1620       1621       1632       1631       1741       1742       1753       1752  
      1621       1622       1633       1632       1742       1743       1754       1753  
      1622       1623       1634       1633       1743       1744       1755       1754  
      1623       1624       1635       1634       1744       1745       1756       1755  
      1624       1625       1636       1635       1745       1746       1757       1756  
      1625       1626       1637       1636       1746       1747       1758       1757  
      1626       1627       1638       1637       1747       1748       1759       1758  
      1627       1628       1639       1638       1748       1749       1760       1759  
      1629       1630       1641       1640       1750       1751       1762       1761  
      1630       1631       1642       1641       1751       1752       1763       1762  
      1631       1632       1643       1642       1752       1753       1764       1763  
      1632       1633       1644       1643       1753       1754       1765       1764  
      1633       1634       1645       1644       1754       1755       1766       1765  
      1634       1635       1646       1645       1755       1756       1767       1766  
      1635       1636       1647       1646       1756       1757       1768       1767  
      1636       1637       1648       1647       1757       1758       1769       1768  
      1637       1638       1649       1648       1758       1759       1770       1769  
      1638       1639       1650       1649       1759       1760       1771       1770  
      1640       1641       1652       1651       1761       1762       1773       1772  
      1641       1642       1653       1652       1762       1763       1774       1773  
      1642       1643       1654       1653       1763       1764       1775       1774  
      1643       1644       1655       1654       1764       1765       1776       1775  
      1644       1645       1656       1655       1765       1766       1777       1776  
      1645       1646       1657       1656       1766       1767       1778       1777  
      1646       1647       1658       1657       1767       1768       1779       1778  
      1647       1648       1659       1658       1768       1769       1780       1779  
      1648       1649       1660       1659       1769       1770       1781       1780  
      1649       1650       1661       1660       1770       1771       1782       1781  
      1651       1652       1663       1662       1772       1773       1784       1783  
      1652       1653       1664       1663       1773       1774       1785       1784  
      1653       1654       1665       1664       1774       1775       1786       1785  
      1654       1655       1666       1665       1775       1776       1787       1786  
      1655       1656       1667       1666       1776       1777       1788       1787  
      1656       1657       1668       1667       1777       1778       1789       1788  
      1657       1658       1669       1668       1778       1779       1790       1789  
      1658       1659       1670       1669       1779       1780       1791       1790  
      1659       1660       1671       1670       1780       1781       1792       1791  
      1660       1661       1672       1671       1781       1782       1793       1792  
      1662       1663       1674       1673       1783       1784       1795       1794  
      1663       1664       1675       1674       1784       1785       1796       1795  
      1664       1665       1676       1675       1785       1786       1797       1796  
      1665       1666       1677       1676       1786       1787       1798       1797  
      1666       1667       1678       1677       1787       1788       1799       1798  
      1667       1668       1679       1678       1788       1789       1800       1799  
      1668       1669       1680       1679       1789       1790       1801       1800  
      1669       1670       1681       1680       1790       1791       1802       1801  
      1670       1671       1682       1681       1791       1792       1803       1802  
      1671       1672       1683       1682       1792       1793       1804       1803  
      1673       1674       1685       1684       1794       1795       1806       1805  
      1674       1675       1686       1685       1795       1796       1807       1806  
      1675       1676       1687       1686       1796       1797       1808       1807  
      1676       1677       1688       1687       1797       1798       1809       1808  
      1677       1678       1689       1688       1798       1799       1810       1809  
      1678       1679       1690       1689       1799       1800       1811       1810  
      1679       1680       1691       1690       1800       1801       1812       1811  
      1680       1681       1692       1691       1801       1802       1813       1812  
      1681       1682       1693       1692       1802       1803       1814       1813  
      1682       1683       1694       1693       1803       1804       1815       1814  
      1695       1696       1707       1706       1816       1817       1828       1827  
      1696       1697       1708       1707       1817       1818       1829       1828  
      1697       1698       1709       1708       1818       1819       1830       1829  
      1698       1699       1710       1709       1819       1820       1831       1830  
      1699       1700       1711       1710       1820       1821       1832       1831  
      1700       1701       1712       1711       1821       1822       1833       1832  
      1701       1702       1713       1712       1822       1823       1834       1833  
      1702       1703       1714       1713       1823       1824       1835       1834  
      1703       1704       1715       1714       1824       1825       1836       1835  
      1704       1705       1716       1715       1825       1826       1837       1836  
      1706       1707       1718       1717       1827       1828       1839       1838  
      1707       1708       1719       1718       1828       1829       1840       1839  
      1708       1709       1720       1719       1829       1830       1841       1840  
      1709       1710       1721       1720       1830       1831       1842       1841  
      1710       1711       1722       1721       1831       1832       1843       1842  
      1711       1712       1723       1722       1832       1833       1844       1843  
      1712       1713       1724       1723       1833       1834       1845       1844  
      1713       1714       1725       1724       1834       1835       1846       1845  
      1714       1715       1726       1725       1835       1836       1847       1846  
      1715       1716       1727       1726       1836       1837       1848       1847  
      1717       1718       1729       1728       1838       1839       1850       1849  
      1718       1719       1730       1729       1839       1840       1851       1850  
      1719       1720       1731       1730       1840       1841       1852       1851  
      1720       1721       1732       1731       1841       1842       1853       1852  
      1721       1722       1733       1732       1842       1843       1854       1853  
      1722       1723       1734       1733       1843       1844       1855       1854  
      1723       1724       1735       1734       1844       1845       1856       1855  
      1724       1725       1736       1735       1845       1846       1857       1856  
      1725       1726       1737       1736       1846       1847       1858       1857  
      1726       1727       1738       1737       1847       1848       1859       1858  
      1728       1729       1740       1739       1849       1850       1861       1860  
      1729       1730       1741       1740       1850       1851       1862       1861  
      1730       1731       1742       1741       1851       1852       1863       1862  
      1731       1732       1743       1742       1852       1853       1864       1863  
      1732       1733       1744       1743       1853       1854       1865       1864  
      1733       1734       1745       1744       1854       1855       1866       1865  
      1734       1735       1746       1745       1855       1856       1867       1866  
      1735       1736       1747       1746       1856       1857       1868       1867  
      1736       1737       1748       1747       1857       1858       1869       1868  
      1737       1738       1749       1748       1858       1859       1870       1869  
      1739       1740       1751       1750       1860       1861       1872       1871  
      1740       1741       1752       1751       1861       1862       1873       1872  
      1741       1742       1753       1752       1862       1863       1874       1873  
      1742       1743       1754       1753       1863       1864       1875       1874  
      1743       1744       1755       1754       1864       1865       1876       1875  
      1744       1745       1756       1755       1865       1866       1877       1876  
      1745       1746       1757       1756       1866       1867       1878       1877  
      1746       1747       1758       1757       1867       1868       1879       1878  
      1747       1748       1759       1758       1868       1869       1880       1879  
      1748       1749       1760       1759       1869       1870       1881       1880  
      1750       1751       1762       1761       1871       1872       1883       1882  
      1751       1752       1763       1762       1872       1873       1884       1883  
      1752       1753       1764       1763       1873       1874       1885       1884  
      1753       1754       1765       1764       1874       1875       1886       1885  
      1754       1755       1766       1765       1875       1876       1887       1886  
      1755       1756       1767       1766       1876       1877       1888       1887  
      1756       1757       1768       1767       1877       1878       1889       1888  
      1757       1758       1769       1768       1878       1879       1890       1889  
      1758       1759       1770       1769       1879       1880       1891       1890  
      1759       1760       1771       1770       1880       1881       1892       1891  
      1761       1762       1773       1772       1882       1883       1894       1893  
      1762       1763       1774       1773       1883       1884       1895       1894  
      1763       1764       1775       1774       1884       1885       1896       1895  
      1764       1765       1776       1775       1885       1886       1897       1896  
      1765       1766       1777       1776       1886       1887       1898       1897  
      1766       1767       1778       1777       1887       1888       1899       1898  
      1767       1768       1779       1778       1888       1889       1900       1899  
      1768       1769       1780       1779       1889       1890       1901       1900  
      1769       1770       1781       1780       1890       1891       1902       1901  
      1770       1771       1782       1781       1891       1892       1903       1902  
      1772       1773       1784       1783       1893       1894       1905       1904  
      1773       1774       1785       1784       1894       1895       1906       1905  
      1774       1775       1786       1785       1895       1896       1907       1906  
      1775       1776       1787       1786       1896       1897       1908       1907  
      1776       1777       1788       1787       1897       1898       1909       1908  
      1777       1778       1789       1788       1898       1899       1910       1909  
      1778       1779       1790       1789       1899       1900       1911       1910  
      1779       1780       1791       1790       1900       1901       1912       1911  
      1780       1781       1792       1791       1901       1902       1913       1912  
      1781       1782       1793       1792       1902       1903       1914       1913  
      1783       1784       1795       1794       1904       1905       1916       1915  
      1784       1785       1796       1795       1905       1906       1917       1916  
      1785       1786       1797       1796       1906       1907       1918       1917  
      1786       1787       1798       1797       1907       1908       1919       1918  
      1787       1788       1799       1798       1908       1909       1920       1919  
      1788       1789       1800       1799       1909       1910       1921       1920  
      1789       1790       1801       1800       1910       1911       1922       1921  
      1790       1791       1802       1801       1911       1912       1923       1922  
      1791       1792       1803       1802       1912       1913       1924       1923  
      1792       1793       1804       1803       1913       1914       1925       1924  
      1794       1795       1806       1805       1915       1916       1927       1926  
      1795       1796       1807       1806       1916       1917       1928       1927  
      1796       1797       1808       1807       1917       1918       1929       1928  
      1797       1798       1809       1808       1918       1919       1930       1929  
      1798       1799       1810       1809       1919       1920       1931       1930  
      1799       1800       1811       1810       1920       1921       1932       1931  
      1800       1801       1812       1811       1921       1922       1933       1932  
      1801       1802       1813       1812       1922       1923       1934       1933  
      1802       1803       1814       1813       1923       1924       1935       1934  
      1803       1804       1815       1814       1924       1925       1936       1935  
      1816       1817       1828       1827       1937       1938       1949       1948  
      1817       1818       1829       1828       1938       1939       1950       1949  
      1818       1819       1830       1829       1939       1940       1951       1950  
      1819       1820       1831       1830       1940       1941       1952       1951  
      1820       1821       1832       1831       1941       1942       1953       1952  
      1821       1822       1833       1832       1942       1943       1954       1953  
      1822       1823       1834       1833       1943       1944       1955       1954  
      1823       1824       1835       1834       1944       1945       1956       1955  
      1824       1825       1836       1835       1945       1946       1957       1956  
      1825       1826       1837       1836       1946       1947       1958       1957  
      1827       1828       1839       1838       1948       1949       1960       1959  
      1828       1829       1840       1839       1949       1950       1961       1960  
      1829       1830       1841       1840       1950       1951       1962       1961  
      1830       1831       1842       1841       1951       1952       1963       1962  
      1831       1832       1843       1842       1952       1953       1964       1963  
      1832       1833       1844       1843       1953       1954       1965       1964  
      1833       1834       1845       1844       1954       1955       1966       1965  
      1834       1835       1846       1845       1955       1956       1967       1966  
      1835       1836       1847       1846       1956       1957       1968       1967  
      1836       1837       1848       1847       1957       1958       1969       1968  
      1838       1839       1850       1849       1959       1960       1971       1970  
      1839       1840       1851       1850       1960       1961       1972       1971  
      1840       1841       1852       1851       1961       1962       1973       1972  
      1841       1842       1853       1852       1962       1963       1974       1973  
      1842       1843       1854       1853       1963       1964       1975       1974  
      1843       1844       1855       1854       1964       1965       1976       1975  
      1844       1845       1856       1855       1965       1966       1977       1976  
      1845       1846       1857       1856       1966       1967       1978       1977  
      1846       1847       1858       1857       1967       1968       1979       1978  
      1847       1848       1859       1858       1968       1969       1980       1979  
      1849       1850       1861       1860       1970       1971       1982       1981  
      1850       1851       1862       1861       1971       1972       1983       1982  
      1851       1852       1863       1862       1972       1973       1984       1983  
      1852       1853       1864       1863       1973       1974       1985       1984  
      1853       1854       1865       1864       1974       1975       1986       1985  
      1854       1855       1866       1865       1975       1976       1987       1986  
      1855       1856       1867       1866       1976       1977       1988       1987  
      1856       1857       1868       1867       1977       1978       1989       1988  
      1857       1858       1869       1868       1978       1979       1990       1989  
      1858       1859       1870       1869       1979       1980       1991       1990  
      1860       1861       1872       1871       1981       1982       1993       1992  
      1861       1862       1873       1872       1982       1983       1994       1993  
      1862       1863       1874       1873       1983       1984       1995       1994  
      1863       1864       1875       1874       1984       1985       1996       1995  
      1864       1865       1876       1875       1985       1986       1997       1996  
      1865       1866       1877       1876       1986       1987       1998       1997  
      1866       1867       1878       1877       1987       1988       1999       1998  
      1867       1868       1879       1878       1988       1989       2000       1999  
      1868       1869       1880       1879       1989       1990       2001       2000  
      1869       1870       1881       1880       1990       1991       2002       2001  
      1871       1872       1883       1882       1992       1993       2004       2003  
      1872       1873       1884       1883       1993       1994       2005       2004  
      1873       1874       1885       1884       1994       1995       2006       2005  
      1874       1875       1886       1885       1995       1996       2007       2006  
      1875       1876       1887       1886       1996       1997       2008       2007  
      1876       1877       1888       1887       1997       1998       2009       2008  
      1877       1878       1889       1888       1998       1999       2010       2009  
      1878       1879       1890       1889       1999       2000       2011       2010  
      1879       1880       1891       1890       2000       2001       2012       2011  
      1880       1881       1892       1891       2001       2002       2013       2012  
      1882       1883       1894       1893       2003       2004       2015       2014  
      1883       1884       1895       1894       2004       2005       2016       2015  
      1884       1885       1896       1895       2005       2006       2017       2016  
      1885       1886       1897       1896       2006       2007       2018       2017  
      1886       1887       1898       1897       2007       2008       2019       2018  
      1887       1888       1899       1898       2008       2009       2020       2019  
      1888       1889       1900       1899       2009       2010       2021       2020  
      1889       1890       1901       1900       2010       2011       2022       2021  
      1890       1891       1902       1901       2011       2012       2023       2022  
      1891       1892       1903       1902       2012       2013       2024       2023  
      1893       1894       1905       1904       2014       2015       2026       2025  
      1894       1895       1906       1905       2015       2016       2027       2026  
      1895       1896       1907       1906       2016       2017       2028       2027  
      1896       1897       1908       1907       2017       2018       2029       2028  
      1897       1898       1909       1908       2018       2019       2030       2029  
      1898       1899       1910       1909       2019       2020       2031       2030  
      1899       1900       1911       1910       2020       2021       2032       2031  
      1900       1901       1912       1911       2021       2022       2033       2032  
      1901       1902       1913       1912       2022       2023       2034       2033  
      1902       1903       1914       1913       2023       2024       2035       2034  
      1904       1905       1916       1915       2025       2026       2037       2036  
      1905       1906       1917       1916       2026       2027       2038       2037  
      1906       1907       1918       1917       2027       2028       2039       2038  
      1907       1908       1919       1918       2028       2029       2040       2039  
      1908       1909       1920       1919       2029       2030       2041       2040  
      1909       1910       1921       1920       2030       2031       2042       2041  
      1910       1911       1922       1921       2031       2032       2043       2042  
      1911       1912       1923       1922       2032       2033       2044       2043  
      1912       1913       1924       1923       2033       2034       2045       2044  
      1913       1914       1925       1924       2034       2035       2046       2045  
      1915       1916       1927       1926       2036       2037       2048       2047  
      1916       1917       1928       1927       2037       2038       2049       2048  
      1917       1918       1929       1928       2038       2039       2050       2049  
      1918       1919       1930       1929       2039       2040       2051       2050  
      1919       1920       1931       1930       2040       2041       2052       2051  
      1920       1921       1932       1931       2041       2042       2053       2052  
      1921       1922       1933       1932       2042       2043       2054       2053  
      1922       1923       1934       1933       2043       2044       2055       2054  
      1923       1924       1935       1934       2044       2045       2056       2055  
      1924       1925       1936       1935       2045       2046       2057       2056  
      1937       1938       1949       1948       2058       2059       2070       2069  
      1938       1939       1950       1949       2059       2060       2071       2070  
      1939       1940       1951       1950       2060       2061       2072       2071  
      1940       1941       1952       1951       2061       2062       2073       2072  
      1941       1942       1953       1952       2062       2063       2074       2073  
      1942       1943       1954       1953       2063       2064       2075       2074  
      1943       1944       1955       1954       2064       2065       2076       2075  
      1944       1945       1956       1955       2065       2066       2077       2076  
      1945       1946       1957       1956       2066       2067       2078       2077  
      1946       1947       1958       1957       2067       2068       2079       2078  
      1948       1949       1960       1959       2069       2070       2081       2080  
      1949       1950       1961       1960       2070       2071       2082       2081  
      1950       1951       1962       1961       2071       2072       2083       2082  
      1951       1952       1963       1962       2072       2073       2084       2083  
      1952       1953       1964       1963       2073       2074       2085       2084  
      1953       1954       1965       1964       2074       2075       2086       2085  
      1954       1955       1966       1965       2075       2076       2087       2086  
      1955       1956       1967       1966       2076       2077       2088       2087  
      1956       1957       1968       1967       2077       2078       2089       2088  
      1957       1958       1969       1968       2078       2079       2090       2089  
      1959       1960       1971       1970       2080       2081       2092       2091  
      1960       1961       1972       1971       2081       2082       2093       2092  
      1961       1962       1973       1972       2082       2083       2094       2093  
      1962       1963       1974       1973       2083       2084       2095       2094  
      1963       1964       1975       1974       2084       2085       2096       2095  
      1964       1965       1976       1975       2085       2086       2097       2096  
      1965       1966       1977       1976       2086       2087       2098       2097  
      1966       1967       1978       1977       2087       2088       2099       2098  
      1967       1968       1979       1978       2088       2089       2100       2099  
      1968       1969       1980       1979       2089       2090       2101       2100  
      1970       1971       1982       1981       2091       2092       2103       2102  
      1971       1972       1983       1982       2092       2093       2104       2103  
      1972       1973       1984       1983       2093       2094       2105       2104  
      1973       1974       1985       1984       2094       2095       2106       2105  
      1974       1975       1986       1985       2095       2096       2107       2106  
      1975       1976       1987       1986       2096       2097       2108       2107  
      1976       1977       1988       1987       2097       2098       2109       2108  
      1977       1978       1989       1988       2098       2099       2110       2109  
      1978       1979       1990       1989       2099       2100       2111       2110  
      1979       1980       1991       1990       2100       2101       2112       2111  
      1981       1982       1993       1992       2102       2103       2114       2113  
      1982       1983       1994       1993       2103       2104       2115       2114  
      1983       1984       1995       1994       2104       2105       2116       2115  
      1984       1985       1996       1995       2105       2106       2117       2116  
      1985       1986       1997       1996       2106       2107       2118       2117  
      1986       1987       1998       1997       2107       2108       2119       2118  
      1987       1988       1999       1998       2108       2109       2120       2119  
      1988       1989       2000       1999       2109       2110       2121       2120  
      1989       1990       2001       2000       2110       2111       2122       2121  
      1990       1991       2002       2001       2111       2112       2123       2122  
      1992       1993       2004       2003       2113       2114       2125       2124  
      1993       1994       2005       2004       2114       2115       2126       2125  
      1994       1995       2006       2005       2115       2116       2127       2126  
      1995       1996       2007       2006       2116       2117       2128       2127  
      1996       1997       2008       2007       2117       2118       2129       2128  
      1997       1998       2009       2008       2118       2119       2130       2129  
      1998       1999       2010       2009       2119       2120       2131       2130  
      1999       2000       2011       2010       2120       2121       2132       2131  
      2000       2001       2012       2011       2121       2122       2133       2132  
      2001       2002       2013       2012       2122       2123       2134       2133  
      2003       2004       2015       2014       2124       2125       2136       2135  
      2004       2005       2016       2015       2125       2126       2137       2136  
      2005       2006       2017       2016       2126       2127       2138       2137  
      2006       2007       2018       2017       2127       2128       2139       2138  
      2007       2008       2019       2018       2128       2129       2140       2139  
      2008       2009       2020       2019       2129       2130       2141       2140  
      2009       2010       2021       2020       2130       2131       2142       2141  
      2010       2011       2022       2021       2131       2132       2143       2142  
      2011       2012       2023       2022       2132       2133       2144       2143  
      2012       2013       2024       2023       2133       2134       2145       2144  
      2014       2015       2026       2025       2135       2136       2147       2146  
      2015       2016       2027       2026       2136       2137       2148       2147  
      2016       2017       2028       2027       2137       2138       2149       2148  
      2017       2018       2029       2028       2138       2139       2150       2149  
      2018       2019       2030       2029       2139       2140       2151       2150  
      2019       2020       2031       2030       2140       2141       2152       2151  
      2020       2021       2032       2031       2141       2142       2153       2152  
      2021       2022       2033       2032       2142       2143       2154       2153  
      2022       2023       2034       2033       2143       2144       2155       2154  
      2023       2024       2035       2034       2144       2145       2156       2155  
      2025       2026       2037       2036       2146       2147       2158       2157  
      2026       2027       2038       2037       2147       2148       2159       2158  
      2027       2028       2039       2038       2148       2149       2160       2159  
      2028       2029       2040       2039       2149       2150       2161       2160  
      2029       2030       2041       2040       2150       2151       2162       2161  
      2030       2031       2042       2041       2151       2152       2163       2162  
      2031       2032       2043       2042       2152       2153       2164       2163  
      2032       2033       2044       2043       2153       2154       2165       2164  
      2033       2034       2045       2044       2154       2155       2166       2165  
      2034       2035       2046       2045       2155       2156       2167       2166  
      2036       2037       2048       2047       2157       2158       2169       2168  
      2037       2038       2049       2048       2158       2159       2170       2169  
      2038       2039       2050       2049       2159       2160       2171       2170  
      2039       2040       2051       2050       2160       2161       2172       2171  
      2040       2041       2052       2051       2161       2162       2173       2172  
      2041       2042       2053       2052       2162       2163       2174       2173  
      2042       2043       2054       2053       2163       2164       2175       2174  
      2043       2044       2055       2054       2164       2165       2176       2175  
      2044       2045       2056       2055       2165       2166       2177       2176  
      2045       2046       2057       2056       2166       2167       2178       2177  
      2058       2059       2070       2069       2179       2180       2191       2190  
      2059       2060       2071       2070       2180       2181       2192       2191  
      2060       2061       2072       2071       2181       2182       2193       2192  
      2061       2062       2073       2072       2182       2183       2194       2193  
      2062       2063       2074       2073       2183       2184       2195       2194  
      2063       2064       2075       2074       2184       2185       2196       2195  
      2064       2065       2076       2075       2185       2186       2197       2196  
      2065       2066       2077       2076       2186       2187       2198       2197  
      2066       2067       2078       2077       2187       2188       2199       2198  
      2067       2068       2079       2078       2188       2189       2200       2199  
      2069       2070       2081       2080       2190       2191       2202       2201  
      2070       2071       2082       2081       2191       2192       2203       2202  
      2071       2072       2083       2082       2192       2193       2204       2203  
      2072       2073       2084       2083       2193       2194       2205       2204  
      2073       2074       2085       2084       2194       2195       2206       2205  
      2074       2075       2086       2085       2195       2196       2207       2206  
      2075       2076       2087       2086       2196       2197       2208       2207  
      2076       2077       2088       2087       2197       2198       2209       2208  
      2077       2078       2089       2088       2198       2199       2210       2209  
      2078       2079       2090       2089       2199       2200       2211       2210  
      2080       2081       2092       2091       2201       2202       2213       2212  
      2081       2082       2093       2092       2202       2203       2214       2213  
      2082       2083       2094       2093       2203       2204       2215       2214  
      2083       2084       2095       2094       2204       2205       2216       2215  
      2084       2085       2096       2095       2205       2206       2217       2216  
      2085       2086       2097       2096       2206       2207       2218       2217  
      2086       2087       2098       2097       2207       2208       2219       2218  
      2087       2088       2099       2098       2208       2209       2220       2219  
      2088       2089       2100       2099       2209       2210       2221       2220  
      2089       2090       2101       2100       2210       2211       2222       2221  
      2091       2092       2103       2102       2212       2213       2224       2223  
      2092       2093       2104       2103       2213       2214       2225       2224  
      2093       2094       2105       2104       2214       2215       2226       2225  
      2094       2095       2106       2105       2215       2216       2227       2226  
      2095       2096       2107       2106       2216       2217       2228       2227  
      2096       2097       2108       2107       2217       2218       2229       2228  
      2097       2098       2109       2108       2218       2219       2230       2229  
      2098       2099       2110       2109       2219       2220       2231       2230  
      2099       2100       2111       2110       2220       2221       2232       2231  
      2100       2101       2112       2111       2221       2222       2233       2232  
      2102       2103       2114       2113       2223       2224       2235       2234  
      2103       2104       2115       2114       2224       2225       2236       2235  
      2104       2105       2116       2115       2225       2226       2237       2236  
      2105       2106       2117       2116       2226       2227       2238       2237  
      2106       2107       2118       2117       2227       2228       2239       2238  
      2107       2108       2119       2118       2228       2229       2240       2239  
      2108       2109       2120       2119       2229       2230       2241       2240  
      2109       2110       2121       2120       2230       2231       2242       2241  
      2110       2111       2122       2121       2231       2232       2243       2242  
      2111       2112       2123       2122       2232       2233       2244       2243  
      2113       2114       2125       2124       2234       2235       2246       2245  
      2114       2115       2126       2125       2235       2236       2247       2246  
      2115       2116       2127       2126       2236       2237       2248       2247  
      2116       2117       2128       2127       2237       2238       2249       2248  
      2117       2118       2129       2128       2238       2239       2250       2249  
      2118       2119       2130       2129       2239       2240       2251       2250  
      2119       2120       2131       2130       2240       2241       2252       2251  
      2120       2121       2132       2131       2241       2242       2253       2252  
      2121       2122       2133       2132       2242       2243       2254       2253  
      2122       2123       2134       2133       2243       2244       2255       2254  
      2124       2125       2136       2135       2245       2246       2257       2256  
      2125       2126       2137       2136       2246       2247       2258       2257  
      2126       2127       2138       2137       2247       2248       2259       2258  
      2127       2128       2139       2138       2248       2249       2260       2259  
      2128       2129       2140       2139       2249       2250       2261       2260  
      2129       2130       2141       2140       2250       2251       2262       2261  
      2130       2131       2142       2141       2251       2252       2263       2262  
      2131       2132       2143       2142       2252       2253       2264       2263  
      2132       2133       2144       2143       2253       2254       2265       2264  
      2133       2134       2145       2144       2254       2255       2266       2265  
      2135       2136       2147       2146       2256       2257       2268       2267  
      2136       2137       2148       2147       2257       2258       2269       2268  
      2137       2138       2149       2148       2258       2259       2270       2269  
      2138       2139       2150       2149       2259       2260       2271       2270  
      2139       2140       2151       2150       2260       2261       2272       2271  
      2140       2141       2152       2151       2261       2262       2273       2272  
      2141       2142       2153       2152       2262       2263       2274       2273  
      2142       2143       2154       2153       2263       2264       2275       2274  
      2143       2144       2155       2154       2264       2265       2276       2275  
      2144       2145       2156       2155       2265       2266       2277       2276  
      2146       2147       2158       2157       2267       2268       2279       2278  
      2147       2148       2159       2158       2268       2269       2280       2279  
      2148       2149       2160       2159       2269       2270       2281       2280  
      2149       2150       2161       2160       2270       2271       2282       2281  
      2150       2151       2162       2161       2271       2272       2283       2282  
      2151       2152       2163       2162       2272       2273       2284       2283  
      2152       2153       2164       2163       2273       2274       2285       2284  
      2153       2154       2165       2164       2274       2275       2286       2285  
      2154       2155       2166       2165       2275       2276       2287       2286  
      2155       2156       2167       2166       2276       2277       2288       2287  
      2157       2158       2169       2168       2278       2279       2290       2289  
      2158       2159       2170       2169       2279       2280       2291       2290  
      2159       2160       2171       2170       2280       2281       2292       2291  
      2160       2161       2172       2171       2281       2282       2293       2292  
      2161       2162       2173       2172       2282       2283       2294       2293  
      2162       2163       2174       2173       2283       2284       2295       2294  
      2163       2164       2175       2174       2284       2285       2296       2295  
      2164       2165       2176       2175       2285       2286       2297       2296  
      2165       2166       2177       2176       2286       2287       2298       2297  
      2166       2167       2178       2177       2287       2288       2299       2298  
      2179       2180       2191       2190       2300       2301       2312       2311  
      2180       2181       2192       2191       2301       2302       2313       2312  
      2181       2182       2193       2192       2302       2303       2314       2313  
      2182       2183       2194       2193       2303       2304       2315       2314  
      2183       2184       2195       2194       2304       2305       2316       2315  
      2184       2185       2196       2195       2305       2306       2317       2316  
      2185       2186       2197       2196       2306       2307       2318       2317  
      2186       2187       2198       2197       2307       2308       2319       2318  
      2187       2188       2199       2198       2308       2309       2320       2319  
      2188       2189       2200       2199       2309       2310       2321       2320  
      2190       2191       2202       2201       2311       2312       2323       2322  
      2191       2192       2203       2202       2312       2313       2324       2323  
      2192       2193       2204       2203       2313       2314       2325       2324  
      2193       2194       2205       2204       2314       2315       2326       2325  
      2194       2195       2206       2205       2315       2316       2327       2326  
      2195       2196       2207       2206       2316       2317       2328       2327  
      2196       2197       2208       2207       2317       2318       2329       2328  
      2197       2198       2209       2208       2318       2319       2330       2329  
      2198       2199       2210       2209       2319       2320       2331       2330  
      2199       2200       2211       2210       2320       2321       2332       2331  
      2201       2202       2213       2212       2322       2323       2334       2333  
      2202       2203       2214       2213       2323       2324       2335       2334  
      2203       2204       2215       2214       2324       2325       2336       2335  
      2204       2205       2216       2215       2325       2326       2337       2336  
      2205       2206       2217       2216       2326       2327       2338       2337  
      2206       2207       2218       2217       2327       2328       2339       2338  
      2207       2208       2219       2218       2328       2329       2340       2339  
      2208       2209       2220       2219       2329       2330       2341       2340  
      2209       2210       2221       2220       2330       2331       2342       2341  
      2210       2211       2222       2221       2331       2332       2343       2342  
      2212       2213       2224       2223       2333       2334       2345       2344  
      2213       2214       2225       2224       2334       2335       2346       2345  
      2214       2215       2226       2225       2335       2336       2347       2346  
      2215       2216       2227       2226       2336       2337       2348       2347  
      2216       2217       2228       2227       2337       2338       2349       2348  
      2217       2218       2229       2228       2338       2339       2350       2349  
      2218       2219       2230       2229       2339       2340       2351       2350  
      2219       2220       2231       2230       2340       2341       2352       2351  
      2220       2221       2232       2231       2341       2342       2353       2352  
      2221       2222       2233       2232       2342       2343       2354       2353  
      2223       2224       2235       2234       2344       2345       2356       2355  
      2224       2225       2236       2235       2345       2346       2357       2356  
      2225       2226       2237       2236       2346       2347       2358       2357  
      2226       2227       2238       2237       2347       2348       2359       2358  
      2227       2228       2239       2238       2348       2349       2360       2359  
      2228       2229       2240       2239       2349       2350       2361       2360  
      2229       2230       2241       2240       2350       2351       2362       2361  
      2230       2231       2242       2241       2351       2352       2363       2362  
      2231       2232       2243       2242       2352       2353       2364       2363  
      2232       2233       2244       2243       2353       2354       2365       2364  
      2234       2235       2246       2245       2355       2356       2367       2366  
      2235       2236       2247       2246       2356       2357       2368       2367  
      2236       2237       2248       2247       2357       2358       2369       2368  
      2237       2238       2249       2248       2358       2359       2370       2369  
      2238       2239       2250       2249       2359       2360       2371       2370  
      2239       2240       2251       2250       2360       2361       2372       2371  
      2240       2241       2252       2251       2361       2362       2373       2372  
      2241       2242       2253       2252       2362       2363       2374       2373  
      2242       2243       2254       2253       2363       2364       2375       2374  
      2243       2244       2255       2254       2364       2365       2376       2375  
      2245       2246       2257       2256       2366       2367       2378       2377  
      2246       2247       2258       2257       2367       2368       2379       2378  
      2247       2248       2259       2258       2368       2369       2380       2379  
      2248       2249       2260       2259       2369       2370       2381       2380  
      2249       2250       2261       2260       2370       2371       2382       2381  
      2250       2251       2262       2261       2371       2372       2383       2382  
      2251       2252       2263       2262       2372       2373       2384       2383  
      2252       2253       2264       2263       2373       2374       2385       2384  
      2253       2254       2265       2264       2374       2375       2386       2385  
      2254       2255       2266       2265       2375       2376       2387       2386  
      2256       2257       2268       2267       2377       2378       2389       2388  
      2257       2258       2269       2268       2378       2379       2390       2389  
      2258       2259       2270       2269       2379       2380       2391       2390  
      2259       2260       2271       2270       2380       2381       2392       2391  
      2260       2261       2272       2271       2381       2382       2393       2392  
      2261       2262       2273       2272       2382       2383       2394       2393  
      2262       2263       2274       2273       2383       2384       2395       2394  
      2263       2264       2275       2274       2384       2385       2396       2395  
      2264       2265       2276       2275       2385       2386       2397       2396  
      2265       2266       2277       2276       2386       2387       2398       2397  
      2267       2268       2279       2278       2388       2389       2400       2399  
      2268       2269       2280       2279       2389       2390       2401       2400  
      2269       2270       2281       2280       2390       2391       2402       2401  
      2270       2271       2282       2281       2391       2392       2403       2402  
      2271       2272       2283       2282       2392       2393       2404       2403  
      2272       2273       2284       2283       2393       2394       2405       2404  
      2273       2274       2285       2284       2394       2395       2406       2405  
      2274       2275       2286       2285       2395       2396       2407       2406  
      2275       2276       2287       2286       2396       2397       2408       2407  
      2276       2277       2288       2287       2397       2398       2409       2408  
      2278       2279       2290       2289       2399       2400       2411       2410  
      2279       2280       2291       2290       2400       2401       2412       2411  
      2280       2281       2292       2291       2401       2402       2413       2412  
      2281       2282       2293       2292       2402       2403       2414       2413  
      2282       2283       2294       2293       2403       2404       2415       2414  
      2283       2284       2295       2294       2404       2405       2416       2415  
      2284       2285       2296       2295       2405       2406       2417       2416  
      2285       2286       2297       2296       2406       2407       2418       2417  
      2286       2287       2298       2297       2407       2408       2419       2418  
      2287       2288       2299       2298       2408       2409       2420       2419  
      2300       2301       2312       2311       2421       2422       2433       2432  
      2301       2302       2313       2312       2422       2423       2434       2433  
      2302       2303       2314       2313       2423       2424       2435       2434  
      2303       2304       2315       2314       2424       2425       2436       2435  
      2304       2305       2316       2315       2425       2426       2437       2436  
      2305       2306       2317       2316       2426       2427       2438       2437  
      2306       2307       2318       2317       2427       2428       2439       2438  
      2307       2308       2319       2318       2428       2429       2440       2439  
      2308       2309       2320       2319       2429       2430       2441       2440  
      2309       2310       2321       2320       2430       2431       2442       2441  
      2311       2312       2323       2322       2432       2433       2444       2443  
      2312       2313       2324       2323       2433       2434       2445       2444  
      2313       2314       2325       2324       2434       2435       2446       2445  
      2314       2315       2326       2325       2435       2436       2447       2446  
      2315       2316       2327       2326       2436       2437       2448       2447  
      2316       2317       2328       2327       2437       2438       2449       2448  
      2317       2318       2329       2328       2438       2439       2450       2449  
      2318       2319       2330       2329       2439       2440       2451       2450  
      2319       2320       2331       2330       2440       2441       2452       2451  
      2320       2321       2332       2331       2441       2442       2453       2452  
      2322       2323       2334       2333       2443       2444       2455       2454  
      2323       2324       2335       2334       2444       2445       2456       2455  
      2324       2325       2336       2335       2445       2446       2457       2456  
      2325       2326       2337       2336       2446       2447       2458       2457  
      2326       2327       2338       2337       2447       2448       2459       2458  
      2327       2328       2339       2338       2448       2449       2460       2459  
      2328       2329       2340       2339       2449       2450       2461       2460  
      2329       2330       2341       2340       2450       2451       2462       2461  
      2330       2331       2342       2341       2451       2452       2463       2462  
      2331       2332       2343       2342       2452       2453       2464       2463  
      2333       2334       2345       2344       2454       2455       2466       2465  
      2334       2335       2346       2345       2455       2456       2467       2466  
      2335       2336       2347       2346       2456       2457       2468       2467  
      2336       2337       2348       2347       2457       2458       2469       2468  
      2337       2338       2349       2348       2458       2459       2470       2469  
      2338       2339       2350       2349       2459       2460       2471       2470  
      2339       2340       2351       2350       2460       2461       2472       2471  
      2340       2341       2352       2351       2461       2462       2473       2472  
      2341       2342       2353       2352       2462       2463       2474       2473  
      2342       2343       2354       2353       2463       2464       2475       2474  
      2344       2345       2356       2355       2465       2466       2477       2476  
      2345       2346       2357       2356       2466       2467       2478       2477  
      2346       2347       2358       2357       2467       2468       2479       2478  
      2347       2348       2359       2358       2468       2469       2480       2479  
      2348       2349       2360       2359       2469       2470       2481       2480  
      2349       2350       2361       2360       2470       2471       2482       2481  
      2350       2351       2362       2361       2471       2472       2483       2482  
      2351       2352       2363       2362       2472       2473       2484       2483  
      2352       2353       2364       2363       2473       2474       2485       2484  
      2353       2354       2365       2364       2474       2475       2486       2485  
      2355       2356       2367       2366       2476       2477       2488       2487  
      2356       2357       2368       2367       2477       2478       2489       2488  
      2357       2358       2369       2368       2478       2479       2490       2489  
      2358       2359       2370       2369       2479       2480       2491       2490  
      2359       2360       2371       2370       2480       2481       2492       2491  
      2360       2361       2372       2371       2481       2482       2493       2492  
      2361       2362       2373       2372       2482       2483       2494       2493  
      2362       2363       2374       2373       2483       2484       2495       2494  
      2363       2364       2375       2374       2484       2485       2496       2495  
      2364       2365       2376       2375       2485       2486       2497       2496  
      2366       2367       2378       2377       2487       2488       2499       2498  
      2367       2368       2379       2378       2488       2489       2500       2499  
      2368       2369       2380       2379       2489       2490       2501       2500  
      2369       2370       2381       2380       2490       2491       2502       2501  
      2370       2371       2382       2381       2491       2492       2503       2502  
      2371       2372       2383       2382       2492       2493       2504       2503  
      2372       2373       2384       2383       2493       2494       2505       2504  
      2373       2374       2385       2384       2494       2495       2506       2505  
      2374       2375       2386       2385       2495       2496       2507       2506  
      2375       2376       2387       2386       2496       2497       2508       2507  
      2377       2378       2389       2388       2498       2499       2510       2509  
      2378       2379       2390       2389       2499       2500       2511       2510  
      2379       2380       2391       2390       2500       2501       2512       2511  
      2380       2381       2392       2391       2501       2502       2513       2512  
      2381       2382       2393       2392       2502       2503       2514       2513  
      2382       2383       2394       2393       2503       2504       2515       2514  
      2383       2384       2395       2394       2504       2505       2516       2515  
      2384       2385       2396       2395       2505       2506       2517       2516  
      2385       2386       2397       2396       2506       2507       2518       2517  
      2386       2387       2398       2397       2507       2508       2519       2518  
      2388       2389       2400       2399       2509       2510       2521       2520  
      2389       2390       2401       2400       2510       2511       2522       2521  
      2390       2391       2402       2401       2511       2512       2523       2522  
      2391       2392       2403       2402       2512       2513       2524       2523  
      2392       2393       2404       2403       2513       2514       2525       2524  
      2393       2394       2405       2404       2514       2515       2526       2525  
      2394       2395       2406       2405       2515       2516       2527       2526  
      2395       2396       2407       2406       2516       2517       2528       2527  
      2396       2397       2408       2407       2517       2518       2529       2528  
      2397       2398       2409       2408       2518       2519       2530       2529  
      2399       2400       2411       2410       2520       2521       2532       2531  
      2400       2401       2412       2411       2521       2522       2533       2532  
      2401       2402       2413       2412       2522       2523       2534       2533  
      2402       2403       2414       2413       2523       2524       2535       2534  
      2403       2404       2415       2414       2524       2525       2536       2535  
      2404       2405       2416       2415       2525       2526       2537       2536  
      2405       2406       2417       2416       2526       2527       2538       2537  
      2406       2407       2418       2417       2527       2528       2539       2538  
      2407       2408       2419       2418       2528       2529       2540       2539  
      2408       2409       2420       2419       2529       2530       2541       2540  
      2421       2422       2433       2432       2542       2543       2554       2553  
      2422       2423       2434       2433       2543       2544       2555       2554  
      2423       2424       2435       2434       2544       2545       2556       2555  
      2424       2425       2436       2435       2545       2546       2557       2556  
      2425       2426       2437       2436       2546       2547       2558       2557  
      2426       2427       2438       2437       2547       2548       2559       2558  
      2427       2428       2439       2438       2548       2549       2560       2559  
      2428       2429       2440       2439       2549       2550       2561       2560  
      2429       2430       2441       2440       2550       2551       2562       2561  
      2430       2431       2442       2441       2551       2552       2563       2562  
      2432       2433       2444       2443       2553       2554       2565       2564  
      2433       2434       2445       2444       2554       2555       2566       2565  
      2434       2435       2446       2445       2555       2556       2567       2566  
      2435       2436       2447       2446       2556       2557       2568       2567  
      2436       2437       2448       2447       2557       2558       2569       2568  
      2437       2438       2449       2448       2558       2559       2570       2569  
      2438       2439       2450       2449       2559       2560       2571       2570  
      2439       2440       2451       2450       2560       2561       2572       2571  
      2440       2441       2452       2451       2561       2562       2573       2572  
      2441       2442       2453       2452       2562       2563       2574       2573  
      2443       2444       2455       2454       2564       2565       2576       2575  
      2444       2445       2456       2455       2565       2566       2577       2576  
      2445       2446       2457       2456       2566       2567       2578       2577  
      2446       2447       2458       2457       2567       2568       2579       2578  
      2447       2448       2459       2458       2568       2569       2580       2579  
      2448       2449       2460       2459       2569       2570       2581       2580  
      2449       2450       2461       2460       2570       2571       2582       2581  
      2450       2451       2462       2461       2571       2572       2583       2582  
      2451       2452       2463       2462       2572       2573       2584       2583  
      2452       2453       2464       2463       2573       2574       2585       2584  
      2454       2455       2466       2465       2575       2576       2587       2586  
      2455       2456       2467       2466       2576       2577       2588       2587  
      2456       2457       2468       2467       2577       2578       2589       2588  
      2457       2458       2469       2468       2578       2579       2590       2589  
      2458       2459       2470       2469       2579       2580       2591       2590  
      2459       2460       2471       2470       2580       2581       2592       2591  
      2460       2461       2472       2471       2581       2582       2593       2592  
      2461       2462       2473       2472       2582       2583       2594       2593  
      2462       2463       2474       2473       2583       2584       2595       2594  
      2463       2464       2475       2474       2584       2585       2596       2595  
      2465       2466       2477       2476       2586       2587       2598       2597  
      2466       2467       2478       2477       2587       2588       2599       2598  
      2467       2468       2479       2478       2588       2589       2600       2599  
      2468       2469       2480       2479       2589       2590       2601       2600  
      2469       2470       2481       2480       2590       2591       2602       2601  
      2470       2471       2482       2481       2591       2592       2603       2602  
      2471       2472       2483       2482       2592       2593       2604       2603  
      2472       2473       2484       2483       2593       2594       2605       2604  
      2473       2474       2485       2484       2594       2595       2606       2605  
      2474       2475       2486       2485       2595       2596       2607       2606  
      2476       2477       2488       2487       2597       2598       2609       2608  
      2477       2478       2489       2488       2598       2599       2610       2609  
      2478       2479       2490       2489       2599       2600       2611       2610  
      2479       2480       2491       2490       2600       2601       2612       2611  
      2480       2481       2492       2491       2601       2602       2613       2612  
      2481       2482       2493       2492       2602       2603       2614       2613  
      2482       2483       2494       2493       2603       2604       2615       2614  
      2483       2484       2495       2494       2604       2605       2616       2615  
      2484       2485       2496       2495       2605       2606       2617       2616  
      2485       2486       2497       2496       2606       2607       2618       2617  
      2487       2488       2499       2498       2608       2609       2620       2619  
      2488       2489       2500       2499       2609       2610       2621       2620  
      2489       2490       2501       2500       2610       2611       2622       2621  
      2490       2491       2502       2501       2611       2612       2623       2622  
      2491       2492       2503       2502       2612       2613       2624       2623  
      2492       2493       2504       2503       2613       2614       2625       2624  
      2493       2494       2505       2504       2614       2615       2626       2625  
      2494       2495       2506       2505       2615       2616       2627       2626  
      2495       2496       2507       2506       2616       2617       2628       2627  
      2496       2497       2508       2507       2617       2618       2629       2628  
      2498       2499       2510       2509       2619       2620       2631       2630  
      2499       2500       2511       2510       2620       2621       2632       2631  
      2500       2501       2512       2511       2621       2622       2633       2632  
      2501       2502       2513       2512       2622       2623       2634       2633  
      2502       2503       2514       2513       2623       2624       2635       2634  
      2503       2504       2515       2514       2624       2625       2636       2635  
      2504       2505       2516       2515       2625       2626       2637       2636  
      2505       2506       2517       2516       2626       2627       2638       2637  
      2506       2507       2518       2517       2627       2628       2639       2638  
      2507       2508       2519       2518       2628       2629       2640       2639  
      2509       2510       2521       2520       2630       2631       2642       2641  
      2510       2511       2522       2521       2631       2632       2643       2642  
      2511       2512       2523       2522       2632       2633       2644       2643  
      2512       2513       2524       2523       2633       2634       2645       2644  
      2513       2514       2525       2524       2634       2635       2646       2645  
      2514       2515       2526       2525       2635       2636       2647       2646  
      2515       2516       2527       2526       2636       2637       2648       2647  
      2516       2517       2528       2527       2637       2638       2649       2648  
      2517       2518       2529       2528       2638       2639       2650       2649  
      2518       2519       2530       2529       2639       2640       2651       2650  
      2520       2521       2532       2531       2641       2642       2653       2652  
      2521       2522       2533       2532       2642       2643       2654       2653  
      2522       2523       2534       2533       2643       2644       2655       2654  
      2523       2524       2535       2534       2644       2645       2656       2655  
      2524       2525       2536       2535       2645       2646       2657       2656  
      2525       2526       2537       2536       2646       2647       2658       2657  
      2526       2527       2538       2537       2647       2648       2659       2658  
      2527       2528       2539       2538       2648       2649       2660       2659  
      2528       2529       2540       2539       2649       2650       2661       2660  
      2529       2530       2541       2540       2650       2651       2662       2661  
      2542       2543       2554       2553       2663       2664       2675       2674  
      2543       2544       2555       2554       2664       2665       2676       2675  
      2544       2545       2556       2555       2665       2666       2677       2676  
      2545       2546       2557       2556       2666       2667       2678       2677  
      2546       2547       2558       2557       2667       2668       2679       2678  
      2547       2548       2559       2558       2668       2669       2680       2679  
      2548       2549       2560       2559       2669       2670       2681       2680  
      2549       2550       2561       2560       2670       2671       2682       2681  
      2550       2551       2562       2561       2671       2672       2683       2682  
      2551       2552       2563       2562       2672       2673       2684       2683  
      2553       2554       2565       2564       2674       2675       2686       2685  
      2554       2555       2566       2565       2675       2676       2687       2686  
      2555       2556       2567       2566       2676       2677       2688       2687  
      2556       2557       2568       2567       2677       2678       2689       2688  
      2557       2558       2569       2568       2678       2679       2690       2689  
      2558       2559       2570       2569       2679       2680       2691       2690  
      2559       2560       2571       2570       2680       2681       2692       2691  
      2560       2561       2572       2571       2681       2682       2693       2692  
      2561       2562       2573       2572       2682       2683       2694       2693  
      2562       2563       2574       2573       2683       2684       2695       2694  
      2564       2565       2576       2575       2685       2686       2697       2696  
      2565       2566       2577       2576       2686       2687       2698       2697  
      2566       2567       2578       2577       2687       2688       2699       2698  
      2567       2568       2579       2578       2688       2689       2700       2699  
      2568       2569       2580       2579       2689       2690       2701       2700  
      2569       2570       2581       2580       2690       2691       2702       2701  
      2570       2571       2582       2581       2691       2692       2703       2702  
      2571       2572       2583       2582       2692       2693       2704       2703  
      2572       2573       2584       2583       2693       2694       2705       2704  
      2573       2574       2585       2584       2694       2695       2706       2705  
      2575       2576       2587       2586       2696       2697       2708       2707  
      2576       2577       2588       2587       2697       2698       2709       2708  
      2577       2578       2589       2588       2698       2699       2710       2709  
      2578       2579       2590       2589       2699       2700       2711       2710  
      2579       2580       2591       2590       2700       2701       2712       2711  
      2580       2581       2592       2591       2701       2702       2713       2712  
      2581       2582       2593       2592       2702       2703       2714       2713  
      2582       2583       2594       2593       2703       2704       2715       2714  
      2583       2584       2595       2594       2704       2705       2716       2715  
      2584       2585       2596       2595       2705       2706       2717       2716  
      2586       2587       2598       2597       2707       2708       2719       2718  
      2587       2588       2599       2598       2708       2709       2720       2719  
      2588       2589       2600       2599       2709       2710       2721       2720  
      2589       2590       2601       2600       2710       2711       2722       2721  
      2590       2591       2602       2601       2711       2712       2723       2722  
      2591       2592       2603       2602       2712       2713       2724       2723  
      2592       2593       2604       2603       2713       2714       2725       2724  
      2593       2594       2605       2604       2714       2715       2726       2725  
      2594       2595       2606       2605       2715       2716       2727       2726  
      2595       2596       2607       2606       2716       2717       2728       2727  
      2597       2598       2609       2608       2718       2719       2730       2729  
      2598       2599       2610       2609       2719       2720       2731       2730  
      2599       2600       2611       2610       2720       2721       2732       2731  
      2600       2601       2612       2611       2721       2722       2733       2732  
      2601       2602       2613       2612       2722       2723       2734       2733  
      2602       2603       2614       2613       2723       2724       2735       2734  
      2603       2604       2615       2614       2724       2725       2736       2735  
      2604       2605       2616       2615       2725       2726       2737       2736  
      2605       2606       2617       2616       2726       2727       2738       2737  
      2606       2607       2618       2617       2727       2728       2739       2738  
      2608       2609       2620       2619       2729       2730       2741       2740  
      2609       2610       2621       2620       2730       2731       2742       2741  
      2610       2611       2622       2621       2731       2732       2743       2742  
      2611       2612       2623       2622       2732       2733       2744       2743  
      2612       2613       2624       2623       2733       2734       2745       2744  
      2613       2614       2625       2624       2734       2735       2746       2745  
      2614       2615       2626       2625       2735       2736       2747       2746  
      2615       2616       2627       2626       2736       2737       2748       2747  
      2616       2617       2628       2627       2737       2738       2749       2748  
      2617       2618       2629       2628       2738       2739       2750       2749  
      2619       2620       2631       2630       2740       2741       2752       2751  
      2620       2621       2632       2631       2741       2742       2753       2752  
      2621       2622       2633       2632       2742       2743       2754       2753  
      2622       2623       2634       2633       2743       2744       2755       2754  
      2623       2624       2635       2634       2744       2745       2756       2755  
      2624       2625       2636       2635       2745       2746       2757       2756  
      2625       2626       2637       2636       2746       2747       2758       2757  
      2626       2627       2638       2637       2747       2748       2759       2758  
      2627       2628       2639       2638       2748       2749       2760       2759  
      2628       2629       2640       2639       2749       2750       2761       2760  
      2630       2631       2642       2641       2751       2752       2763       2762  
      2631       2632       2643       2642       2752       2753       2764       2763  
      2632       2633       2644       2643       2753       2754       2765       2764  
      2633       2634       2645       2644       2754       2755       2766       2765  
      2634       2635       2646       2645       2755       2756       2767       2766  
      2635       2636       2647       2646       2756       2757       2768       2767  
      2636       2637       2648       2647       2757       2758       2769       2768  
      2637       2638       2649       2648       2758       2759       2770       2769  
      2638       2639       2650       2649       2759       2760       2771       2770  
      2639       2640       2651       2650       2760       2761       2772       2771  
      2641       2642       2653       2652       2762       2763       2774       2773  
      2642       2643       2654       2653       2763       2764       2775       2774  
      2643       2644       2655       2654       2764       2765       2776       2775  
      2644       2645       2656       2655       2765       2766       2777       2776  
      2645       2646       2657       2656       2766       2767       2778       2777  
      2646       2647       2658       2657       2767       2768       2779       2778  
      2647       2648       2659       2658       2768       2769       2780       2779  
      2648       2649       2660       2659       2769       2770       2781       2780  
      2649       2650       2661       2660       2770       2771       2782       2781  
      2650       2651       2662       2661       2771       2772       2783       2782  
      2663       2664       2675       2674       2784       2785       2796       2795  
      2664       2665       2676       2675       2785       2786       2797       2796  
      2665       2666       2677       2676       2786       2787       2798       2797  
      2666       2667       2678       2677       2787       2788       2799       2798  
      2667       2668       2679       2678       2788       2789       2800       2799  
      2668       2669       2680       2679       2789       2790       2801       2800  
      2669       2670       2681       2680       2790       2791       2802       2801  
      2670       2671       2682       2681       2791       2792       2803       2802  
      2671       2672       2683       2682       2792       2793       2804       2803  
      2672       2673       2684       2683       2793       2794       2805       2804  
      2674       2675       2686       2685       2795       2796       2807       2806  
      2675       2676       2687       2686       2796       2797       2808       2807  
      2676       2677       2688       2687       2797       2798       2809       2808  
      2677       2678       2689       2688       2798       2799       2810       2809  
      2678       2679       2690       2689       2799       2800       2811       2810  
      2679       2680       2691       2690       2800       2801       2812       2811  
      2680       2681       2692       2691       2801       2802       2813       2812  
      2681       2682       2693       2692       2802       2803       2814       2813  
      2682       2683       2694       2693       2803       2804       2815       2814  
      2683       2684       2695       2694       2804       2805       2816       2815  
      2685       2686       2697       2696       2806       2807       2818       2817  
      2686       2687       2698       2697       2807       2808       2819       2818  
      2687       2688       2699       2698       2808       2809       2820       2819  
      2688       2689       2700       2699       2809       2810       2821       2820  
      2689       2690       2701       2700       2810       2811       2822       2821  
      2690       2691       2702       2701       2811       2812       2823       2822  
      2691       2692       2703       2702       2812       2813       2824       2823  
      2692       2693       2704       2703       2813       2814       2825       2824  
      2693       2694       2705       2704       2814       2815       2826       2825  
      2694       2695       2706       2705       2815       2816       2827       2826  
      2696       2697       2708       2707       2817       2818       2829       2828  
      2697       2698       2709       2708       2818       2819       2830       2829  
      2698       2699       2710       2709       2819       2820       2831       2830  
      2699       2700       2711       2710       2820       2821       2832       2831  
      2700       2701       2712       2711       2821       2822       2833       2832  
      2701       2702       2713       2712       2822       2823       2834       2833  
      2702       2703       2714       2713       2823       2824       2835       2834  
      2703       2704       2715       2714       2824       2825       2836       2835  
      2704       2705       2716       2715       2825       2826       2837       2836  
      2705       2706       2717       2716       2826       2827       2838       2837  
      2707       2708       2719       2718       2828       2829       2840       2839  
      2708       2709       2720       2719       2829       2830       2841       2840  
      2709       2710       2721       2720       2830       2831       2842       2841  
      2710       2711       2722       2721       2831       2832       2843       2842  
      2711       2712       2723       2722       2832       2833       2844       2843  
      2712       2713       2724       2723       2833       2834       2845       2844  
      2713       2714       2725       2724       2834       2835       2846       2845  
      2714       2715       2726       2725       2835       2836       2847       2846  
      2715       2716       2727       2726       2836       2837       2848       2847  
      2716       2717       2728       2727       2837       2838       2849       2848  
      2718       2719       2730       2729       2839       2840       2851       2850  
      2719       2720       2731       2730       2840       2841       2852       2851  
      2720       2721       2732       2731       2841       2842       2853       2852  
      2721       2722       2733       2732       2842       2843       2854       2853  
      2722       2723       2734       2733       2843       2844       2855       2854  
      2723       2724       2735       2734       2844       2845       2856       2855  
      2724       2725       2736       2735       2845       2846       2857       2856  
      2725       2726       2737       2736       2846       2847       2858       2857  
      2726       2727       2738       2737       2847       2848       2859       2858  
      2727       2728       2739       2738       2848       2849       2860       2859  
      2729       2730       2741       2740       2850       2851       2862       2861  
      2730       2731       2742       2741       2851       2852       2863       2862  
      2731       2732       2743       2742       2852       2853       2864       2863  
      2732       2733       2744       2743       2853       2854       2865       2864  
      2733       2734       2745       2744       2854       2855       2866       2865  
      2734       2735       2746       2745       2855       2856       2867       2866  
      2735       2736       2747       2746       2856       2857       2868       2867  
      2736       2737       2748       2747       2857       2858       2869       2868  
      2737       2738       2749       2748       2858       2859       2870       2869  
      2738       2739       2750       2749       2859       2860       2871       2870  
      2740       2741       2752       2751       2861       2862       2873       2872  
      2741       2742       2753       2752       2862       2863       2874       2873  
      2742       2743       2754       2753       2863       2864       2875       2874  
      2743       2744       2755       2754       2864       2865       2876       2875  
      2744       2745       2756       2755       2865       2866       2877       2876  
      2745       2746       2757       2756       2866       2867       2878       2877  
      2746       2747       2758       2757       2867       2868       2879       2878  
      2747       2748       2759       2758       2868       2869       2880       2879  
      2748       2749       2760       2759       2869       2870       2881       2880  
      2749       2750       2761       2760       2870       2871       2882       2881  
      2751       2752       2763       2762       2872       2873       2884       2883  
      2752       2753       2764       2763       2873       2874       2885       2884  
      2753       2754       2765       2764       2874       2875       2886       2885  
      2754       2755       2766       2765       2875       2876       2887       2886  
      2755       2756       2767       2766       2876       2877       2888       2887  
      2756       2757       2768       2767       2877       2878       2889       2888  
      2757       2758       2769       2768       2878       2879       2890       2889  
      2758       2759       2770       2769       2879       2880       2891       2890  
      2759       2760       2771       2770       2880       2881       2892       2891  
      2760       2761       2772       2771       2881       2882       2893       2892  
      2762       2763       2774       2773       2883       2884       2895       2894  
      2763       2764       2775       2774       2884       2885       2896       2895  
      2764       2765       2776       2775       2885       2886       2897       2896  
      2765       2766       2777       2776       2886       2887       2898       2897  
      2766       2767       2778       2777       2887       2888       2899       2898  
      2767       2768       2779       2778       2888       2889       2900       2899  
      2768       2769       2780       2779       2889       2890       2901       2900  
      2769       2770       2781       2780       2890       2891       2902       2901  
      2770       2771       2782       2781       2891       2892       2903       2902  
      2771       2772       2783       2782       2892       2893       2904       2903  
      2784       2785       2796       2795       2905       2906       2917       2916  
      2785       2786       2797       2796       2906       2907       2918       2917  
      2786       2787       2798       2797       2907       2908       2919       2918  
      2787       2788       2799       2798       2908       2909       2920       2919  
      2788       2789       2800       2799       2909       2910       2921       2920  
      2789       2790       2801       2800       2910       2911       2922       2921  
      2790       2791       2802       2801       2911       2912       2923       2922  
      2791       2792       2803       2802       2912       2913       2924       2923  
      2792       2793       2804       2803       2913       2914       2925       2924  
      2793       2794       2805       2804       2914       2915       2926       2925  
      2795       2796       2807       2806       2916       2917       2928       2927  
      2796       2797       2808       2807       2917       2918       2929       2928  
      2797       2798       2809       2808       2918       2919       2930       2929  
      2798       2799       2810       2809       2919       2920       2931       2930  
      2799       2800       2811       2810       2920       2921       2932       2931  
      2800       2801       2812       2811       2921       2922       2933       2932  
      2801       2802       2813       2812       2922       2923       2934       2933  
      2802       2803       2814       2813       2923       2924       2935       2934  
      2803       2804       2815       2814       2924       2925       2936       2935  
      2804       2805       2816       2815       2925       2926       2937       2936  
      2806       2807       2818       2817       2927       2928       2939       2938  
      2807       2808       2819       2818       2928       2929       2940       2939  
      2808       2809       2820       2819       2929       2930       2941       2940  
      2809       2810       2821       2820       2930       2931       2942       2941  
      2810       2811       2822       2821       2931       2932       2943       2942  
      2811       2812       2823       2822       2932       2933       2944       2943  
      2812       2813       2824       2823       2933       2934       2945       2944  
      2813       2814       2825       2824       2934       2935       2946       2945  
      2814       2815       2826       2825       2935       2936       2947       2946  
      2815       2816       2827       2826       2936       2937       2948       2947  
      2817       2818       2829       2828       2938       2939       2950       2949  
      2818       2819       2830       2829       2939       2940       2951       2950  
      2819       2820       2831       2830       2940       2941       2952       2951  
      2820       2821       2832       2831       2941       2942       2953       2952  
      2821       2822       2833       2832       2942       2943       2954       2953  
      2822       2823       2834       2833       2943       2944       2955       2954  
      2823       2824       2835       2834       2944       2945       2956       2955  
      2824       2825       2836       2835       2945       2946       2957       2956  
      2825       2826       2837       2836       2946       2947       2958       2957  
      2826       2827       2838       2837       2947       2948       2959       2958  
      2828       2829       2840       2839       2949       2950       2961       2960  
      2829       2830       2841       2840       2950       2951       2962       2961  
      2830       2831       2842       2841       2951       2952       2963       2962  
      2831       2832       2843       2842       2952       2953       2964       2963  
      2832       2833       2844       2843       2953       2954       2965       2964  
      2833       2834       2845       2844       2954       2955       2966       2965  
      2834       2835       2846       2845       2955       2956       2967       2966  
      2835       2836       2847       2846       2956       2957       2968       2967  
      2836       2837       2848       2847       2957       2958       2969       2968  
      2837       2838       2849       2848       2958       2959       2970       2969  
      2839       2840       2851       2850       2960       2961       2972       2971  
      2840       2841       2852       2851       2961       2962       2973       2972  
      2841       2842       2853       2852       2962       2963       2974       2973  
      2842       2843       2854       2853       2963       2964       2975       2974  
      2843       2844       2855       2854       2964       2965       2976       2975  
      2844       2845       2856       2855       2965       2966       2977       2976  
      2845       2846       2857       2856       2966       2967       2978       2977  
      2846       2847       2858       2857       2967       2968       2979       2978  
      2847       2848       2859       2858       2968       2969       2980       2979  
      2848       2849       2860       2859       2969       2970       2981       2980  
      2850       2851       2862       2861       2971       2972       2983       2982  
      2851       2852       2863       2862       2972       2973       2984       2983  
      2852       2853       2864       2863       2973       2974       2985       2984  
      2853       2854       2865       2864       2974       2975       2986       2985  
      2854       2855       2866       2865       2975       2976       2987       2986  
      2855       2856       2867       2866       2976       2977       2988       2987  
      2856       2857       2868       2867       2977       2978       2989       2988  
      2857       2858       2869       2868       2978       2979       2990       2989  
      2858       2859       2870       2869       2979       2980       2991       2990  
      2859       2860       2871       2870       2980       2981       2992       2991  
      2861       2862       2873       2872       2982       2983       2994       2993  
      2862       2863       2874       2873       2983       2984       2995       2994  
      2863       2864       2875       2874       2984       2985       2996       2995  
      2864       2865       2876       2875       2985       2986       2997       2996  
      2865       2866       2877       2876       2986       2987       2998       2997  
      2866       2867       2878       2877       2987       2988       2999       2998  
      2867       2868       2879       2878       2988       2989       3000       2999  
      2868       2869       2880       2879       2989       2990       3001       3000  
      2869       2870       2881       2880       2990       2991       3002       3001  
      2870       2871       2882       2881       2991       2992       3003       3002  
      2872       2873       2884       2883       2993       2994       3005       3004  
      2873       2874       2885       2884       2994       2995       3006       3005  
      2874       2875       2886       2885       2995       2996       3007       3006  
      2875       2876       2887       2886       2996       2997       3008       3007  
      2876       2877       2888       2887       2997       2998       3009       3008  
      2877       2878       2889       2888       2998       2999       3010       3009  
      2878       2879       2890       2889       2999       3000       3011       3010  
      2879       2880       2891       2890       3000       3001       3012       3011  
      2880       2881       2892       2891       3001       3002       3013       3012  
      2881       2882       2893       2892       3002       3003       3014       3013  
      2883       2884       2895       2894       3004       3005       3016       3015  
      2884       2885       2896       2895       3005       3006       3017       3016  
      2885       2886       2897       2896       3006       3007       3018       3017  
      2886       2887       2898       2897       3007       3008       3019       3018  
      2887       2888       2899       2898       3008       3009       3020       3019  
      2888       2889       2900       2899       3009       3010       3021       3020  
      2889       2890       2901       2900       3010       3011       3022       3021  
      2890       2891       2902       2901       3011       3012       3023       3022  
      2891       2892       2903       2902       3012       3013       3024       3023  
      2892       2893       2904       2903       3013       3014       3025       3024  
      2905       2906       2917       2916       3026       3027       3038       3037  
      2906       2907       2918       2917       3027       3028       3039       3038  
      2907       2908       2919       2918       3028       3029       3040       3039  
      2908       2909       2920       2919       3029       3030       3041       3040  
      2909       2910       2921       2920       3030       3031       3042       3041  
      2910       2911       2922       2921       3031       3032       3043       3042  
      2911       2912       2923       2922       3032       3033       3044       3043  
      2912       2913       2924       2923       3033       3034       3045       3044  
      2913       2914       2925       2924       3034       3035       3046       3045  
      2914       2915       2926       2925       3035       3036       3047       3046  
      2916       2917       2928       2927       3037       3038       3049       3048  
      2917       2918       2929       2928       3038       3039       3050       3049  
      2918       2919       2930       2929       3039       3040       3051       3050  
      2919       2920       2931       2930       3040       3041       3052       3051  
      2920       2921       2932       2931       3041       3042       3053       3052  
      2921       2922       2933       2932       3042       3043       3054       3053  
      2922       2923       2934       2933       3043       3044       3055       3054  
      2923       2924       2935       2934       3044       3045       3056       3055  
      2924       2925       2936       2935       3045       3046       3057       3056  
      2925       2926       2937       2936       3046       3047       3058       3057  
      2927       2928       2939       2938       3048       3049       3060       3059  
      2928       2929       2940       2939       3049       3050       3061       3060  
      2929       2930       2941       2940       3050       3051       3062       3061  
      2930       2931       2942       2941       3051       3052       3063       3062  
      2931       2932       2943       2942       3052       3053       3064       3063  
      2932       2933       2944       2943       3053       3054       3065       3064  
      2933       2934       2945       2944       3054       3055       3066       3065  
      2934       2935       2946       2945       3055       3056       3067       3066  
      2935       2936       2947       2946       3056       3057       3068       3067  
      2936       2937       2948       2947       3057       3058       3069       3068  
      2938       2939       2950       2949       3059       3060       3071       3070  
      2939       2940       2951       2950       3060       3061       3072       3071  
      2940       2941       2952       2951       3061       3062       3073       3072  
      2941       2942       2953       2952       3062       3063       3074       3073  
      2942       2943       2954       2953       3063       3064       3075       3074  
      2943       2944       2955       2954       3064       3065       3076       3075  
      2944       2945       2956       2955       3065       3066       3077       3076  
      2945       2946       2957       2956       3066       3067       3078       3077  
      2946       2947       2958       2957       3067       3068       3079       3078  
      2947       2948       2959       2958       3068       3069       3080       3079  
      2949       2950       2961       2960       3070       3071       3082       3081  
      2950       2951       2962       2961       3071       3072       3083       3082  
      2951       2952       2963       2962       3072       3073       3084       3083  
      2952       2953       2964       2963       3073       3074       3085       3084  
      2953       2954       2965       2964       3074       3075       3086       3085  
      2954       2955       2966       2965       3075       3076       3087       3086  
      2955       2956       2967       2966       3076       3077       3088       3087  
      2956       2957       2968       2967       3077       3078       3089       3088  
      2957       2958       2969       2968       3078       3079       3090       3089  
      2958       2959       2970       2969       3079       3080       3091       3090  
      2960       2961       2972       2971       3081       3082       3093       3092  
      2961       2962       2973       2972       3082       3083       3094       3093  
      2962       2963       2974       2973       3083       3084       3095       3094  
      2963       2964       2975       2974       3084       3085       3096       3095  
      2964       2965       2976       2975       3085       3086       3097       3096  
      2965       2966       2977       2976       3086       3087       3098       3097  
      2966       2967       2978       2977       3087       3088       3099       3098  
      2967       2968       2979       2978       3088       3089       3100       3099  
      2968       2969       2980       2979       3089       3090       3101       3100  
      2969       2970       2981       2980       3090       3091       3102       3101  
      2971       2972       2983       2982       3092       3093       3104       3103  
      2972       2973       2984       2983       3093       3094       3105       3104  
      2973       2974       2985       2984       3094       3095       3106       3105  
      2974       2975       2986       2985       3095       3096       3107       3106  
      2975       2976       2987       2986       3096       3097       3108       3107  
      2976       2977       2988       2987       3097       3098       3109       3108  
      2977       2978       2989       2988       3098       3099       3110       3109  
      2978       2979       2990       2989       3099       3100       3111       3110  
      2979       2980       2991       2990       3100       3101       3112       3111  
      2980       2981       2992       2991       3101       3102       3113       3112  
      2982       2983       2994       2993       3103       3104       3115       3114  
      2983       2984       2995       2994       3104       3105       3116       3115  
      2984       2985       2996       2995       3105       3106       3117       3116  
      2985       2986       2997       2996       3106       3107       3118       3117  
      2986       2987       2998       2997       3107       3108       3119       3118  
      2987       2988       2999       2998       3108       3109       3120       3119  
      2988       2989       3000       2999       3109       3110       3121       3120  
      2989       2990       3001       3000       3110       3111       3122       3121  
      2990       2991       3002       3001       3111       3112       3123       3122  
      2991       2992       3003       3002       3112       3113       3124       3123  
      2993       2994       3005       3004       3114       3115       3126       3125  
      2994       2995       3006       3005       3115       3116       3127       3126  
      2995       2996       3007       3006       3116       3117       3128       3127  
      2996       2997       3008       3007       3117       3118       3129       3128  
      2997       2998       3009       3008       3118       3119       3130       3129  
      2998       2999       3010       3009       3119       3120       3131       3130  
      2999       3000       3011       3010       3120       3121       3132       3131  
      3000       3001       3012       3011       3121       3122       3133       3132  
      3001       3002       3013       3012       3122       3123       3134       3133  
      3002       3003       3014       3013       3123       3124       3135       3134  
      3004       3005       3016       3015       3125       3126       3137       3136  
      3005       3006       3017       3016       3126       3127       3138       3137  
      3006       3007       3018       3017       3127       3128       3139       3138  
      3007       3008       3019       3018       3128       3129       3140       3139  
      3008       3009       3020       3019       3129       3130       3141       3140  
      3009       3010       3021       3020       3130       3131       3142       3141  
      3010       3011       3022       3021       3131       3132       3143       3142  
      3011       3012       3023       3022       3132       3133       3144       3143  
      3012       3013       3024       3023       3133       3134       3145       3144  
      3013       3014       3025       3024       3134       3135       3146       3145  
      3026       3027       3038       3037       3147       3148       3159       3158  
      3027       3028       3039       3038       3148       3149       3160       3159  
      3028       3029       3040       3039       3149       3150       3161       3160  
      3029       3030       3041       3040       3150       3151       3162       3161  
      3030       3031       3042       3041       3151       3152       3163       3162  
      3031       3032       3043       3042       3152       3153       3164       3163  
      3032       3033       3044       3043       3153       3154       3165       3164  
      3033       3034       3045       3044       3154       3155       3166       3165  
      3034       3035       3046       3045       3155       3156       3167       3166  
      3035       3036       3047       3046       3156       3157       3168       3167  
      3037       3038       3049       3048       3158       3159       3170       3169  
      3038       3039       3050       3049       3159       3160       3171       3170  
      3039       3040       3051       3050       3160       3161       3172       3171  
      3040       3041       3052       3051       3161       3162       3173       3172  
      3041       3042       3053       3052       3162       3163       3174       3173  
      3042       3043       3054       3053       3163       3164       3175       3174  
      3043       3044       3055       3054       3164       3165       3176       3175  
      3044       3045       3056       3055       3165       3166       3177       3176  
      3045       3046       3057       3056       3166       3167       3178       3177  
      3046       3047       3058       3057       3167       3168       3179       3178  
      3048       3049       3060       3059       3169       3170       3181       3180  
      3049       3050       3061       3060       3170       3171       3182       3181  
      3050       3051       3062       3061       3171       3172       3183       3182  
      3051       3052       3063       3062       3172       3173       3184       3183  
      3052       3053       3064       3063       3173       3174       3185       3184  
      3053       3054       3065       3064       3174       3175       3186       3185  
      3054       3055       3066       3065       3175       3176       3187       3186  
      3055       3056       3067       3066       3176       3177       3188       3187  
      3056       3057       3068       3067       3177       3178       3189       3188  
      3057       3058       3069       3068       3178       3179       3190       3189  
      3059       3060       3071       3070       3180       3181       3192       3191  
      3060       3061       3072       3071       3181       3182       3193       3192  
      3061       3062       3073       3072       3182       3183       3194       3193  
      3062       3063       3074       3073       3183       3184       3195       3194  
      3063       3064       3075       3074       3184       3185       3196       3195  
      3064       3065       3076       3075       3185       3186       3197       3196  
      3065       3066       3077       3076       3186       3187       3198       3197  
      3066       3067       3078       3077       3187       3188       3199       3198  
      3067       3068       3079       3078       3188       3189       3200       3199  
      3068       3069       3080       3079       3189       3190       3201       3200  
      3070       3071       3082       3081       3191       3192       3203       3202  
      3071       3072       3083       3082       3192       3193       3204       3203  
      3072       3073       3084       3083       3193       3194       3205       3204  
      3073       3074       3085       3084       3194       3195       3206       3205  
      3074       3075       3086       3085       3195       3196       3207       3206  
      3075       3076       3087       3086       3196       3197       3208       3207  
      3076       3077       3088       3087       3197       3198       3209       3208  
      3077       3078       3089       3088       3198       3199       3210       3209  
      3078       3079       3090       3089       3199       3200       3211       3210  
      3079       3080       3091       3090       3200       3201       3212       3211  
      3081       3082       3093       3092       3202       3203       3214       3213  
      3082       3083       3094       3093       3203       3204       3215       3214  
      3083       3084       3095       3094       3204       3205       3216       3215  
      3084       3085       3096       3095       3205       3206       3217       3216  
      3085       3086       3097       3096       3206       3207       3218       3217  
      3086       3087       3098       3097       3207       3208       3219       3218  
      3087       3088       3099       3098       3208       3209       3220       3219  
      3088       3089       3100       3099       3209       3210       3221       3220  
      3089       3090       3101       3100       3210       3211       3222       3221  
      3090       3091       3102       3101       3211       3212       3223       3222  
      3092       3093       3104       3103       3213       3214       3225       3224  
      3093       3094       3105       3104       3214       3215       3226       3225  
      3094       3095       3106       3105       3215       3216       3227       3226  
      3095       3096       3107       3106       3216       3217       3228       3227  
      3096       3097       3108       3107       3217       3218       3229       3228  
      3097       3098       3109       3108       3218       3219       3230       3229  
      3098       3099       3110       3109       3219       3220       3231       3230  
      3099       3100       3111       3110       3220       3221       3232       3231  
      3100       3101       3112       3111       3221       3222       3233       3232  
      3101       3102       3113       3112       3222       3223       3234       3233  
      3103       3104       3115       3114       3224       3225       3236       3235  
      3104       3105       3116       3115       3225       3226       3237       3236  
      3105       3106       3117       3116       3226       3227       3238       3237  
      3106       3107       3118       3117       3227       3228       3239       3238  
      3107       3108       3119       3118       3228       3229       3240       3239  
      3108       3109       3120       3119       3229       3230       3241       3240  
      3109       3110       3121       3120       3230       3231       3242       3241  
      3110       3111       3122       3121       3231       3232       3243       3242  
      3111       3112       3123       3122       3232       3233       3244       3243  
      3112       3113       3124       3123       3233       3234       3245       3244  
      3114       3115       3126       3125       3235       3236       3247       3246  
      3115       3116       3127       3126       3236       3237       3248       3247  
      3116       3117       3128       3127       3237       3238       3249       3248  
      3117       3118       3129       3128       3238       3239       3250       3249  
      3118       3119       3130       3129       3239       3240       3251       3250  
      3119       3120       3131       3130       3240       3241       3252       3251  
      3120       3121       3132       3131       3241       3242       3253       3252  
      3121       3122       3133       3132       3242       3243       3254       3253  
      3122       3123       3134       3133       3243       3244       3255       3254  
      3123       3124       3135       3134       3244       3245       3256       3255  
      3125       3126       3137       3136       3246       3247       3258       3257  
      3126       3127       3138       3137       3247       3248       3259       3258  
      3127       3128       3139       3138       3248       3249       3260       3259  
      3128       3129       3140       3139       3249       3250       3261       3260  
      3129       3130       3141       3140       3250       3251       3262       3261  
      3130       3131       3142       3141       3251       3252       3263       3262  
      3131       3132       3143       3142       3252       3253       3264       3263  
      3132       3133       3144       3143       3253       3254       3265       3264  
      3133       3134       3145       3144       3254       3255       3266       3265  
      3134       3135       3146       3145       3255       3256       3267       3266  
      3147       3148       3159       3158       3268       3269       3280       3279  
      3148       3149       3160       3159       3269       3270       3281       3280  
      3149       3150       3161       3160       3270       3271       3282       3281  
      3150       3151       3162       3161       3271       3272       3283       3282  
      3151       3152       3163       3162       3272       3273       3284       3283  
      3152       3153       3164       3163       3273       3274       3285       3284  
      3153       3154       3165       3164       3274       3275       3286       3285  
      3154       3155       3166       3165       3275       3276       3287       3286  
      3155       3156       3167       3166       3276       3277       3288       3287  
      3156       3157       3168       3167       3277       3278       3289       3288  
      3158       3159       3170       3169       3279       3280       3291       3290  
      3159       3160       3171       3170       3280       3281       3292       3291  
      3160       3161       3172       3171       3281       3282       3293       3292  
      3161       3162       3173       3172       3282       3283       3294       3293  
      3162       3163       3174       3173       3283       3284       3295       3294  
      3163       3164       3175       3174       3284       3285       3296       3295  
      3164       3165       3176       3175       3285       3286       3297       3296  
      3165       3166       3177       3176       3286       3287       3298       3297  
      3166       3167       3178       3177       3287       3288       3299       3298  
      3167       3168       3179       3178       3288       3289       3300       3299  
      3169       3170       3181       3180       3290       3291       3302       3301  
      3170       3171       3182       3181       3291       3292       3303       3302  
      3171       3172       3183       3182       3292       3293       3304       3303  
      3172       3173       3184       3183       3293       3294       3305       3304  
      3173       3174       3185       3184       3294       3295       3306       3305  
      3174       3175       3186       3185       3295       3296       3307       3306  
      3175       3176       3187       3186       3296       3297       3308       3307  
      3176       3177       3188       3187       3297       3298       3309       3308  
      3177       3178       3189       3188       3298       3299       3310       3309  
      3178       3179       3190       3189       3299       3300       3311       3310  
      3180       3181       3192       3191       3301       3302       3313       3312  
      3181       3182       3193       3192       3302       3303       3314       3313  
      3182       3183       3194       3193       3303       3304       3315       3314  
      3183       3184       3195       3194       3304       3305       3316       3315  
      3184       3185       3196       3195       3305       3306       3317       3316  
      3185       3186       3197       3196       3306       3307       3318       3317  
      3186       3187       3198       3197       3307       3308       3319       3318  
      3187       3188       3199       3198       3308       3309       3320       3319  
      3188       3189       3200       3199       3309       3310       3321       3320  
      3189       3190       3201       3200       3310       3311       3322       3321  
      3191       3192       3203       3202       3312       3313       3324       3323  
      3192       3193       3204       3203       3313       3314       3325       3324  
      3193       3194       3205       3204       3314       3315       3326       3325  
      3194       3195       3206       3205       3315       3316       3327       3326  
      3195       3196       3207       3206       3316       3317       3328       3327  
      3196       3197       3208       3207       3317       3318       3329       3328  
      3197       3198       3209       3208       3318       3319       3330       3329  
      3198       3199       3210       3209       3319       3320       3331       3330  
      3199       3200       3211       3210       3320       3321       3332       3331  
      3200       3201       3212       3211       3321       3322       3333       3332  
      3202       3203       3214       3213       3323       3324       3335       3334  
      3203       3204       3215       3214       3324       3325       3336       3335  
      3204       3205       3216       3215       3325       3326       3337       3336  
      3205       3206       3217       3216       3326       3327       3338       3337  
      3206       3207       3218       3217       3327       3328       3339       3338  
      3207       3208       3219       3218       3328       3329       3340       3339  
      3208       3209       3220       3219       3329       3330       3341       3340  
      3209       3210       3221       3220       3330       3331       3342       3341  
      3210       3211       3222       3221       3331       3332       3343       3342  
      3211       3212       3223       3222       3332       3333       3344       3343  
      3213       3214       3225       3224       3334       3335       3346       3345  
      3214       3215       3226       3225       3335       3336       3347       3346  
      3215       3216       3227       3226       3336       3337       3348       3347  
      3216       3217       3228       3227       3337       3338       3349       3348  
      3217       3218       3229       3228       3338       3339       3350       3349  
      3218       3219       3230       3229       3339       3340       3351       3350  
      3219       3220       3231       3230       3340       3341       3352       3351  
      3220       3221       3232       3231       3341       3342       3353       3352  
      3221       3222       3233       3232       3342       3343       3354       3353  
      3222       3223       3234       3233       3343       3344       3355       3354  
      3224       3225       3236       3235       3345       3346       3357       3356  
      3225       3226       3237       3236       3346       3347       3358       3357  
      3226       3227       3238       3237       3347       3348       3359       3358  
      3227       3228       3239       3238       3348       3349       3360       3359  
      3228       3229       3240       3239       3349       3350       3361       3360  
      3229       3230       3241       3240       3350       3351       3362       3361  
      3230       3231       3242       3241       3351       3352       3363       3362  
      3231       3232       3243       3242       3352       3353       3364       3363  
      3232       3233       3244       3243       3353       3354       3365       3364  
      3233       3234       3245       3244       3354       3355       3366       3365  
      3235       3236       3247       3246       3356       3357       3368       3367  
      3236       3237       3248       3247       3357       3358       3369       3368  
      3237       3238       3249       3248       3358       3359       3370       3369  
      3238       3239       3250       3249       3359       3360       3371       3370  
      3239       3240       3251       3250       3360       3361       3372       3371  
      3240       3241       3252       3251       3361       3362       3373       3372  
      3241       3242       3253       3252       3362       3363       3374       3373  
      3242       3243       3254       3253       3363       3364       3375       3374  
      3243       3244       3255       3254       3364       3365       3376       3375  
      3244       3245       3256       3255       3365       3366       3377       3376  
      3246       3247       3258       3257       3367       3368       3379       3378  
      3247       3248       3259       3258       3368       3369       3380       3379  
      3248       3249       3260       3259       3369       3370       3381       3380  
      3249       3250       3261       3260       3370       3371       3382       3381  
      3250       3251       3262       3261       3371       3372       3383       3382  
      3251       3252       3263       3262       3372       3373       3384       3383  
      3252       3253       3264       3263       3373       3374       3385       3384  
      3253       3254       3265       3264       3374       3375       3386       3385  
      3254       3255       3266       3265       3375       3376       3387       3386  
      3255       3256       3267       3266       3376       3377       3388       3387  
      3268       3269       3280       3279       3389       3390       3401       3400  
      3269       3270       3281       3280       3390       3391       3402       3401  
      3270       3271       3282       3281       3391       3392       3403       3402  
      3271       3272       3283       3282       3392       3393       3404       3403  
      3272       3273       3284       3283       3393       3394       3405       3404  
      3273       3274       3285       3284       3394       3395       3406       3405  
      3274       3275       3286       3285       3395       3396       3407       3406  
      3275       3276       3287       3286       3396       3397       3408       3407  
      3276       3277       3288       3287       3397       3398       3409       3408  
      3277       3278       3289       3288       3398       3399       3410       3409  
      3279       3280       3291       3290       3400       3401       3412       3411  
      3280       3281       3292       3291       3401       3402       3413       3412  
      3281       3282       3293       3292       3402       3403       3414       3413  
      3282       3283       3294       3293       3403       3404       3415       3414  
      3283       3284       3295       3294       3404       3405       3416       3415  
      3284       3285       3296       3295       3405       3406       3417       3416  
      3285       3286       3297       3296       3406       3407       3418       3417  
      3286       3287       3298       3297       3407       3408       3419       3418  
      3287       3288       3299       3298       3408       3409       3420       3419  
      3288       3289       3300       3299       3409       3410       3421       3420  
      3290       3291       3302       3301       3411       3412       3423       3422  
      3291       3292       3303       3302       3412       3413       3424       3423  
      3292       3293       3304       3303       3413       3414       3425       3424  
      3293       3294       3305       3304       3414       3415       3426       3425  
      3294       3295       3306       3305       3415       3416       3427       3426  
      3295       3296       3307       3306       3416       3417       3428       3427  
      3296       3297       3308       3307       3417       3418       3429       3428  
      3297       3298       3309       3308       3418       3419       3430       3429  
      3298       3299       3310       3309       3419       3420       3431       3430  
      3299       3300       3311       3310       3420       3421       3432       3431  
      3301       3302       3313       3312       3422       3423       3434       3433  
      3302       3303       3314       3313       3423       3424       3435       3434  
      3303       3304       3315       3314       3424       3425       3436       3435  
      3304       3305       3316       3315       3425       3426       3437       3436  
      3305       3306       3317       3316       3426       3427       3438       3437  
      3306       3307       3318       3317       3427       3428       3439       3438  
      3307       3308       3319       3318       3428       3429       3440       3439  
      3308       3309       3320       3319       3429       3430       3441       3440  
      3309       3310       3321       3320       3430       3431       3442       3441  
      3310       3311       3322       3321       3431       3432       3443       3442  
      3312       3313       3324       3323       3433       3434       3445       3444  
      3313       3314       3325       3324       3434       3435       3446       3445  
      3314       3315       3326       3325       3435       3436       3447       3446  
      3315       3316       3327       3326       3436       3437       3448       3447  
      3316       3317       3328       3327       3437       3438       3449       3448  
      3317       3318       3329       3328       3438       3439       3450       3449  
      3318       3319       3330       3329       3439       3440       3451       3450  
      3319       3320       3331       3330       3440       3441       3452       3451  
      3320       3321       3332       3331       3441       3442       3453       3452  
      3321       3322       3333       3332       3442       3443       3454       3453  
      3323       3324       3335       3334       3444       3445       3456       3455  
      3324       3325       3336       3335       3445       3446       3457       3456  
      3325       3326       3337       3336       3446       3447       3458       3457  
      3326       3327       3338       3337       3447       3448       3459       3458  
      3327       3328       3339       3338       3448       3449       3460       3459  
      3328       3329       3340       3339       3449       3450       3461       3460  
      3329       3330       3341       3340       3450       3451       3462       3461  
      3330       3331       3342       3341       3451       3452       3463       3462  
      3331       3332       3343       3342       3452       3453       3464       3463  
      3332       3333       3344       3343       3453       3454       3465       3464  
      3334       3335       3346       3345       3455       3456       3467       3466  
      3335       3336       3347       3346       3456       3457       3468       3467  
      3336       3337       3348       3347       3457       3458       3469       3468  
      3337       3338       3349       3348       3458       3459       3470       3469  
      3338       3339       3350       3349       3459       3460       3471       3470  
      3339       3340       3351       3350       3460       3461       3472       3471  
      3340       3341       3352       3351       3461       3462       3473       3472  
      3341       3342       3353       3352       3462       3463       3474       3473  
      3342       3343       3354       3353       3463       3464       3475       3474  
      3343       3344       3355       3354       3464       3465       3476       3475  
      3345       3346       3357       3356       3466       3467       3478       3477  
      3346       3347       3358       3357       3467       3468       3479       3478  
      3347       3348       3359       3358       3468       3469       3480       3479  
      3348       3349       3360       3359       3469       3470       3481       3480  
      3349       3350       3361       3360       3470       3471       3482       3481  
      3350       3351       3362       3361       3471       3472       3483       3482  
      3351       3352       3363       3362       3472       3473       3484       3483  
      3352       3353       3364       3363       3473       3474       3485       3484  
      3353       3354       3365       3364       3474       3475       3486       3485  
      3354       3355       3366       3365       3475       3476       3487       3486  
      3356       3357       3368       3367       3477       3478       3489       3488  
      3357       3358       3369       3368       3478       3479       3490       3489  
      3358       3359       3370       3369       3479       3480       3491       3490  
      3359       3360       3371       3370       3480       3481       3492       3491  
      3360       3361       3372       3371       3481       3482       3493       3492  
      3361       3362       3373       3372       3482       3483       3494       3493  
      3362       3363       3374       3373       3483       3484       3495       3494  
      3363       3364       3375       3374       3484       3485       3496       3495  
      3364       3365       3376       3375       3485       3486       3497       3496  
      3365       3366       3377       3376       3486       3487       3498       3497  
      3367       3368       3379       3378       3488       3489       3500       3499  
      3368       3369       3380       3379       3489       3490       3501       3500  
      3369       3370       3381       3380       3490       3491       3502       3501  
      3370       3371       3382       3381       3491       3492       3503       3502  
      3371       3372       3383       3382       3492       3493       3504       3503  
      3372       3373       3384       3383       3493       3494       3505       3504  
      3373       3374       3385       3384       3494       3495       3506       3505  
      3374       3375       3386       3385       3495       3496       3507       3506  
      3375       3376       3387       3386       3496       3497       3508       3507  
      3376       3377       3388       3387       3497       3498       3509       3508  
      3389       3390       3401       3400       3510       3511       3522       3521  
      3390       3391       3402       3401       3511       3512       3523       3522  
      3391       3392       3403       3402       3512       3513       3524       3523  
      3392       3393       3404       3403       3513       3514       3525       3524  
      3393       3394       3405       3404       3514       3515       3526       3525  
      3394       3395       3406       3405       3515       3516       3527       3526  
      3395       3396       3407       3406       3516       3517       3528       3527  
      3396       3397       3408       3407       3517       3518       3529       3528  
      3397       3398       3409       3408       3518       3519       3530       3529  
      3398       3399       3410       3409       3519       3520       3531       3530  
      3400       3401       3412       3411       3521       3522       3533       3532  
      3401       3402       3413       3412       3522       3523       3534       3533  
      3402       3403       3414       3413       3523       3524       3535       3534  
      3403       3404       3415       3414       3524       3525       3536       3535  
      3404       3405       3416       3415       3525       3526       3537       3536  
      3405       3406       3417       3416       3526       3527       3538       3537  
      3406       3407       3418       3417       3527       3528       3539       3538  
      3407       3408       3419       3418       3528       3529       3540       3539  
      3408       3409       3420       3419       3529       3530       3541       3540  
      3409       3410       3421       3420       3530       3531       3542       3541  
      3411       3412       3423       3422       3532       3533       3544       3543  
      3412       3413       3424       3423       3533       3534       3545       3544  
      3413       3414       3425       3424       3534       3535       3546       3545  
      3414       3415       3426       3425       3535       3536       3547       3546  
      3415       3416       3427       3426       3536       3537       3548       3547  
      3416       3417       3428       3427       3537       3538       3549       3548  
      3417       3418       3429       3428       3538       3539       3550       3549  
      3418       3419       3430       3429       3539       3540       3551       3550  
      3419       3420       3431       3430       3540       3541       3552       3551  
      3420       3421       3432       3431       3541       3542       3553       3552  
      3422       3423       3434       3433       3543       3544       3555       3554  
      3423       3424       3435       3434       3544       3545       3556       3555  
      3424       3425       3436       3435       3545       3546       3557       3556  
      3425       3426       3437       3436       3546       3547       3558       3557  
      3426       3427       3438       3437       3547       3548       3559       3558  
      3427       3428       3439       3438       3548       3549       3560       3559  
      3428       3429       3440       3439       3549       3550       3561       3560  
      3429       3430       3441       3440       3550       3551       3562       3561  
      3430       3431       3442       3441       3551       3552       3563       3562  
      3431       3432       3443       3442       3552       3553       3564       3563  
      3433       3434       3445       3444       3554       3555       3566       3565  
      3434       3435       3446       3445       3555       3556       3567       3566  
      3435       3436       3447       3446       3556       3557       3568       3567  
      3436       3437       3448       3447       3557       3558       3569       3568  
      3437       3438       3449       3448       3558       3559       3570       3569  
      3438       3439       3450       3449       3559       3560       3571       3570  
      3439       3440       3451       3450       3560       3561       3572       3571  
      3440       3441       3452       3451       3561       3562       3573       3572  
      3441       3442       3453       3452       3562       3563       3574       3573  
      3442       3443       3454       3453       3563       3564       3575       3574  
      3444       3445       3456       3455       3565       3566       3577       3576  
      3445       3446       3457       3456       3566       3567       3578       3577  
      3446       3447       3458       3457       3567       3568       3579       3578  
      3447       3448       3459       3458       3568       3569       3580       3579  
      3448       3449       3460       3459       3569       3570       3581       3580  
      3449       3450       3461       3460       3570       3571       3582       3581  
      3450       3451       3462       3461       3571       3572       3583       3582  
      3451       3452       3463       3462       3572       3573       3584       3583  
      3452       3453       3464       3463       3573       3574       3585       3584  
      3453       3454       3465       3464       3574       3575       3586       3585  
      3455       3456       3467       3466       3576       3577       3588       3587  
      3456       3457       3468       3467       3577       3578       3589       3588  
      3457       3458       3469       3468       3578       3579       3590       3589  
      3458       3459       3470       3469       3579       3580       3591       3590  
      3459       3460       3471       3470       3580       3581       3592       3591  
      3460       3461       3472       3471       3581       3582       3593       3592  
      3461       3462       3473       3472       3582       3583       3594       3593  
      3462       3463       3474       3473       3583       3584       3595       3594  
      3463       3464       3475       3474       3584       3585       3596       3595  
      3464       3465       3476       3475       3585       3586       3597       3596  
      3466       3467       3478       3477       3587       3588       3599       3598  
      3467       3468       3479       3478       3588       3589       3600       3599  
      3468       3469       3480       3479       3589       3590       3601       3600  
      3469       3470       3481       3480       3590       3591       3602       3601  
      3470       3471       3482       3481       3591       3592       3603       3602  
      3471       3472       3483       3482       3592       3593       3604       3603  
      3472       3473       3484       3483       3593       3594       3605       3604  
      3473       3474       3485       3484       3594       3595       3606       3605  
      3474       3475       3486       3485       3595       3596       3607       3606  
      3475       3476       3487       3486       3596       3597       3608       3607  
      3477       3478       3489       3488       3598       3599       3610       3609  
      3478       3479       3490       3489       3599       3600       3611       3610  
      3479       3480       3491       3490       3600       3601       3612       3611  
      3480       3481       3492       3491       3601       3602       3613       3612  
      3481       3482       3493       3492       3602       3603       3614       3613  
      3482       3483       3494       3493       3603       3604       3615       3614  
      3483       3484       3495       3494       3604       3605       3616       3615  
      3484       3485       3496       3495       3605       3606       3617       3616  
      3485       3486       3497       3496       3606       3607       3618       3617  
      3486       3487       3498       3497       3607       3608       3619       3618  
      3488       3489       3500       3499       3609       3610       3621       3620  
      3489       3490       3501       3500       3610       3611       3622       3621  
      3490       3491       3502       3501       3611       3612       3623       3622  
      3491       3492       3503       3502       3612       3613       3624       3623  
      3492       3493       3504       3503       3613       3614       3625       3624  
      3493       3494       3505       3504       3614       3615       3626       3625  
      3494       3495       3506       3505       3615       3616       3627       3626  
      3495       3496       3507       3506       3616       3617       3628       3627  
      3496       3497       3508       3507       3617       3618       3629       3628  
      3497       3498       3509       3508       3618       3619       3630       3629  
      3510       3511       3522       3521       3631       3632       3643       3642  
      3511       3512       3523       3522       3632       3633       3644       3643  
      3512       3513       3524       3523       3633       3634       3645       3644  
      3513       3514       3525       3524       3634       3635       3646       3645  
      3514       3515       3526       3525       3635       3636       3647       3646  
      3515       3516       3527       3526       3636       3637       3648       3647  
      3516       3517       3528       3527       3637       3638       3649       3648  
      3517       3518       3529       3528       3638       3639       3650       3649  
      3518       3519       3530       3529       3639       3640       3651       3650  
      3519       3520       3531       3530       3640       3641       3652       3651  
      3521       3522       3533       3532       3642       3643       3654       3653  
      3522       3523       3534       3533       3643       3644       3655       3654  
      3523       3524       3535       3534       3644       3645       3656       3655  
      3524       3525       3536       3535       3645       3646       3657       3656  
      3525       3526       3537       3536       3646       3647       3658       3657  
      3526       3527       3538       3537       3647       3648       3659       3658  
      3527       3528       3539       3538       3648       3649       3660       3659  
      3528       3529       3540       3539       3649       3650       3661       3660  
      3529       3530       3541       3540       3650       3651       3662       3661  
      3530       3531       3542       3541       3651       3652       3663       3662  
      3532       3533       3544       3543       3653       3654       3665       3664  
      3533       3534       3545       3544       3654       3655       3666       3665  
      3534       3535       3546       3545       3655       3656       3667       3666  
      3535       3536       3547       3546       3656       3657       3668       3667  
      3536       3537       3548       3547       3657       3658       3669       3668  
      3537       3538       3549       3548       3658       3659       3670       3669  
      3538       3539       3550       3549       3659       3660       3671       3670  
      3539       3540       3551       3550       3660       3661       3672       3671  
      3540       3541       3552       3551       3661       3662       3673       3672  
      3541       3542       3553       3552       3662       3663       3674       3673  
      3543       3544       3555       3554       3664       3665       3676       3675  
      3544       3545       3556       3555       3665       3666       3677       3676  
      3545       3546       3557       3556       3666       3667       3678       3677  
      3546       3547       3558       3557       3667       3668       3679       3678  
      3547       3548       3559       3558       3668       3669       3680       3679  
      3548       3549       3560       3559       3669       3670       3681       3680  
      3549       3550       3561       3560       3670       3671       3682       3681  
      3550       3551       3562       3561       3671       3672       3683       3682  
      3551       3552       3563       3562       3672       3673       3684       3683  
      3552       3553       3564       3563       3673       3674       3685       3684  
      3554       3555       3566       3565       3675       3676       3687       3686  
      3555       3556       3567       3566       3676       3677       3688       3687  
      3556       3557       3568       3567       3677       3678       3689       3688  
      3557       3558       3569       3568       3678       3679       3690       3689  
      3558       3559       3570       3569       3679       3680       3691       3690  
      3559       3560       3571       3570       3680       3681       3692       3691  
      3560       3561       3572       3571       3681       3682       3693       3692  
      3561       3562       3573       3572       3682       3683       3694       3693  
      3562       3563       3574       3573       3683       3684       3695       3694  
      3563       3564       3575       3574       3684       3685       3696       3695  
      3565       3566       3577       3576       3686       3687       3698       3697  
      3566       3567       3578       3577       3687       3688       3699       3698  
      3567       3568       3579       3578       3688       3689       3700       3699  
      3568       3569       3580       3579       3689       3690       3701       3700  
      3569       3570       3581       3580       3690       3691       3702       3701  
      3570       3571       3582       3581       3691       3692       3703       3702  
      3571       3572       3583       3582       3692       3693       3704       3703  
      3572       3573       3584       3583       3693       3694       3705       3704  
      3573       3574       3585       3584       3694       3695       3706       3705  
      3574       3575       3586       3585       3695       3696       3707       3706  
      3576       3577       3588       3587       3697       3698       3709       3708  
      3577       3578       3589       3588       3698       3699       3710       3709  
      3578       3579       3590       3589       3699       3700       3711       3710  
      3579       3580       3591       3590       3700       3701       3712       3711  
      3580       3581       3592       3591       3701       3702       3713       3712  
      3581       3582       3593       3592       3702       3703       3714       3713  
      3582       3583       3594       3593       3703       3704       3715       3714  
      3583       3584       3595       3594       3704       3705       3716       3715  
      3584       3585       3596       3595       3705       3706       3717       3716  
      3585       3586       3597       3596       3706       3707       3718       3717  
      3587       3588       3599       3598       3708       3709       3720       3719  
      3588       3589       3600       3599       3709       3710       3721       3720  
      3589       3590       3601       3600       3710       3711       3722       3721  
      3590       3591       3602       3601       3711       3712       3723       3722  
      3591       3592       3603       3602       3712       3713       3724       3723  
      3592       3593       3604       3603       3713       3714       3725       3724  
      3593       3594       3605       3604       3714       3715       3726       3725  
      3594       3595       3606       3605       3715       3716       3727       3726  
      3595       3596       3607       3606       3716       3717       3728       3727  
      3596       3597       3608       3607       3717       3718       3729       3728  
      3598       3599       3610       3609       3719       3720       3731       3730  
      3599       3600       3611       3610       3720       3721       3732       3731  
      3600       3601       3612       3611       3721       3722       3733       3732  
      3601       3602       3613       3612       3722       3723       3734       3733  
      3602       3603       3614       3613       3723       3724       3735       3734  
      3603       3604       3615       3614       3724       3725       3736       3735  
      3604       3605       3616       3615       3725       3726       3737       3736  
      3605       3606       3617       3616       3726       3727       3738       3737  
      3606       3607       3618       3617       3727       3728       3739       3738  
      3607       3608       3619       3618       3728       3729       3740       3739  
      3609       3610       3621       3620       3730       3731       3742       3741  
      3610       3611       3622       3621       3731       3732       3743       3742  
      3611       3612       3623       3622       3732       3733       3744       3743  
      3612       3613       3624       3623       3733       3734       3745       3744  
      3613       3614       3625       3624       3734       3735       3746       3745  
      3614       3615       3626       3625       3735       3736       3747       3746  
      3615       3616       3627       3626       3736       3737       3748       3747  
      3616       3617       3628       3627       3737       3738       3749       3748  
      3617       3618       3629       3628       3738       3739       3750       3749  
      3618       3619       3630       3629       3739       3740       3751       3750  
      3631       3632       3643       3642       3752       3753       3764       3763  
      3632       3633       3644       3643       3753       3754       3765       3764  
      3633       3634       3645       3644       3754       3755       3766       3765  
      3634       3635       3646       3645       3755       3756       3767       3766  
      3635       3636       3647       3646       3756       3757       3768       3767  
      3636       3637       3648       3647       3757       3758       3769       3768  
      3637       3638       3649       3648       3758       3759       3770       3769  
      3638       3639       3650       3649       3759       3760       3771       3770  
      3639       3640       3651       3650       3760       3761       3772       3771  
      3640       3641       3652       3651       3761       3762       3773       3772  
      3642       3643       3654       3653       3763       3764       3775       3774  
      3643       3644       3655       3654       3764       3765       3776       3775  
      3644       3645       3656       3655       3765       3766       3777       3776  
      3645       3646       3657       3656       3766       3767       3778       3777  
      3646       3647       3658       3657       3767       3768       3779       3778  
      3647       3648       3659       3658       3768       3769       3780       3779  
      3648       3649       3660       3659       3769       3770       3781       3780  
      3649       3650       3661       3660       3770       3771       3782       3781  
      3650       3651       3662       3661       3771       3772       3783       3782  
      3651       3652       3663       3662       3772       3773       3784       3783  
      3653       3654       3665       3664       3774       3775       3786       3785  
      3654       3655       3666       3665       3775       3776       3787       3786  
      3655       3656       3667       3666       3776       3777       3788       3787  
      3656       3657       3668       3667       3777       3778       3789       3788  
      3657       3658       3669       3668       3778       3779       3790       3789  
      3658       3659       3670       3669       3779       3780       3791       3790  
      3659       3660       3671       3670       3780       3781       3792       3791  
      3660       3661       3672       3671       3781       3782       3793       3792  
      3661       3662       3673       3672       3782       3783       3794       3793  
      3662       3663       3674       3673       3783       3784       3795       3794  
      3664       3665       3676       3675       3785       3786       3797       3796  
      3665       3666       3677       3676       3786       3787       3798       3797  
      3666       3667       3678       3677       3787       3788       3799       3798  
      3667       3668       3679       3678       3788       3789       3800       3799  
      3668       3669       3680       3679       3789       3790       3801       3800  
      3669       3670       3681       3680       3790       3791       3802       3801  
      3670       3671       3682       3681       3791       3792       3803       3802  
      3671       3672       3683       3682       3792       3793       3804       3803  
      3672       3673       3684       3683       3793       3794       3805       3804  
      3673       3674       3685       3684       3794       3795       3806       3805  
      3675       3676       3687       3686       3796       3797       3808       3807  
      3676       3677       3688       3687       3797       3798       3809       3808  
      3677       3678       3689       3688       3798       3799       3810       3809  
      3678       3679       3690       3689       3799       3800       3811       3810  
      3679       3680       3691       3690       3800       3801       3812       3811  
      3680       3681       3692       3691       3801       3802       3813       3812  
      3681       3682       3693       3692       3802       3803       3814       3813  
      3682       3683       3694       3693       3803       3804       3815       3814  
      3683       3684       3695       3694       3804       3805       3816       3815  
      3684       3685       3696       3695       3805       3806       3817       3816  
      3686       3687       3698       3697       3807       3808       3819       3818  
      3687       3688       3699       3698       3808       3809       3820       3819  
      3688       3689       3700       3699       3809       3810       3821       3820  
      3689       3690       3701       3700       3810       3811       3822       3821  
      3690       3691       3702       3701       3811       3812       3823       3822  
      3691       3692       3703       3702       3812       3813       3824       3823  
      3692       3693       3704       3703       3813       3814       3825       3824  
      3693       3694       3705       3704       3814       3815       3826       3825  
      3694       3695       3706       3705       3815       3816       3827       3826  
      3695       3696       3707       3706       3816       3817       3828       3827  
      3697       3698       3709       3708       3818       3819       3830       3829  
      3698       3699       3710       3709       3819       3820       3831       3830  
      3699       3700       3711       3710       3820       3821       3832       3831  
      3700       3701       3712       3711       3821       3822       3833       3832  
      3701       3702       3713       3712       3822       3823       3834       3833  
      3702       3703       3714       3713       3823       3824       3835       3834  
      3703       3704       3715       3714       3824       3825       3836       3835  
      3704       3705       3716       3715       3825       3826       3837       3836  
      3705       3706       3717       3716       3826       3827       3838       3837  
      3706       3707       3718       3717       3827       3828       3839       3838  
      3708       3709       3720       3719       3829       3830       3841       3840  
      3709       3710       3721       3720       3830       3831       3842       3841  
      3710       3711       3722       3721       3831       3832       3843       3842  
      3711       3712       3723       3722       3832       3833       3844       3843  
      3712       3713       3724       3723       3833       3834       3845       3844  
      3713       3714       3725       3724       3834       3835       3846       3845  
      3714       3715       3726       3725       3835       3836       3847       3846  
      3715       3716       3727       3726       3836       3837       3848       3847  
      3716       3717       3728       3727       3837       3838       3849       3848  
      3717       3718       3729       3728       3838       3839       3850       3849  
      3719       3720       3731       3730       3840       3841       3852       3851  
      3720       3721       3732       3731       3841       3842       3853       3852  
      3721       3722       3733       3732       3842       3843       3854       3853  
      3722       3723       3734       3733       3843       3844       3855       3854  
      3723       3724       3735       3734       3844       3845       3856       3855  
      3724       3725       3736       3735       3845       3846       3857       3856  
      3725       3726       3737       3736       3846       3847       3858       3857  
      3726       3727       3738       3737       3847       3848       3859       3858  
      3727       3728       3739       3738       3848       3849       3860       3859  
      3728       3729       3740       3739       3849       3850       3861       3860  
      3730       3731       3742       3741       3851       3852       3863       3862  
      3731       3732       3743       3742       3852       3853       3864       3863  
      3732       3733       3744       3743       3853       3854       3865       3864  
      3733       3734       3745       3744       3854       3855       3866       3865  
      3734       3735       3746       3745       3855       3856       3867       3866  
      3735       3736       3747       3746       3856       3857       3868       3867  
      3736       3737       3748       3747       3857       3858       3869       3868  
      3737       3738       3749       3748       3858       3859       3870       3869  
      3738       3739       3750       3749       3859       3860       3871       3870  
      3739       3740       3751       3750       3860       3861       3872       3871  
      3752       3753       3764       3763       3873       3874       3885       3884  
      3753       3754       3765       3764       3874       3875       3886       3885  
      3754       3755       3766       3765       3875       3876       3887       3886  
      3755       3756       3767       3766       3876       3877       3888       3887  
      3756       3757       3768       3767       3877       3878       3889       3888  
      3757       3758       3769       3768       3878       3879       3890       3889  
      3758       3759       3770       3769       3879       3880       3891       3890  
      3759       3760       3771       3770       3880       3881       3892       3891  
      3760       3761       3772       3771       3881       3882       3893       3892  
      3761       3762       3773       3772       3882       3883       3894       3893  
      3763       3764       3775       3774       3884       3885       3896       3895  
      3764       3765       3776       3775       3885       3886       3897       3896  
      3765       3766       3777       3776       3886       3887       3898       3897  
      3766       3767       3778       3777       3887       3888       3899       3898  
      3767       3768       3779       3778       3888       3889       3900       3899  
      3768       3769       3780       3779       3889       3890       3901       3900  
      3769       3770       3781       3780       3890       3891       3902       3901  
      3770       3771       3782       3781       3891       3892       3903       3902  
      3771       3772       3783       3782       3892       3893       3904       3903  
      3772       3773       3784       3783       3893       3894       3905       3904  
      3774       3775       3786       3785       3895       3896       3907       3906  
      3775       3776       3787       3786       3896       3897       3908       3907  
      3776       3777       3788       3787       3897       3898       3909       3908  
      3777       3778       3789       3788       3898       3899       3910       3909  
      3778       3779       3790       3789       3899       3900       3911       3910  
      3779       3780       3791       3790       3900       3901       3912       3911  
      3780       3781       3792       3791       3901       3902       3913       3912  
      3781       3782       3793       3792       3902       3903       3914       3913  
      3782       3783       3794       3793       3903       3904       3915       3914  
      3783       3784       3795       3794       3904       3905       3916       3915  
      3785       3786       3797       3796       3906       3907       3918       3917  
      3786       3787       3798       3797       3907       3908       3919       3918  
      3787       3788       3799       3798       3908       3909       3920       3919  
      3788       3789       3800       3799       3909       3910       3921       3920  
      3789       3790       3801       3800       3910       3911       3922       3921  
      3790       3791       3802       3801       3911       3912       3923       3922  
      3791       3792       3803       3802       3912       3913       3924       3923  
      3792       3793       3804       3803       3913       3914       3925       3924  
      3793       3794       3805       3804       3914       3915       3926       3925  
      3794       3795       3806       3805       3915       3916       3927       3926  
      3796       3797       3808       3807       3917       3918       3929       3928  
      3797       3798       3809       3808       3918       3919       3930       3929  
      3798       3799       3810       3809       3919       3920       3931       3930  
      3799       3800       3811       3810       3920       3921       3932       3931  
      3800       3801       3812       3811       3921       3922       3933       3932  
      3801       3802       3813       3812       3922       3923       3934       3933  
      3802       3803       3814       3813       3923       3924       3935       3934  
      3803       3804       3815       3814       3924       3925       3936       3935  
      3804       3805       3816       3815       3925       3926       3937       3936  
      3805       3806       3817       3816       3926       3927       3938       3937  
      3807       3808       3819       3818       3928       3929       3940       3939  
      3808       3809       3820       3819       3929       3930       3941       3940  
      3809       3810       3821       3820       3930       3931       3942       3941  
      3810       3811       3822       3821       3931       3932       3943       3942  
      3811       3812       3823       3822       3932       3933       3944       3943  
      3812       3813       3824       3823       3933       3934       3945       3944  
      3813       3814       3825       3824       3934       3935       3946       3945  
      3814       3815       3826       3825       3935       3936       3947       3946  
      3815       3816       3827       3826       3936       3937       3948       3947  
      3816       3817       3828       3827       3937       3938       3949       3948  
      3818       3819       3830       3829       3939       3940       3951       3950  
      3819       3820       3831       3830       3940       3941       3952       3951  
      3820       3821       3832       3831       3941       3942       3953       3952  
      3821       3822       3833       3832       3942       3943       3954       3953  
      3822       3823       3834       3833       3943       3944       3955       3954  
      3823       3824       3835       3834       3944       3945       3956       3955  
      3824       3825       3836       3835       3945       3946       3957       3956  
      3825       3826       3837       3836       3946       3947       3958       3957  
      3826       3827       3838       3837       3947       3948       3959       3958  
      3827       3828       3839       3838       3948       3949       3960       3959  
      3829       3830       3841       3840       3950       3951       3962       3961  
      3830       3831       3842       3841       3951       3952       3963       3962  
      3831       3832       3843       3842       3952       3953       3964       3963  
      3832       3833       3844       3843       3953       3954       3965       3964  
      3833       3834       3845       3844       3954       3955       3966       3965  
      3834       3835       3846       3845       3955       3956       3967       3966  
      3835       3836       3847       3846       3956       3957       3968       3967  
      3836       3837       3848       3847       3957       3958       3969       3968  
      3837       3838       3849       3848       3958       3959       3970       3969  
      3838       3839       3850       3849       3959       3960       3971       3970  
      3840       3841       3852       3851       3961       3962       3973       3972  
      3841       3842       3853       3852       3962       3963       3974       3973  
      3842       3843       3854       3853       3963       3964       3975       3974  
      3843       3844       3855       3854       3964       3965       3976       3975  
      3844       3845       3856       3855       3965       3966       3977       3976  
      3845       3846       3857       3856       3966       3967       3978       3977  
      3846       3847       3858       3857       3967       3968       3979       3978  
      3847       3848       3859       3858       3968       3969       3980       3979  
      3848       3849       3860       3859       3969       3970       3981       3980  
      3849       3850       3861       3860       3970       3971       3982       3981  
      3851       3852       3863       3862       3972       3973       3984       3983  
      3852       3853       3864       3863       3973       3974       3985       3984  
      3853       3854       3865       3864       3974       3975       3986       3985  
      3854       3855       3866       3865       3975       3976       3987       3986  
      3855       3856       3867       3866       3976       3977       3988       3987  
      3856       3857       3868       3867       3977       3978       3989       3988  
      3857       3858       3869       3868       3978       3979       3990       3989  
      3858       3859       3870       3869       3979       3980       3991       3990  
      3859       3860       3871       3870       3980       3981       3992       3991  
      3860       3861       3872       3871       3981       3982       3993       3992  
      3873       3874       3885       3884       3994       3995       4006       4005  
      3874       3875       3886       3885       3995       3996       4007       4006  
      3875       3876       3887       3886       3996       3997       4008       4007  
      3876       3877       3888       3887       3997       3998       4009       4008  
      3877       3878       3889       3888       3998       3999       4010       4009  
      3878       3879       3890       3889       3999       4000       4011       4010  
      3879       3880       3891       3890       4000       4001       4012       4011  
      3880       3881       3892       3891       4001       4002       4013       4012  
      3881       3882       3893       3892       4002       4003       4014       4013  
      3882       3883       3894       3893       4003       4004       4015       4014  
      3884       3885       3896       3895       4005       4006       4017       4016  
      3885       3886       3897       3896       4006       4007       4018       4017  
      3886       3887       3898       3897       4007       4008       4019       4018  
      3887       3888       3899       3898       4008       4009       4020       4019  
      3888       3889       3900       3899       4009       4010       4021       4020  
      3889       3890       3901       3900       4010       4011       4022       4021  
      3890       3891       3902       3901       4011       4012       4023       4022  
      3891       3892       3903       3902       4012       4013       4024       4023  
      3892       3893       3904       3903       4013       4014       4025       4024  
      3893       3894       3905       3904       4014       4015       4026       4025  
      3895       3896       3907       3906       4016       4017       4028       4027  
      3896       3897       3908       3907       4017       4018       4029       4028  
      3897       3898       3909       3908       4018       4019       4030       4029  
      3898       3899       3910       3909       4019       4020       4031       4030  
      3899       3900       3911       3910       4020       4021       4032       4031  
      3900       3901       3912       3911       4021       4022       4033       4032  
      3901       3902       3913       3912       4022       4023       4034       4033  
      3902       3903       3914       3913       4023       4024       4035       4034  
      3903       3904       3915       3914       4024       4025       4036       4035  
      3904       3905       3916       3915       4025       4026       4037       4036  
      3906       3907       3918       3917       4027       4028       4039       4038  
      3907       3908       3919       3918       4028       4029       4040       4039  
      3908       3909       3920       3919       4029       4030       4041       4040  
      3909       3910       3921       3920       4030       4031       4042       4041  
      3910       3911       3922       3921       4031       4032       4043       4042  
      3911       3912       3923       3922       4032       4033       4044       4043  
      3912       3913       3924       3923       4033       4034       4045       4044  
      3913       3914       3925       3924       4034       4035       4046       4045  
      3914       3915       3926       3925       4035       4036       4047       4046  
      3915       3916       3927       3926       4036       4037       4048       4047  
      3917       3918       3929       3928       4038       4039       4050       4049  
      3918       3919       3930       3929       4039       4040       4051       4050  
      3919       3920       3931       3930       4040       4041       4052       4051  
      3920       3921       3932       3931       4041       4042       4053       4052  
      3921       3922       3933       3932       4042       4043       4054       4053  
      3922       3923       3934       3933       4043       4044       4055       4054  
      3923       3924       3935       3934       4044       4045       4056       4055  
      3924       3925       3936       3935       4045       4046       4057       4056  
      3925       3926       3937       3936       4046       4047       4058       4057  
      3926       3927       3938       3937       4047       4048       4059       4058  
      3928       3929       3940       3939       4049       4050       4061       4060  
      3929       3930       3941       3940       4050       4051       4062       4061  
      3930       3931       3942       3941       4051       4052       4063       4062  
      3931       3932       3943       3942       4052       4053       4064       4063  
      3932       3933       3944       3943       4053       4054       4065       4064  
      3933       3934       3945       3944       4054       4055       4066       4065  
      3934       3935       3946       3945       4055       4056       4067       4066  
      3935       3936       3947       3946       4056       4057       4068       4067  
      3936       3937       3948       3947       4057       4058       4069       4068  
      3937       3938       3949       3948       4058       4059       4070       4069  
      3939       3940       3951       3950       4060       4061       4072       4071  
      3940       3941       3952       3951       4061       4062       4073       4072  
      3941       3942       3953       3952       4062       4063       4074       4073  
      3942       3943       3954       3953       4063       4064       4075       4074  
      3943       3944       3955       3954       4064       4065       4076       4075  
      3944       3945       3956       3955       4065       4066       4077       4076  
      3945       3946       3957       3956       4066       4067       4078       4077  
      3946       3947       3958       3957       4067       4068       4079       4078  
      3947       3948       3959       3958       4068       4069       4080       4079  
      3948       3949       3960       3959       4069       4070       4081       4080  
      3950       3951       3962       3961       4071       4072       4083       4082  
      3951       3952       3963       3962       4072       4073       4084       4083  
      3952       3953       3964       3963       4073       4074       4085       4084  
      3953       3954       3965       3964       4074       4075       4086       4085  
      3954       3955       3966       3965       4075       4076       4087       4086  
      3955       3956       3967       3966       4076       4077       4088       4087  
      3956       3957       3968       3967       4077       4078       4089       4088  
      3957       3958       3969       3968       4078       4079       4090       4089  
      3958       3959       3970       3969       4079       4080       4091       4090  
      3959       3960       3971       3970       4080       4081       4092       4091  
      3961       3962       3973       3972       4082       4083       4094       4093  
      3962       3963       3974       3973       4083       4084       4095       4094  
      3963       3964       3975       3974       4084       4085       4096       4095  
      3964       3965       3976       3975       4085       4086       4097       4096  
      3965       3966       3977       3976       4086       4087       4098       4097  
      3966       3967       3978       3977       4087       4088       4099       4098  
      3967       3968       3979       3978       4088       4089       4100       4099  
      3968       3969       3980       3979       4089       4090       4101       4100  
      3969       3970       3981       3980       4090       4091       4102       4101  
      3970       3971       3982       3981       4091       4092       4103       4102  
      3972       3973       3984       3983       4093       4094       4105       4104  
      3973       3974       3985       3984       4094       4095       4106       4105  
      3974       3975       3986       3985       4095       4096       4107       4106  
      3975       3976       3987       3986       4096       4097       4108       4107  
      3976       3977       3988       3987       4097       4098       4109       4108  
      3977       3978       3989       3988       4098       4099       4110       4109  
      3978       3979       3990       3989       4099       4100       4111       4110  
      3979       3980       3991       3990       4100       4101       4112       4111  
      3980       3981       3992       3991       4101       4102       4113       4112  
      3981       3982       3993       3992       4102       4103       4114       4113  
      3994       3995       4006       4005       4115       4116       4127       4126  
      3995       3996       4007       4006       4116       4117       4128       4127  
      3996       3997       4008       4007       4117       4118       4129       4128  
      3997       3998       4009       4008       4118       4119       4130       4129  
      3998       3999       4010       4009       4119       4120       4131       4130  
      3999       4000       4011       4010       4120       4121       4132       4131  
      4000       4001       4012       4011       4121       4122       4133       4132  
      4001       4002       4013       4012       4122       4123       4134       4133  
      4002       4003       4014       4013       4123       4124       4135       4134  
      4003       4004       4015       4014       4124       4125       4136       4135  
      4005       4006       4017       4016       4126       4127       4138       4137  
      4006       4007       4018       4017       4127       4128       4139       4138  
      4007       4008       4019       4018       4128       4129       4140       4139  
      4008       4009       4020       4019       4129       4130       4141       4140  
      4009       4010       4021       4020       4130       4131       4142       4141  
      4010       4011       4022       4021       4131       4132       4143       4142  
      4011       4012       4023       4022       4132       4133       4144       4143  
      4012       4013       4024       4023       4133       4134       4145       4144  
      4013       4014       4025       4024       4134       4135       4146       4145  
      4014       4015       4026       4025       4135       4136       4147       4146  
      4016       4017       4028       4027       4137       4138       4149       4148  
      4017       4018       4029       4028       4138       4139       4150       4149  
      4018       4019       4030       4029       4139       4140       4151       4150  
      4019       4020       4031       4030       4140       4141       4152       4151  
      4020       4021       4032       4031       4141       4142       4153       4152  
      4021       4022       4033       4032       4142       4143       4154       4153  
      4022       4023       4034       4033       4143       4144       4155       4154  
      4023       4024       4035       4034       4144       4145       4156       4155  
      4024       4025       4036       4035       4145       4146       4157       4156  
      4025       4026       4037       4036       4146       4147       4158       4157  
      4027       4028       4039       4038       4148       4149       4160       4159  
      4028       4029       4040       4039       4149       4150       4161       4160  
      4029       4030       4041       4040       4150       4151       4162       4161  
      4030       4031       4042       4041       4151       4152       4163       4162  
      4031       4032       4043       4042       4152       4153       4164       4163  
      4032       4033       4044       4043       4153       4154       4165       4164  
      4033       4034       4045       4044       4154       4155       4166       4165  
      4034       4035       4046       4045       4155       4156       4167       4166  
      4035       4036       4047       4046       4156       4157       4168       4167  
      4036       4037       4048       4047       4157       4158       4169       4168  
      4038       4039       4050       4049       4159       4160       4171       4170  
      4039       4040       4051       4050       4160       4161       4172       4171  
      4040       4041       4052       4051       4161       4162       4173       4172  
      4041       4042       4053       4052       4162       4163       4174       4173  
      4042       4043       4054       4053       4163       4164       4175       4174  
      4043       4044       4055       4054       4164       4165       4176       4175  
      4044       4045       4056       4055       4165       4166       4177       4176  
      4045       4046       4057       4056       4166       4167       4178       4177  
      4046       4047       4058       4057       4167       4168       4179       4178  
      4047       4048       4059       4058       4168       4169       4180       4179  
      4049       4050       4061       4060       4170       4171       4182       4181  
      4050       4051       4062       4061       4171       4172       4183       4182  
      4051       4052       4063       4062       4172       4173       4184       4183  
      4052       4053       4064       4063       4173       4174       4185       4184  
      4053       4054       4065       4064       4174       4175       4186       4185  
      4054       4055       4066       4065       4175       4176       4187       4186  
      4055       4056       4067       4066       4176       4177       4188       4187  
      4056       4057       4068       4067       4177       4178       4189       4188  
      4057       4058       4069       4068       4178       4179       4190       4189  
      4058       4059       4070       4069       4179       4180       4191       4190  
      4060       4061       4072       4071       4181       4182       4193       4192  
      4061       4062       4073       4072       4182       4183       4194       4193  
      4062       4063       4074       4073       4183       4184       4195       4194  
      4063       4064       4075       4074       4184       4185       4196       4195  
      4064       4065       4076       4075       4185       4186       4197       4196  
      4065       4066       4077       4076       4186       4187       4198       4197  
      4066       4067       4078       4077       4187       4188       4199       4198  
      4067       4068       4079       4078       4188       4189       4200       4199  
      4068       4069       4080       4079       4189       4190       4201       4200  
      4069       4070       4081       4080       4190       4191       4202       4201  
      4071       4072       4083       4082       4192       4193       4204       4203  
      4072       4073       4084       4083       4193       4194       4205       4204  
      4073       4074       4085       4084       4194       4195       4206       4205  
      4074       4075       4086       4085       4195       4196       4207       4206  
      4075       4076       4087       4086       4196       4197       4208       4207  
      4076       4077       4088       4087       4197       4198       4209       4208  
      4077       4078       4089       4088       4198       4199       4210       4209  
      4078       4079       4090       4089       4199       4200       4211       4210  
      4079       4080       4091       4090       4200       4201       4212       4211  
      4080       4081       4092       4091       4201       4202       4213       4212  
      4082       4083       4094       4093       4203       4204       4215       4214  
      4083       4084       4095       4094       4204       4205       4216       4215  
      4084       4085       4096       4095       4205       4206       4217       4216  
      4085       4086       4097       4096       4206       4207       4218       4217  
      4086       4087       4098       4097       4207       4208       4219       4218  
      4087       4088       4099       4098       4208       4209       4220       4219  
      4088       4089       4100       4099       4209       4210       4221       4220  
      4089       4090       4101       4100       4210       4211       4222       4221  
      4090       4091       4102       4101       4211       4212       4223       4222  
      4091       4092       4103       4102       4212       4213       4224       4223  
      4093       4094       4105       4104       4214       4215       4226       4225  
      4094       4095       4106       4105       4215       4216       4227       4226  
      4095       4096       4107       4106       4216       4217       4228       4227  
      4096       4097       4108       4107       4217       4218       4229       4228  
      4097       4098       4109       4108       4218       4219       4230       4229  
      4098       4099       4110       4109       4219       4220       4231       4230  
      4099       4100       4111       4110       4220       4221       4232       4231  
      4100       4101       4112       4111       4221       4222       4233       4232  
      4101       4102       4113       4112       4222       4223       4234       4233  
      4102       4103       4114       4113       4223       4224       4235       4234  
      4115       4116       4127       4126       4236       4237       4248       4247  
      4116       4117       4128       4127       4237       4238       4249       4248  
      4117       4118       4129       4128       4238       4239       4250       4249  
      4118       4119       4130       4129       4239       4240       4251       4250  
      4119       4120       4131       4130       4240       4241       4252       4251  
      4120       4121       4132       4131       4241       4242       4253       4252  
      4121       4122       4133       4132       4242       4243       4254       4253  
      4122       4123       4134       4133       4243       4244       4255       4254  
      4123       4124       4135       4134       4244       4245       4256       4255  
      4124       4125       4136       4135       4245       4246       4257       4256  
      4126       4127       4138       4137       4247       4248       4259       4258  
      4127       4128       4139       4138       4248       4249       4260       4259  
      4128       4129       4140       4139       4249       4250       4261       4260  
      4129       4130       4141       4140       4250       4251       4262       4261  
      4130       4131       4142       4141       4251       4252       4263       4262  
      4131       4132       4143       4142       4252       4253       4264       4263  
      4132       4133       4144       4143       4253       4254       4265       4264  
      4133       4134       4145       4144       4254       4255       4266       4265  
      4134       4135       4146       4145       4255       4256       4267       4266  
      4135       4136       4147       4146       4256       4257       4268       4267  
      4137       4138       4149       4148       4258       4259       4270       4269  
      4138       4139       4150       4149       4259       4260       4271       4270  
      4139       4140       4151       4150       4260       4261       4272       4271  
      4140       4141       4152       4151       4261       4262       4273       4272  
      4141       4142       4153       4152       4262       4263       4274       4273  
      4142       4143       4154       4153       4263       4264       4275       4274  
      4143       4144       4155       4154       4264       4265       4276       4275  
      4144       4145       4156       4155       4265       4266       4277       4276  
      4145       4146       4157       4156       4266       4267       4278       4277  
      4146       4147       4158       4157       4267       4268       4279       4278  
      4148       4149       4160       4159       4269       4270       4281       4280  
      4149       4150       4161       4160       4270       4271       4282       4281  
      4150       4151       4162       4161       4271       4272       4283       4282  
      4151       4152       4163       4162       4272       4273       4284       4283  
      4152       4153       4164       4163       4273       4274       4285       4284  
      4153       4154       4165       4164       4274       4275       4286       4285  
      4154       4155       4166       4165       4275       4276       4287       4286  
      4155       4156       4167       4166       4276       4277       4288       4287  
      4156       4157       4168       4167       4277       4278       4289       4288  
      4157       4158       4169       4168       4278       4279       4290       4289  
      4159       4160       4171       4170       4280       4281       4292       4291  
      4160       4161       4172       4171       4281       4282       4293       4292  
      4161       4162       4173       4172       4282       4283       4294       4293  
      4162       4163       4174       4173       4283       4284       4295       4294  
      4163       4164       4175       4174       4284       4285       4296       4295  
      4164       4165       4176       4175       4285       4286       4297       4296  
      4165       4166       4177       4176       4286       4287       4298       4297  
      4166       4167       4178       4177       4287       4288       4299       4298  
      4167       4168       4179       4178       4288       4289       4300       4299  
      4168       4169       4180       4179       4289       4290       4301       4300  
      4170       4171       4182       4181       4291       4292       4303       4302  
      4171       4172       4183       4182       4292       4293       4304       4303  
      4172       4173       4184       4183       4293       4294       4305       4304  
      4173       4174       4185       4184       4294       4295       4306       4305  
      4174       4175       4186       4185       4295       4296       4307       4306  
      4175       4176       4187       4186       4296       4297       4308       4307  
      4176       4177       4188       4187       4297       4298       4309       4308  
      4177       4178       4189       4188       4298       4299       4310       4309  
      4178       4179       4190       4189       4299       4300       4311       4310  
      4179       4180       4191       4190       4300       4301       4312       4311  
      4181       4182       4193       4192       4302       4303       4314       4313  
      4182       4183       4194       4193       4303       4304       4315       4314  
      4183       4184       4195       4194       4304       4305       4316       4315  
      4184       4185       4196       4195       4305       4306       4317       4316  
      4185       4186       4197       4196       4306       4307       4318       4317  
      4186       4187       4198       4197       4307       4308       4319       4318  
      4187       4188       4199       4198       4308       4309       4320       4319  
      4188       4189       4200       4199       4309       4310       4321       4320  
      4189       4190       4201       4200       4310       4311       4322       4321  
      4190       4191       4202       4201       4311       4312       4323       4322  
      4192       4193       4204       4203       4313       4314       4325       4324  
      4193       4194       4205       4204       4314       4315       4326       4325  
      4194       4195       4206       4205       4315       4316       4327       4326  
      4195       4196       4207       4206       4316       4317       4328       4327  
      4196       4197       4208       4207       4317       4318       4329       4328  
      4197       4198       4209       4208       4318       4319       4330       4329  
      4198       4199       4210       4209       4319       4320       4331       4330  
      4199       4200       4211       4210       4320       4321       4332       4331  
      4200       4201       4212       4211       4321       4322       4333       4332  
      4201       4202       4213       4212       4322       4323       4334       4333  
      4203       4204       4215       4214       4324       4325       4336       4335  
      4204       4205       4216       4215       4325       4326       4337       4336  
      4205       4206       4217       4216       4326       4327       4338       4337  
      4206       4207       4218       4217       4327       4328       4339       4338  
      4207       4208       4219       4218       4328       4329       4340       4339  
      4208       4209       4220       4219       4329       4330       4341       4340  
      4209       4210       4221       4220       4330       4331       4342       4341  
      4210       4211       4222       4221       4331       4332       4343       4342  
      4211       4212       4223       4222       4332       4333       4344       4343  
      4212       4213       4224       4223       4333       4334       4345       4344  
      4214       4215       4226       4225       4335       4336       4347       4346  
      4215       4216       4227       4226       4336       4337       4348       4347  
      4216       4217       4228       4227       4337       4338       4349       4348  
      4217       4218       4229       4228       4338       4339       4350       4349  
      4218       4219       4230       4229       4339       4340       4351       4350  
      4219       4220       4231       4230       4340       4341       4352       4351  
      4220       4221       4232       4231       4341       4342       4353       4352  
      4221       4222       4233       4232       4342       4343       4354       4353  
      4222       4223       4234       4233       4343       4344       4355       4354  
      4223       4224       4235       4234       4344       4345       4356       4355  
      4236       4237       4248       4247       4357       4358       4369       4368  
      4237       4238       4249       4248       4358       4359       4370       4369  
      4238       4239       4250       4249       4359       4360       4371       4370  
      4239       4240       4251       4250       4360       4361       4372       4371  
      4240       4241       4252       4251       4361       4362       4373       4372  
      4241       4242       4253       4252       4362       4363       4374       4373  
      4242       4243       4254       4253       4363       4364       4375       4374  
      4243       4244       4255       4254       4364       4365       4376       4375  
      4244       4245       4256       4255       4365       4366       4377       4376  
      4245       4246       4257       4256       4366       4367       4378       4377  
      4247       4248       4259       4258       4368       4369       4380       4379  
      4248       4249       4260       4259       4369       4370       4381       4380  
      4249       4250       4261       4260       4370       4371       4382       4381  
      4250       4251       4262       4261       4371       4372       4383       4382  
      4251       4252       4263       4262       4372       4373       4384       4383  
      4252       4253       4264       4263       4373       4374       4385       4384  
      4253       4254       4265       4264       4374       4375       4386       4385  
      4254       4255       4266       4265       4375       4376       4387       4386  
      4255       4256       4267       4266       4376       4377       4388       4387  
      4256       4257       4268       4267       4377       4378       4389       4388  
      4258       4259       4270       4269       4379       4380       4391       4390  
      4259       4260       4271       4270       4380       4381       4392       4391  
      4260       4261       4272       4271       4381       4382       4393       4392  
      4261       4262       4273       4272       4382       4383       4394       4393  
      4262       4263       4274       4273       4383       4384       4395       4394  
      4263       4264       4275       4274       4384       4385       4396       4395  
      4264       4265       4276       4275       4385       4386       4397       4396  
      4265       4266       4277       4276       4386       4387       4398       4397  
      4266       4267       4278       4277       4387       4388       4399       4398  
      4267       4268       4279       4278       4388       4389       4400       4399  
      4269       4270       4281       4280       4390       4391       4402       4401  
      4270       4271       4282       4281       4391       4392       4403       4402  
      4271       4272       4283       4282       4392       4393       4404       4403  
      4272       4273       4284       4283       4393       4394       4405       4404  
      4273       4274       4285       4284       4394       4395       4406       4405  
      4274       4275       4286       4285       4395       4396       4407       4406  
      4275       4276       4287       4286       4396       4397       4408       4407  
      4276       4277       4288       4287       4397       4398       4409       4408  
      4277       4278       4289       4288       4398       4399       4410       4409  
      4278       4279       4290       4289       4399       4400       4411       4410  
      4280       4281       4292       4291       4401       4402       4413       4412  
      4281       4282       4293       4292       4402       4403       4414       4413  
      4282       4283       4294       4293       4403       4404       4415       4414  
      4283       4284       4295       4294       4404       4405       4416       4415  
      4284       4285       4296       4295       4405       4406       4417       4416  
      4285       4286       4297       4296       4406       4407       4418       4417  
      4286       4287       4298       4297       4407       4408       4419       4418  
      4287       4288       4299       4298       4408       4409       4420       4419  
      4288       4289       4300       4299       4409       4410       4421       4420  
      4289       4290       4301       4300       4410       4411       4422       4421  
      4291       4292       4303       4302       4412       4413       4424       4423  
      4292       4293       4304       4303       4413       4414       4425       4424  
      4293       4294       4305       4304       4414       4415       4426       4425  
      4294       4295       4306       4305       4415       4416       4427       4426  
      4295       4296       4307       4306       4416       4417       4428       4427  
      4296       4297       4308       4307       4417       4418       4429       4428  
      4297       4298       4309       4308       4418       4419       4430       4429  
      4298       4299       4310       4309       4419       4420       4431       4430  
      4299       4300       4311       4310       4420       4421       4432       4431  
      4300       4301       4312       4311       4421       4422       4433       4432  
      4302       4303       4314       4313       4423       4424       4435       4434  
      4303       4304       4315       4314       4424       4425       4436       4435  
      4304       4305       4316       4315       4425       4426       4437       4436  
      4305       4306       4317       4316       4426       4427       4438       4437  
      4306       4307       4318       4317       4427       4428       4439       4438  
      4307       4308       4319       4318       4428       4429       4440       4439  
      4308       4309       4320       4319       4429       4430       4441       4440  
      4309       4310       4321       4320       4430       4431       4442       4441  
      4310       4311       4322       4321       4431       4432       4443       4442  
      4311       4312       4323       4322       4432       4433       4444       4443  
      4313       4314       4325       4324       4434       4435       4446       4445  
      4314       4315       4326       4325       4435       4436       4447       4446  
      4315       4316       4327       4326       4436       4437       4448       4447  
      4316       4317       4328       4327       4437       4438       4449       4448  
      4317       4318       4329       4328       4438       4439       4450       4449  
      4318       4319       4330       4329       4439       4440       4451       4450  
      4319       4320       4331       4330       4440       4441       4452       4451  
      4320       4321       4332       4331       4441       4442       4453       4452  
      4321       4322       4333       4332       4442       4443       4454       4453  
      4322       4323       4334       4333       4443       4444       4455       4454  
      4324       4325       4336       4335       4445       4446       4457       4456  
      4325       4326       4337       4336       4446       4447       4458       4457  
      4326       4327       4338       4337       4447       4448       4459       4458  
      4327       4328       4339       4338       4448       4449       4460       4459  
      4328       4329       4340       4339       4449       4450       4461       4460  
      4329       4330       4341       4340       4450       4451       4462       4461  
      4330       4331       4342       4341       4451       4452       4463       4462  
      4331       4332       4343       4342       4452       4453       4464       4463  
      4332       4333       4344       4343       4453       4454       4465       4464  
      4333       4334       4345       4344       4454       4455       4466       4465  
      4335       4336       4347       4346       4456       4457       4468       4467  
      4336       4337       4348       4347       4457       4458       4469       4468  
      4337       4338       4349       4348       4458       4459       4470       4469  
      4338       4339       4350       4349       4459       4460       4471       4470  
      4339       4340       4351       4350       4460       4461       4472       4471  
      4340       4341       4352       4351       4461       4462       4473       4472  
      4341       4342       4353       4352       4462       4463       4474       4473  
      4342       4343       4354       4353       4463       4464       4475       4474  
      4343       4344       4355       4354       4464       4465       4476       4475  
      4344       4345       4356       4355       4465       4466       4477       4476  
      4357       4358       4369       4368       4478       4479       4490       4489  
      4358       4359       4370       4369       4479       4480       4491       4490  
      4359       4360       4371       4370       4480       4481       4492       4491  
      4360       4361       4372       4371       4481       4482       4493       4492  
      4361       4362       4373       4372       4482       4483       4494       4493  
      4362       4363       4374       4373       4483       4484       4495       4494  
      4363       4364       4375       4374       4484       4485       4496       4495  
      4364       4365       4376       4375       4485       4486       4497       4496  
      4365       4366       4377       4376       4486       4487       4498       4497  
      4366       4367       4378       4377       4487       4488       4499       4498  
      4368       4369       4380       4379       4489       4490       4501       4500  
      4369       4370       4381       4380       4490       4491       4502       4501  
      4370       4371       4382       4381       4491       4492       4503       4502  
      4371       4372       4383       4382       4492       4493       4504       4503  
      4372       4373       4384       4383       4493       4494       4505       4504  
      4373       4374       4385       4384       4494       4495       4506       4505  
      4374       4375       4386       4385       4495       4496       4507       4506  
      4375       4376       4387       4386       4496       4497       4508       4507  
      4376       4377       4388       4387       4497       4498       4509       4508  
      4377       4378       4389       4388       4498       4499       4510       4509  
      4379       4380       4391       4390       4500       4501       4512       4511  
      4380       4381       4392       4391       4501       4502       4513       4512  
      4381       4382       4393       4392       4502       4503       4514       4513  
      4382       4383       4394       4393       4503       4504       4515       4514  
      4383       4384       4395       4394       4504       4505       4516       4515  
      4384       4385       4396       4395       4505       4506       4517       4516  
      4385       4386       4397       4396       4506       4507       4518       4517  
      4386       4387       4398       4397       4507       4508       4519       4518  
      4387       4388       4399       4398       4508       4509       4520       4519  
      4388       4389       4400       4399       4509       4510       4521       4520  
      4390       4391       4402       4401       4511       4512       4523       4522  
      4391       4392       4403       4402       4512       4513       4524       4523  
      4392       4393       4404       4403       4513       4514       4525       4524  
      4393       4394       4405       4404       4514       4515       4526       4525  
      4394       4395       4406       4405       4515       4516       4527       4526  
      4395       4396       4407       4406       4516       4517       4528       4527  
      4396       4397       4408       4407       4517       4518       4529       4528  
      4397       4398       4409       4408       4518       4519       4530       4529  
      4398       4399       4410       4409       4519       4520       4531       4530  
      4399       4400       4411       4410       4520       4521       4532       4531  
      4401       4402       4413       4412       4522       4523       4534       4533  
      4402       4403       4414       4413       4523       4524       4535       4534  
      4403       4404       4415       4414       4524       4525       4536       4535  
      4404       4405       4416       4415       4525       4526       4537       4536  
      4405       4406       4417       4416       4526       4527       4538       4537  
      4406       4407       4418       4417       4527       4528       4539       4538  
      4407       4408       4419       4418       4528       4529       4540       4539  
      4408       4409       4420       4419       4529       4530       4541       4540  
      4409       4410       4421       4420       4530       4531       4542       4541  
      4410       4411       4422       4421       4531       4532       4543       4542  
      4412       4413       4424       4423       4533       4534       4545       4544  
      4413       4414       4425       4424       4534       4535       4546       4545  
      4414       4415       4426       4425       4535       4536       4547       4546  
      4415       4416       4427       4426       4536       4537       4548       4547  
      4416       4417       4428       4427       4537       4538       4549       4548  
      4417       4418       4429       4428       4538       4539       4550       4549  
      4418       4419       4430       4429       4539       4540       4551       4550  
      4419       4420       4431       4430       4540       4541       4552       4551  
      4420       4421       4432       4431       4541       4542       4553       4552  
      4421       4422       4433       4432       4542       4543       4554       4553  
      4423       4424       4435       4434       4544       4545       4556       4555  
      4424       4425       4436       4435       4545       4546       4557       4556  
      4425       4426       4437       4436       4546       4547       4558       4557  
      4426       4427       4438       4437       4547       4548       4559       4558  
      4427       4428       4439       4438       4548       4549       4560       4559  
      4428       4429       4440       4439       4549       4550       4561       4560  
      4429       4430       4441       4440       4550       4551       4562       4561  
      4430       4431       4442       4441       4551       4552       4563       4562  
      4431       4432       4443       4442       4552       4553       4564       4563  
      4432       4433       4444       4443       4553       4554       4565       4564  
      4434       4435       4446       4445       4555       4556       4567       4566  
      4435       4436       4447       4446       4556       4557       4568       4567  
      4436       4437       4448       4447       4557       4558       4569       4568  
      4437       4438       4449       4448       4558       4559       4570       4569  
      4438       4439       4450       4449       4559       4560       4571       4570  
      4439       4440       4451       4450       4560       4561       4572       4571  
      4440       4441       4452       4451       4561       4562       4573       4572  
      4441       4442       4453       4452       4562       4563       4574       4573  
      4442       4443       4454       4453       4563       4564       4575       4574  
      4443       4444       4455       4454       4564       4565       4576       4575  
      4445       4446       4457       4456       4566       4567       4578       4577  
      4446       4447       4458       4457       4567       4568       4579       4578  
      4447       4448       4459       4458       4568       4569       4580       4579  
      4448       4449       4460       4459       4569       4570       4581       4580  
      4449       4450       4461       4460       4570       4571       4582       4581  
      4450       4451       4462       4461       4571       4572       4583       4582  
      4451       4452       4463       4462       4572       4573       4584       4583  
      4452       4453       4464       4463       4573       4574       4585       4584  
      4453       4454       4465       4464       4574       4575       4586       4585  
      4454       4455       4466       4465       4575       4576       4587       4586  
      4456       4457       4468       4467       4577       4578       4589       4588  
      4457       4458       4469       4468       4578       4579       4590       4589  
      4458       4459       4470       4469       4579       4580       4591       4590  
      4459       4460       4471       4470       4580       4581       4592       4591  
      4460       4461       4472       4471       4581       4582       4593       4592  
      4461       4462       4473       4472       4582       4583       4594       4593  
      4462       4463       4474       4473       4583       4584       4595       4594  
      4463       4464       4475       4474       4584       4585       4596       4595  
      4464       4465       4476       4475       4585       4586       4597       4596  
      4465       4466       4477       4476       4586       4587       4598       4597  
      4478       4479       4490       4489       4599       4600       4611       4610  
      4479       4480       4491       4490       4600       4601       4612       4611  
      4480       4481       4492       4491       4601       4602       4613       4612  
      4481       4482       4493       4492       4602       4603       4614       4613  
      4482       4483       4494       4493       4603       4604       4615       4614  
      4483       4484       4495       4494       4604       4605       4616       4615  
      4484       4485       4496       4495       4605       4606       4617       4616  
      4485       4486       4497       4496       4606       4607       4618       4617  
      4486       4487       4498       4497       4607       4608       4619       4618  
      4487       4488       4499       4498       4608       4609       4620       4619  
      4489       4490       4501       4500       4610       4611       4622       4621  
      4490       4491       4502       4501       4611       4612       4623       4622  
      4491       4492       4503       4502       4612       4613       4624       4623  
      4492       4493       4504       4503       4613       4614       4625       4624  
      4493       4494       4505       4504       4614       4615       4626       4625  
      4494       4495       4506       4505       4615       4616       4627       4626  
      4495       4496       4507       4506       4616       4617       4628       4627  
      4496       4497       4508       4507       4617       4618       4629       4628  
      4497       4498       4509       4508       4618       4619       4630       4629  
      4498       4499       4510       4509       4619       4620       4631       4630  
      4500       4501       4512       4511       4621       4622       4633       4632  
      4501       4502       4513       4512       4622       4623       4634       4633  
      4502       4503       4514       4513       4623       4624       4635       4634  
      4503       4504       4515       4514       4624       4625       4636       4635  
      4504       4505       4516       4515       4625       4626       4637       4636  
      4505       4506       4517       4516       4626       4627       4638       4637  
      4506       4507       4518       4517       4627       4628       4639       4638  
      4507       4508       4519       4518       4628       4629       4640       4639  
      4508       4509       4520       4519       4629       4630       4641       4640  
      4509       4510       4521       4520       4630       4631       4642       4641  
      4511       4512       4523       4522       4632       4633       4644       4643  
      4512       4513       4524       4523       4633       4634       4645       4644  
      4513       4514       4525       4524       4634       4635       4646       4645  
      4514       4515       4526       4525       4635       4636       4647       4646  
      4515       4516       4527       4526       4636       4637       4648       4647  
      4516       4517       4528       4527       4637       4638       4649       4648  
      4517       4518       4529       4528       4638       4639       4650       4649  
      4518       4519       4530       4529       4639       4640       4651       4650  
      4519       4520       4531       4530       4640       4641       4652       4651  
      4520       4521       4532       4531       4641       4642       4653       4652  
      4522       4523       4534       4533       4643       4644       4655       4654  
      4523       4524       4535       4534       4644       4645       4656       4655  
      4524       4525       4536       4535       4645       4646       4657       4656  
      4525       4526       4537       4536       4646       4647       4658       4657  
      4526       4527       4538       4537       4647       4648       4659       4658  
      4527       4528       4539       4538       4648       4649       4660       4659  
      4528       4529       4540       4539       4649       4650       4661       4660  
      4529       4530       4541       4540       4650       4651       4662       4661  
      4530       4531       4542       4541       4651       4652       4663       4662  
      4531       4532       4543       4542       4652       4653       4664       4663  
      4533       4534       4545       4544       4654       4655       4666       4665  
      4534       4535       4546       4545       4655       4656       4667       4666  
      4535       4536       4547       4546       4656       4657       4668       4667  
      4536       4537       4548       4547       4657       4658       4669       4668  
      4537       4538       4549       4548       4658       4659       4670       4669  
      4538       4539       4550       4549       4659       4660       4671       4670  
      4539       4540       4551       4550       4660       4661       4672       4671  
      4540       4541       4552       4551       4661       4662       4673       4672  
      4541       4542       4553       4552       4662       4663       4674       4673  
      4542       4543       4554       4553       4663       4664       4675       4674  
      4544       4545       4556       4555       4665       4666       4677       4676  
      4545       4546       4557       4556       4666       4667       4678       4677  
      4546       4547       4558       4557       4667       4668       4679       4678  
      4547       4548       4559       4558       4668       4669       4680       4679  
      4548       4549       4560       4559       4669       4670       4681       4680  
      4549       4550       4561       4560       4670       4671       4682       4681  
      4550       4551       4562       4561       4671       4672       4683       4682  
      4551       4552       4563       4562       4672       4673       4684       4683  
      4552       4553       4564       4563       4673       4674       4685       4684  
      4553       4554       4565       4564       4674       4675       4686       4685  
      4555       4556       4567       4566       4676       4677       4688       4687  
      4556       4557       4568       4567       4677       4678       4689       4688  
      4557       4558       4569       4568       4678       4679       4690       4689  
      4558       4559       4570       4569       4679       4680       4691       4690  
      4559       4560       4571       4570       4680       4681       4692       4691  
      4560       4561       4572       4571       4681       4682       4693       4692  
      4561       4562       4573       4572       4682       4683       4694       4693  
      4562       4563       4574       4573       4683       4684       4695       4694  
      4563       4564       4575       4574       4684       4685       4696       4695  
      4564       4565       4576       4575       4685       4686       4697       4696  
      4566       4567       4578       4577       4687       4688       4699       4698  
      4567       4568       4579       4578       4688       4689       4700       4699  
      4568       4569       4580       4579       4689       4690       4701       4700  
      4569       4570       4581       4580       4690       4691       4702       4701  
      4570       4571       4582       4581       4691       4692       4703       4702  
      4571       4572       4583       4582       4692       4693       4704       4703  
      4572       4573       4584       4583       4693       4694       4705       4704  
      4573       4574       4585       4584       4694       4695       4706       4705  
      4574       4575       4586       4585       4695       4696       4707       4706  
      4575       4576       4587       4586       4696       4697       4708       4707  
      4577       4578       4589       4588       4698       4699       4710       4709  
      4578       4579       4590       4589       4699       4700       4711       4710  
      4579       4580       4591       4590       4700       4701       4712       4711  
      4580       4581       4592       4591       4701       4702       4713       4712  
      4581       4582       4593       4592       4702       4703       4714       4713  
      4582       4583       4594       4593       4703       4704       4715       4714  
      4583       4584       4595       4594       4704       4705       4716       4715  
      4584       4585       4596       4595       4705       4706       4717       4716  
      4585       4586       4597       4596       4706       4707       4718       4717  
      4586       4587       4598       4597       4707       4708       4719       4718  
      4599       4600       4611       4610       4720       4721       4732       4731  
      4600       4601       4612       4611       4721       4722       4733       4732  
      4601       4602       4613       4612       4722       4723       4734       4733  
      4602       4603       4614       4613       4723       4724       4735       4734  
      4603       4604       4615       4614       4724       4725       4736       4735  
      4604       4605       4616       4615       4725       4726       4737       4736  
      4605       4606       4617       4616       4726       4727       4738       4737  
      4606       4607       4618       4617       4727       4728       4739       4738  
      4607       4608       4619       4618       4728       4729       4740       4739  
      4608       4609       4620       4619       4729       4730       4741       4740  
      4610       4611       4622       4621       4731       4732       4743       4742  
      4611       4612       4623       4622       4732       4733       4744       4743  
      4612       4613       4624       4623       4733       4734       4745       4744  
      4613       4614       4625       4624       4734       4735       4746       4745  
      4614       4615       4626       4625       4735       4736       4747       4746  
      4615       4616       4627       4626       4736       4737       4748       4747  
      4616       4617       4628       4627       4737       4738       4749       4748  
      4617       4618       4629       4628       4738       4739       4750       4749  
      4618       4619       4630       4629       4739       4740       4751       4750  
      4619       4620       4631       4630       4740       4741       4752       4751  
      4621       4622       4633       4632       4742       4743       4754       4753  
      4622       4623       4634       4633       4743       4744       4755       4754  
      4623       4624       4635       4634       4744       4745       4756       4755  
      4624       4625       4636       4635       4745       4746       4757       4756  
      4625       4626       4637       4636       4746       4747       4758       4757  
      4626       4627       4638       4637       4747       4748       4759       4758  
      4627       4628       4639       4638       4748       4749       4760       4759  
      4628       4629       4640       4639       4749       4750       4761       4760  
      4629       4630       4641       4640       4750       4751       4762       4761  
      4630       4631       4642       4641       4751       4752       4763       4762  
      4632       4633       4644       4643       4753       4754       4765       4764  
      4633       4634       4645       4644       4754       4755       4766       4765  
      4634       4635       4646       4645       4755       4756       4767       4766  
      4635       4636       4647       4646       4756       4757       4768       4767  
      4636       4637       4648       4647       4757       4758       4769       4768  
      4637       4638       4649       4648       4758       4759       4770       4769  
      4638       4639       4650       4649       4759       4760       4771       4770  
      4639       4640       4651       4650       4760       4761       4772       4771  
      4640       4641       4652       4651       4761       4762       4773       4772  
      4641       4642       4653       4652       4762       4763       4774       4773  
      4643       4644       4655       4654       4764       4765       4776       4775  
      4644       4645       4656       4655       4765       4766       4777       4776  
      4645       4646       4657       4656       4766       4767       4778       4777  
      4646       4647       4658       4657       4767       4768       4779       4778  
      4647       4648       4659       4658       4768       4769       4780       4779  
      4648       4649       4660       4659       4769       4770       4781       4780  
      4649       4650       4661       4660       4770       4771       4782       4781  
      4650       4651       4662       4661       4771       4772       4783       4782  
      4651       4652       4663       4662       4772       4773       4784       4783  
      4652       4653       4664       4663       4773       4774       4785       4784  
      4654       4655       4666       4665       4775       4776       4787       4786  
      4655       4656       4667       4666       4776       4777       4788       4787  
      4656       4657       4668       4667       4777       4778       4789       4788  
      4657       4658       4669       4668       4778       4779       4790       4789  
      4658       4659       4670       4669       4779       4780       4791       4790  
      4659       4660       4671       4670       4780       4781       4792       4791  
      4660       4661       4672       4671       4781       4782       4793       4792  
      4661       4662       4673       4672       4782       4783       4794       4793  
      4662       4663       4674       4673       4783       4784       4795       4794  
      4663       4664       4675       4674       4784       4785       4796       4795  
      4665       4666       4677       4676       4786       4787       4798       4797  
      4666       4667       4678       4677       4787       4788       4799       4798  
      4667       4668       4679       4678       4788       4789       4800       4799  
      4668       4669       4680       4679       4789       4790       4801       4800  
      4669       4670       4681       4680       4790       4791       4802       4801  
      4670       4671       4682       4681       4791       4792       4803       4802  
      4671       4672       4683       4682       4792       4793       4804       4803  
      4672       4673       4684       4683       4793       4794       4805       4804  
      4673       4674       4685       4684       4794       4795       4806       4805  
      4674       4675       4686       4685       4795       4796       4807       4806  
      4676       4677       4688       4687       4797       4798       4809       4808  
      4677       4678       4689       4688       4798       4799       4810       4809  
      4678       4679       4690       4689       4799       4800       4811       4810  
      4679       4680       4691       4690       4800       4801       4812       4811  
      4680       4681       4692       4691       4801       4802       4813       4812  
      4681       4682       4693       4692       4802       4803       4814       4813  
      4682       4683       4694       4693       4803       4804       4815       4814  
      4683       4684       4695       4694       4804       4805       4816       4815  
      4684       4685       4696       4695       4805       4806       4817       4816  
      4685       4686       4697       4696       4806       4807       4818       4817  
      4687       4688       4699       4698       4808       4809       4820       4819  
      4688       4689       4700       4699       4809       4810       4821       4820  
      4689       4690       4701       4700       4810       4811       4822       4821  
      4690       4691       4702       4701       4811       4812       4823       4822  
      4691       4692       4703       4702       4812       4813       4824       4823  
      4692       4693       4704       4703       4813       4814       4825       4824  
      4693       4694       4705       4704       4814       4815       4826       4825  
      4694       4695       4706       4705       4815       4816       4827       4826  
      4695       4696       4707       4706       4816       4817       4828       4827  
      4696       4697       4708       4707       4817       4818       4829       4828  
      4698       4699       4710       4709       4819       4820       4831       4830  
      4699       4700       4711       4710       4820       4821       4832       4831  
      4700       4701       4712       4711       4821       4822       4833       4832  
      4701       4702       4713       4712       4822       4823       4834       4833  
      4702       4703       4714       4713       4823       4824       4835       4834  
      4703       4704       4715       4714       4824       4825       4836       4835  
      4704       4705       4716       4715       4825       4826       4837       4836  
      4705       4706       4717       4716       4826       4827       4838       4837  
      4706       4707       4718       4717       4827       4828       4839       4838  
      4707       4708       4719       4718       4828       4829       4840       4839  
      4720       4721       4732       4731       4841       4842       4853       4852  
      4721       4722       4733       4732       4842       4843       4854       4853  
      4722       4723       4734       4733       4843       4844       4855       4854  
      4723       4724       4735       4734       4844       4845       4856       4855  
      4724       4725       4736       4735       4845       4846       4857       4856  
      4725       4726       4737       4736       4846       4847       4858       4857  
      4726       4727       4738       4737       4847       4848       4859       4858  
      4727       4728       4739       4738       4848       4849       4860       4859  
      4728       4729       4740       4739       4849       4850       4861       4860  
      4729       4730       4741       4740       4850       4851       4862       4861  
      4731       4732       4743       4742       4852       4853       4864       4863  
      4732       4733       4744       4743       4853       4854       4865       4864  
      4733       4734       4745       4744       4854       4855       4866       4865  
      4734       4735       4746       4745       4855       4856       4867       4866  
      4735       4736       4747       4746       4856       4857       4868       4867  
      4736       4737       4748       4747       4857       4858       4869       4868  
      4737       4738       4749       4748       4858       4859       4870       4869  
      4738       4739       4750       4749       4859       4860       4871       4870  
      4739       4740       4751       4750       4860       4861       4872       4871  
      4740       4741       4752       4751       4861       4862       4873       4872  
      4742       4743       4754       4753       4863       4864       4875       4874  
      4743       4744       4755       4754       4864       4865       4876       4875  
      4744       4745       4756       4755       4865       4866       4877       4876  
      4745       4746       4757       4756       4866       4867       4878       4877  
      4746       4747       4758       4757       4867       4868       4879       4878  
      4747       4748       4759       4758       4868       4869       4880       4879  
      4748       4749       4760       4759       4869       4870       4881       4880  
      4749       4750       4761       4760       4870       4871       4882       4881  
      4750       4751       4762       4761       4871       4872       4883       4882  
      4751       4752       4763       4762       4872       4873       4884       4883  
      4753       4754       4765       4764       4874       4875       4886       4885  
      4754       4755       4766       4765       4875       4876       4887       4886  
      4755       4756       4767       4766       4876       4877       4888       4887  
      4756       4757       4768       4767       4877       4878       4889       4888  
      4757       4758       4769       4768       4878       4879       4890       4889  
      4758       4759       4770       4769       4879       4880       4891       4890  
      4759       4760       4771       4770       4880       4881       4892       4891  
      4760       4761       4772       4771       4881       4882       4893       4892  
      4761       4762       4773       4772       4882       4883       4894       4893  
      4762       4763       4774       4773       4883       4884       4895       4894  
      4764       4765       4776       4775       4885       4886       4897       4896  
      4765       4766       4777       4776       4886       4887       4898       4897  
      4766       4767       4778       4777       4887       4888       4899       4898  
      4767       4768       4779       4778       4888       4889       4900       4899  
      4768       4769       4780       4779       4889       4890       4901       4900  
      4769       4770       4781       4780       4890       4891       4902       4901  
      4770       4771       4782       4781       4891       4892       4903       4902  
      4771       4772       4783       4782       4892       4893       4904       4903  
      4772       4773       4784       4783       4893       4894       4905       4904  
      4773       4774       4785       4784       4894       4895       4906       4905  
      4775       4776       4787       4786       4896       4897       4908       4907  
      4776       4777       4788       4787       4897       4898       4909       4908  
      4777       4778       4789       4788       4898       4899       4910       4909  
      4778       4779       4790       4789       4899       4900       4911       4910  
      4779       4780       4791       4790       4900       4901       4912       4911  
      4780       4781       4792       4791       4901       4902       4913       4912  
      4781       4782       4793       4792       4902       4903       4914       4913  
      4782       4783       4794       4793       4903       4904       4915       4914  
      4783       4784       4795       4794       4904       4905       4916       4915  
      4784       4785       4796       4795       4905       4906       4917       4916  
      4786       4787       4798       4797       4907       4908       4919       4918  
      4787       4788       4799       4798       4908       4909       4920       4919  
      4788       4789       4800       4799       4909       4910       4921       4920  
      4789       4790       4801       4800       4910       4911       4922       4921  
      4790       4791       4802       4801       4911       4912       4923       4922  
      4791       4792       4803       4802       4912       4913       4924       4923  
      4792       4793       4804       4803       4913       4914       4925       4924  
      4793       4794       4805       4804       4914       4915       4926       4925  
      4794       4795       4806       4805       4915       4916       4927       4926  
      4795       4796       4807       4806       4916       4917       4928       4927  
      4797       4798       4809       4808       4918       4919       4930       4929  
      4798       4799       4810       4809       4919       4920       4931       4930  
      4799       4800       4811       4810       4920       4921       4932       4931  
      4800       4801       4812       4811       4921       4922       4933       4932  
      4801       4802       4813       4812       4922       4923       4934       4933  
      4802       4803       4814       4813       4923       4924       4935       4934  
      4803       4804       4815       4814       4924       4925       4936       4935  
      4804       4805       4816       4815       4925       4926       4937       4936  
      4805       4806       4817       4816       4926       4927       4938       4937  
      4806       4807       4818       4817       4927       4928       4939       4938  
      4808       4809       4820       4819       4929       4930       4941       4940  
      4809       4810       4821       4820       4930       4931       4942       4941  
      4810       4811       4822       4821       4931       4932       4943       4942  
      4811       4812       4823       4822       4932       4933       4944       4943  
      4812       4813       4824       4823       4933       4934       4945       4944  
      4813       4814       4825       4824       4934       4935       4946       4945  
      4814       4815       4826       4825       4935       4936       4947       4946  
      4815       4816       4827       4826       4936       4937       4948       4947  
      4816       4817       4828       4827       4937       4938       4949       4948  
      4817       4818       4829       4828       4938       4939       4950       4949  
      4819       4820       4831       4830       4940       4941       4952       4951  
      4820       4821       4832       4831       4941       4942       4953       4952  
      4821       4822       4833       4832       4942       4943       4954       4953  
      4822       4823       4834       4833       4943       4944       4955       4954  
      4823       4824       4835       4834       4944       4945       4956       4955  
      4824       4825       4836       4835       4945       4946       4957       4956  
      4825       4826       4837       4836       4946       4947       4958       4957  
      4826       4827       4838       4837       4947       4948       4959       4958  
      4827       4828       4839       4838       4948       4949       4960       4959  
      4828       4829       4840       4839       4949       4950       4961       4960  
      4841       4842       4853       4852       4962       4963       4974       4973  
      4842       4843       4854       4853       4963       4964       4975       4974  
      4843       4844       4855       4854       4964       4965       4976       4975  
      4844       4845       4856       4855       4965       4966       4977       4976  
      4845       4846       4857       4856       4966       4967       4978       4977  
      4846       4847       4858       4857       4967       4968       4979       4978  
      4847       4848       4859       4858       4968       4969       4980       4979  
      4848       4849       4860       4859       4969       4970       4981       4980  
      4849       4850       4861       4860       4970       4971       4982       4981  
      4850       4851       4862       4861       4971       4972       4983       4982  
      4852       4853       4864       4863       4973       4974       4985       4984  
      4853       4854       4865       4864       4974       4975       4986       4985  
      4854       4855       4866       4865       4975       4976       4987       4986  
      4855       4856       4867       4866       4976       4977       4988       4987  
      4856       4857       4868       4867       4977       4978       4989       4988  
      4857       4858       4869       4868       4978       4979       4990       4989  
      4858       4859       4870       4869       4979       4980       4991       4990  
      4859       4860       4871       4870       4980       4981       4992       4991  
      4860       4861       4872       4871       4981       4982       4993       4992  
      4861       4862       4873       4872       4982       4983       4994       4993  
      4863       4864       4875       4874       4984       4985       4996       4995  
      4864       4865       4876       4875       4985       4986       4997       4996  
      4865       4866       4877       4876       4986       4987       4998       4997  
      4866       4867       4878       4877       4987       4988       4999       4998  
      4867       4868       4879       4878       4988       4989       5000       4999  
      4868       4869       4880       4879       4989       4990       5001       5000  
      4869       4870       4881       4880       4990       4991       5002       5001  
      4870       4871       4882       4881       4991       4992       5003       5002  
      4871       4872       4883       4882       4992       4993       5004       5003  
      4872       4873       4884       4883       4993       4994       5005       5004  
      4874       4875       4886       4885       4995       4996       5007       5006  
      4875       4876       4887       4886       4996       4997       5008       5007  
      4876       4877       4888       4887       4997       4998       5009       5008  
      4877       4878       4889       4888       4998       4999       5010       5009  
      4878       4879       4890       4889       4999       5000       5011       5010  
      4879       4880       4891       4890       5000       5001       5012       5011  
      4880       4881       4892       4891       5001       5002       5013       5012  
      4881       4882       4893       4892       5002       5003       5014       5013  
      4882       4883       4894       4893       5003       5004       5015       5014  
      4883       4884       4895       4894       5004       5005       5016       5015  
      4885       4886       4897       4896       5006       5007       5018       5017  
      4886       4887       4898       4897       5007       5008       5019       5018  
      4887       4888       4899       4898       5008       5009       5020       5019  
      4888       4889       4900       4899       5009       5010       5021       5020  
      4889       4890       4901       4900       5010       5011       5022       5021  
      4890       4891       4902       4901       5011       5012       5023       5022  
      4891       4892       4903       4902       5012       5013       5024       5023  
      4892       4893       4904       4903       5013       5014       5025       5024  
      4893       4894       4905       4904       5014       5015       5026       5025  
      4894       4895       4906       4905       5015       5016       5027       5026  
      4896       4897       4908       4907       5017       5018       5029       5028  
      4897       4898       4909       4908       5018       5019       5030       5029  
      4898       4899       4910       4909       5019       5020       5031       5030  
      4899       4900       4911       4910       5020       5021       5032       5031  
      4900       4901       4912       4911       5021       5022       5033       5032  
      4901       4902       4913       4912       5022       5023       5034       5033  
      4902       4903       4914       4913       5023       5024       5035       5034  
      4903       4904       4915       4914       5024       5025       5036       5035  
      4904       4905       4916       4915       5025       5026       5037       5036  
      4905       4906       4917       4916       5026       5027       5038       5037  
      4907       4908       4919       4918       5028       5029       5040       5039  
      4908       4909       4920       4919       5029       5030       5041       5040  
      4909       4910       4921       4920       5030       5031       5042       5041  
      4910       4911       4922       4921       5031       5032       5043       5042  
      4911       4912       4923       4922       5032       5033       5044       5043  
      4912       4913       4924       4923       5033       5034       5045       5044  
      4913       4914       4925       4924       5034       5035       5046       5045  
      4914       4915       4926       4925       5035       5036       5047       5046  
      4915       4916       4927       4926       5036       5037       5048       5047  
      4916       4917       4928       4927       5037       5038       5049       5048  
      4918       4919       4930       4929       5039       5040       5051       5050  
      4919       4920       4931       4930       5040       5041       5052       5051  
      4920       4921       4932       4931       5041       5042       5053       5052  
      4921       4922       4933       4932       5042       5043       5054       5053  
      4922       4923       4934       4933       5043       5044       5055       5054  
      4923       4924       4935       4934       5044       5045       5056       5055  
      4924       4925       4936       4935       5045       5046       5057       5056  
      4925       4926       4937       4936       5046       5047       5058       5057  
      4926       4927       4938       4937       5047       5048       5059       5058  
      4927       4928       4939       4938       5048       5049       5060       5059  
      4929       4930       4941       4940       5050       5051       5062       5061  
      4930       4931       4942       4941       5051       5052       5063       5062  
      4931       4932       4943       4942       5052       5053       5064       5063  
      4932       4933       4944       4943       5053       5054       5065       5064  
      4933       4934       4945       4944       5054       5055       5066       5065  
      4934       4935       4946       4945       5055       5056       5067       5066  
      4935       4936       4947       4946       5056       5057       5068       5067  
      4936       4937       4948       4947       5057       5058       5069       5068  
      4937       4938       4949       4948       5058       5059       5070       5069  
      4938       4939       4950       4949       5059       5060       5071       5070  
      4940       4941       4952       4951       5061       5062       5073       5072  
      4941       4942       4953       4952       5062       5063       5074       5073  
      4942       4943       4954       4953       5063       5064       5075       5074  
      4943       4944       4955       4954       5064       5065       5076       5075  
      4944       4945       4956       4955       5065       5066       5077       5076  
      4945       4946       4957       4956       5066       5067       5078       5077  
      4946       4947       4958       4957       5067       5068       5079       5078  
      4947       4948       4959       4958       5068       5069       5080       5079  
      4948       4949       4960       4959       5069       5070       5081       5080  
      4949       4950       4961       4960       5070       5071       5082       5081  
      4962       4963       4974       4973       5083       5084       5095       5094  
      4963       4964       4975       4974       5084       5085       5096       5095  
      4964       4965       4976       4975       5085       5086       5097       5096  
      4965       4966       4977       4976       5086       5087       5098       5097  
      4966       4967       4978       4977       5087       5088       5099       5098  
      4967       4968       4979       4978       5088       5089       5100       5099  
      4968       4969       4980       4979       5089       5090       5101       5100  
      4969       4970       4981       4980       5090       5091       5102       5101  
      4970       4971       4982       4981       5091       5092       5103       5102  
      4971       4972       4983       4982       5092       5093       5104       5103  
      4973       4974       4985       4984       5094       5095       5106       5105  
      4974       4975       4986       4985       5095       5096       5107       5106  
      4975       4976       4987       4986       5096       5097       5108       5107  
      4976       4977       4988       4987       5097       5098       5109       5108  
      4977       4978       4989       4988       5098       5099       5110       5109  
      4978       4979       4990       4989       5099       5100       5111       5110  
      4979       4980       4991       4990       5100       5101       5112       5111  
      4980       4981       4992       4991       5101       5102       5113       5112  
      4981       4982       4993       4992       5102       5103       5114       5113  
      4982       4983       4994       4993       5103       5104       5115       5114  
      4984       4985       4996       4995       5105       5106       5117       5116  
      4985       4986       4997       4996       5106       5107       5118       5117  
      4986       4987       4998       4997       5107       5108       5119       5118  
      4987       4988       4999       4998       5108       5109       5120       5119  
      4988       4989       5000       4999       5109       5110       5121       5120  
      4989       4990       5001       5000       5110       5111       5122       5121  
      4990       4991       5002       5001       5111       5112       5123       5122  
      4991       4992       5003       5002       5112       5113       5124       5123  
      4992       4993       5004       5003       5113       5114       5125       5124  
      4993       4994       5005       5004       5114       5115       5126       5125  
      4995       4996       5007       5006       5116       5117       5128       5127  
      4996       4997       5008       5007       5117       5118       5129       5128  
      4997       4998       5009       5008       5118       5119       5130       5129  
      4998       4999       5010       5009       5119       5120       5131       5130  
      4999       5000       5011       5010       5120       5121       5132       5131  
      5000       5001       5012       5011       5121       5122       5133       5132  
      5001       5002       5013       5012       5122       5123       5134       5133  
      5002       5003       5014       5013       5123       5124       5135       5134  
      5003       5004       5015       5014       5124       5125       5136       5135  
      5004       5005       5016       5015       5125       5126       5137       5136  
      5006       5007       5018       5017       5127       5128       5139       5138  
      5007       5008       5019       5018       5128       5129       5140       5139  
      5008       5009       5020       5019       5129       5130       5141       5140  
      5009       5010       5021       5020       5130       5131       5142       5141  
      5010       5011       5022       5021       5131       5132       5143       5142  
      5011       5012       5023       5022       5132       5133       5144       5143  
      5012       5013       5024       5023       5133       5134       5145       5144  
      5013       5014       5025       5024       5134       5135       5146       5145  
      5014       5015       5026       5025       5135       5136       5147       5146  
      5015       5016       5027       5026       5136       5137       5148       5147  
      5017       5018       5029       5028       5138       5139       5150       5149  
      5018       5019       5030       5029       5139       5140       5151       5150  
      5019       5020       5031       5030       5140       5141       5152       5151  
      5020       5021       5032       5031       5141       5142       5153       5152  
      5021       5022       5033       5032       5142       5143       5154       5153  
      5022       5023       5034       5033       5143       5144       5155       5154  
      5023       5024       5035       5034       5144       5145       5156       5155  
      5024       5025       5036       5035       5145       5146       5157       5156  
      5025       5026       5037       5036       5146       5147       5158       5157  
      5026       5027       5038       5037       5147       5148       5159       5158  
      5028       5029       5040       5039       5149       5150       5161       5160  
      5029       5030       5041       5040       5150       5151       5162       5161  
      5030       5031       5042       5041       5151       5152       5163       5162  
      5031       5032       5043       5042       5152       5153       5164       5163  
      5032       5033       5044       5043       5153       5154       5165       5164  
      5033       5034       5045       5044       5154       5155       5166       5165  
      5034       5035       5046       5045       5155       5156       5167       5166  
      5035       5036       5047       5046       5156       5157       5168       5167  
      5036       5037       5048       5047       5157       5158       5169       5168  
      5037       5038       5049       5048       5158       5159       5170       5169  
      5039       5040       5051       5050       5160       5161       5172       5171  
      5040       5041       5052       5051       5161       5162       5173       5172  
      5041       5042       5053       5052       5162       5163       5174       5173  
      5042       5043       5054       5053       5163       5164       5175       5174  
      5043       5044       5055       5054       5164       5165       5176       5175  
      5044       5045       5056       5055       5165       5166       5177       5176  
      5045       5046       5057       5056       5166       5167       5178       5177  
      5046       5047       5058       5057       5167       5168       5179       5178  
      5047       5048       5059       5058       5168       5169       5180       5179  
      5048       5049       5060       5059       5169       5170       5181       5180  
      5050       5051       5062       5061       5171       5172       5183       5182  
      5051       5052       5063       5062       5172       5173       5184       5183  
      5052       5053       5064       5063       5173       5174       5185       5184  
      5053       5054       5065       5064       5174       5175       5186       5185  
      5054       5055       5066       5065       5175       5176       5187       5186  
      5055       5056       5067       5066       5176       5177       5188       5187  
      5056       5057       5068       5067       5177       5178       5189       5188  
      5057       5058       5069       5068       5178       5179       5190       5189  
      5058       5059       5070       5069       5179       5180       5191       5190  
      5059       5060       5071       5070       5180       5181       5192       5191  
      5061       5062       5073       5072       5182       5183       5194       5193  
      5062       5063       5074       5073       5183       5184       5195       5194  
      5063       5064       5075       5074       5184       5185       5196       5195  
      5064       5065       5076       5075       5185       5186       5197       5196  
      5065       5066       5077       5076       5186       5187       5198       5197  
      5066       5067       5078       5077       5187       5188       5199       5198  
      5067       5068       5079       5078       5188       5189       5200       5199  
      5068       5069       5080       5079       5189       5190       5201       5200  
      5069       5070       5081       5080       5190       5191       5202       5201  
      5070       5071       5082       5081       5191       5192       5203       5202  
      5083       5084       5095       5094       5204       5205       5216       5215  
      5084       5085       5096       5095       5205       5206       5217       5216  
      5085       5086       5097       5096       5206       5207       5218       5217  
      5086       5087       5098       5097       5207       5208       5219       5218  
      5087       5088       5099       5098       5208       5209       5220       5219  
      5088       5089       5100       5099       5209       5210       5221       5220  
      5089       5090       5101       5100       5210       5211       5222       5221  
      5090       5091       5102       5101       5211       5212       5223       5222  
      5091       5092       5103       5102       5212       5213       5224       5223  
      5092       5093       5104       5103       5213       5214       5225       5224  
      5094       5095       5106       5105       5215       5216       5227       5226  
      5095       5096       5107       5106       5216       5217       5228       5227  
      5096       5097       5108       5107       5217       5218       5229       5228  
      5097       5098       5109       5108       5218       5219       5230       5229  
      5098       5099       5110       5109       5219       5220       5231       5230  
      5099       5100       5111       5110       5220       5221       5232       5231  
      5100       5101       5112       5111       5221       5222       5233       5232  
      5101       5102       5113       5112       5222       5223       5234       5233  
      5102       5103       5114       5113       5223       5224       5235       5234  
      5103       5104       5115       5114       5224       5225       5236       5235  
      5105       5106       5117       5116       5226       5227       5238       5237  
      5106       5107       5118       5117       5227       5228       5239       5238  
      5107       5108       5119       5118       5228       5229       5240       5239  
      5108       5109       5120       5119       5229       5230       5241       5240  
      5109       5110       5121       5120       5230       5231       5242       5241  
      5110       5111       5122       5121       5231       5232       5243       5242  
      5111       5112       5123       5122       5232       5233       5244       5243  
      5112       5113       5124       5123       5233       5234       5245       5244  
      5113       5114       5125       5124       5234       5235       5246       5245  
      5114       5115       5126       5125       5235       5236       5247       5246  
      5116       5117       5128       5127       5237       5238       5249       5248  
      5117       5118       5129       5128       5238       5239       5250       5249  
      5118       5119       5130       5129       5239       5240       5251       5250  
      5119       5120       5131       5130       5240       5241       5252       5251  
      5120       5121       5132       5131       5241       5242       5253       5252  
      5121       5122       5133       5132       5242       5243       5254       5253  
      5122       5123       5134       5133       5243       5244       5255       5254  
      5123       5124       5135       5134       5244       5245       5256       5255  
      5124       5125       5136       5135       5245       5246       5257       5256  
      5125       5126       5137       5136       5246       5247       5258       5257  
      5127       5128       5139       5138       5248       5249       5260       5259  
      5128       5129       5140       5139       5249       5250       5261       5260  
      5129       5130       5141       5140       5250       5251       5262       5261  
      5130       5131       5142       5141       5251       5252       5263       5262  
      5131       5132       5143       5142       5252       5253       5264       5263  
      5132       5133       5144       5143       5253       5254       5265       5264  
      5133       5134       5145       5144       5254       5255       5266       5265  
      5134       5135       5146       5145       5255       5256       5267       5266  
      5135       5136       5147       5146       5256       5257       5268       5267  
      5136       5137       5148       5147       5257       5258       5269       5268  
      5138       5139       5150       5149       5259       5260       5271       5270  
      5139       5140       5151       5150       5260       5261       5272       5271  
      5140       5141       5152       5151       5261       5262       5273       5272  
      5141       5142       5153       5152       5262       5263       5274       5273  
      5142       5143       5154       5153       5263       5264       5275       5274  
      5143       5144       5155       5154       5264       5265       5276       5275  
      5144       5145       5156       5155       5265       5266       5277       5276  
      5145       5146       5157       5156       5266       5267       5278       5277  
      5146       5147       5158       5157       5267       5268       5279       5278  
      5147       5148       5159       5158       5268       5269       5280       5279  
      5149       5150       5161       5160       5270       5271       5282       5281  
      5150       5151       5162       5161       5271       5272       5283       5282  
      5151       5152       5163       5162       5272       5273       5284       5283  
      5152       5153       5164       5163       5273       5274       5285       5284  
      5153       5154       5165       5164       5274       5275       5286       5285  
      5154       5155       5166       5165       5275       5276       5287       5286  
      5155       5156       5167       5166       5276       5277       5288       5287  
      5156       5157       5168       5167       5277       5278       5289       5288  
      5157       5158       5169       5168       5278       5279       5290       5289  
      5158       5159       5170       5169       5279       5280       5291       5290  
      5160       5161       5172       5171       5281       5282       5293       5292  
      5161       5162       5173       5172       5282       5283       5294       5293  
      5162       5163       5174       5173       5283       5284       5295       5294  
      5163       5164       5175       5174       5284       5285       5296       5295  
      5164       5165       5176       5175       5285       5286       5297       5296  
      5165       5166       5177       5176       5286       5287       5298       5297  
      5166       5167       5178       5177       5287       5288       5299       5298  
      5167       5168       5179       5178       5288       5289       5300       5299  
      5168       5169       5180       5179       5289       5290       5301       5300  
      5169       5170       5181       5180       5290       5291       5302       5301  
      5171       5172       5183       5182       5292       5293       5304       5303  
      5172       5173       5184       5183       5293       5294       5305       5304  
      5173       5174       5185       5184       5294       5295       5306       5305  
      5174       5175       5186       5185       5295       5296       5307       5306  
      5175       5176       5187       5186       5296       5297       5308       5307  
      5176       5177       5188       5187       5297       5298       5309       5308  
      5177       5178       5189       5188       5298       5299       5310       5309  
      5178       5179       5190       5189       5299       5300       5311       5310  
      5179       5180       5191       5190       5300       5301       5312       5311  
      5180       5181       5192       5191       5301       5302       5313       5312  
      5182       5183       5194       5193       5303       5304       5315       5314  
      5183       5184       5195       5194       5304       5305       5316       5315  
      5184       5185       5196       5195       5305       5306       5317       5316  
      5185       5186       5197       5196       5306       5307       5318       5317  
      5186       5187       5198       5197       5307       5308       5319       5318  
      5187       5188       5199       5198       5308       5309       5320       5319  
      5188       5189       5200       5199       5309       5310       5321       5320  
      5189       5190       5201       5200       5310       5311       5322       5321  
      5190       5191       5202       5201       5311       5312       5323       5322  
      5191       5192       5203       5202       5312       5313       5324       5323  
      5204       5205       5216       5215       5325       5326       5337       5336  
      5205       5206       5217       5216       5326       5327       5338       5337  
      5206       5207       5218       5217       5327       5328       5339       5338  
      5207       5208       5219       5218       5328       5329       5340       5339  
      5208       5209       5220       5219       5329       5330       5341       5340  
      5209       5210       5221       5220       5330       5331       5342       5341  
      5210       5211       5222       5221       5331       5332       5343       5342  
      5211       5212       5223       5222       5332       5333       5344       5343  
      5212       5213       5224       5223       5333       5334       5345       5344  
      5213       5214       5225       5224       5334       5335       5346       5345  
      5215       5216       5227       5226       5336       5337       5348       5347  
      5216       5217       5228       5227       5337       5338       5349       5348  
      5217       5218       5229       5228       5338       5339       5350       5349  
      5218       5219       5230       5229       5339       5340       5351       5350  
      5219       5220       5231       5230       5340       5341       5352       5351  
      5220       5221       5232       5231       5341       5342       5353       5352  
      5221       5222       5233       5232       5342       5343       5354       5353  
      5222       5223       5234       5233       5343       5344       5355       5354  
      5223       5224       5235       5234       5344       5345       5356       5355  
      5224       5225       5236       5235       5345       5346       5357       5356  
      5226       5227       5238       5237       5347       5348       5359       5358  
      5227       5228       5239       5238       5348       5349       5360       5359  
      5228       5229       5240       5239       5349       5350       5361       5360  
      5229       5230       5241       5240       5350       5351       5362       5361  
      5230       5231       5242       5241       5351       5352       5363       5362  
      5231       5232       5243       5242       5352       5353       5364       5363  
      5232       5233       5244       5243       5353       5354       5365       5364  
      5233       5234       5245       5244       5354       5355       5366       5365  
      5234       5235       5246       5245       5355       5356       5367       5366  
      5235       5236       5247       5246       5356       5357       5368       5367  
      5237       5238       5249       5248       5358       5359       5370       5369  
      5238       5239       5250       5249       5359       5360       5371       5370  
      5239       5240       5251       5250       5360       5361       5372       5371  
      5240       5241       5252       5251       5361       5362       5373       5372  
      5241       5242       5253       5252       5362       5363       5374       5373  
      5242       5243       5254       5253       5363       5364       5375       5374  
      5243       5244       5255       5254       5364       5365       5376       5375  
      5244       5245       5256       5255       5365       5366       5377       5376  
      5245       5246       5257       5256       5366       5367       5378       5377  
      5246       5247       5258       5257       5367       5368       5379       5378  
      5248       5249       5260       5259       5369       5370       5381       5380  
      5249       5250       5261       5260       5370       5371       5382       5381  
      5250       5251       5262       5261       5371       5372       5383       5382  
      5251       5252       5263       5262       5372       5373       5384       5383  
      5252       5253       5264       5263       5373       5374       5385       5384  
      5253       5254       5265       5264       5374       5375       5386       5385  
      5254       5255       5266       5265       5375       5376       5387       5386  
      5255       5256       5267       5266       5376       5377       5388       5387  
      5256       5257       5268       5267       5377       5378       5389       5388  
      5257       5258       5269       5268       5378       5379       5390       5389  
      5259       5260       5271       5270       5380       5381       5392       5391  
      5260       5261       5272       5271       5381       5382       5393       5392  
      5261       5262       5273       5272       5382       5383       5394       5393  
      5262       5263       5274       5273       5383       5384       5395       5394  
      5263       5264       5275       5274       5384       5385       5396       5395  
      5264       5265       5276       5275       5385       5386       5397       5396  
      5265       5266       5277       5276       5386       5387       5398       5397  
      5266       5267       5278       5277       5387       5388       5399       5398  
      5267       5268       5279       5278       5388       5389       5400       5399  
      5268       5269       5280       5279       5389       5390       5401       5400  
      5270       5271       5282       5281       5391       5392       5403       5402  
      5271       5272       5283       5282       5392       5393       5404       5403  
      5272       5273       5284       5283       5393       5394       5405       5404  
      5273       5274       5285       5284       5394       5395       5406       5405  
      5274       5275       5286       5285       5395       5396       5407       5406  
      5275       5276       5287       5286       5396       5397       5408       5407  
      5276       5277       5288       5287       5397       5398       5409       5408  
      5277       5278       5289       5288       5398       5399       5410       5409  
      5278       5279       5290       5289       5399       5400       5411       5410  
      5279       5280       5291       5290       5400       5401       5412       5411  
      5281       5282       5293       5292       5402       5403       5414       5413  
      5282       5283       5294       5293       5403       5404       5415       5414  
      5283       5284       5295       5294       5404       5405       5416       5415  
      5284       5285       5296       5295       5405       5406       5417       5416  
      5285       5286       5297       5296       5406       5407       5418       5417  
      5286       5287       5298       5297       5407       5408       5419       5418  
      5287       5288       5299       5298       5408       5409       5420       5419  
      5288       5289       5300       5299       5409       5410       5421       5420  
      5289       5290       5301       5300       5410       5411       5422       5421  
      5290       5291       5302       5301       5411       5412       5423       5422  
      5292       5293       5304       5303       5413       5414       5425       5424  
      5293       5294       5305       5304       5414       5415       5426       5425  
      5294       5295       5306       5305       5415       5416       5427       5426  
      5295       5296       5307       5306       5416       5417       5428       5427  
      5296       5297       5308       5307       5417       5418       5429       5428  
      5297       5298       5309       5308       5418       5419       5430       5429  
      5298       5299       5310       5309       5419       5420       5431       5430  
      5299       5300       5311       5310       5420       5421       5432       5431  
      5300       5301       5312       5311       5421       5422       5433       5432  
      5301       5302       5313       5312       5422       5423       5434       5433  
      5303       5304       5315       5314       5424       5425       5436       5435  
      5304       5305       5316       5315       5425       5426       5437       5436  
      5305       5306       5317       5316       5426       5427       5438       5437  
      5306       5307       5318       5317       5427       5428       5439       5438  
      5307       5308       5319       5318       5428       5429       5440       5439  
      5308       5309       5320       5319       5429       5430       5441       5440  
      5309       5310       5321       5320       5430       5431       5442       5441  
      5310       5311       5322       5321       5431       5432       5443       5442  
      5311       5312       5323       5322       5432       5433       5444       5443  
      5312       5313       5324       5323       5433       5434       5445       5444  
      5325       5326       5337       5336       5446       5447       5458       5457  
      5326       5327       5338       5337       5447       5448       5459       5458  
      5327       5328       5339       5338       5448       5449       5460       5459  
      5328       5329       5340       5339       5449       5450       5461       5460  
      5329       5330       5341       5340       5450       5451       5462       5461  
      5330       5331       5342       5341       5451       5452       5463       5462  
      5331       5332       5343       5342       5452       5453       5464       5463  
      5332       5333       5344       5343       5453       5454       5465       5464  
      5333       5334       5345       5344       5454       5455       5466       5465  
      5334       5335       5346       5345       5455       5456       5467       5466  
      5336       5337       5348       5347       5457       5458       5469       5468  
      5337       5338       5349       5348       5458       5459       5470       5469  
      5338       5339       5350       5349       5459       5460       5471       5470  
      5339       5340       5351       5350       5460       5461       5472       5471  
      5340       5341       5352       5351       5461       5462       5473       5472  
      5341       5342       5353       5352       5462       5463       5474       5473  
      5342       5343       5354       5353       5463       5464       5475       5474  
      5343       5344       5355       5354       5464       5465       5476       5475  
      5344       5345       5356       5355       5465       5466       5477       5476  
      5345       5346       5357       5356       5466       5467       5478       5477  
      5347       5348       5359       5358       5468       5469       5480       5479  
      5348       5349       5360       5359       5469       5470       5481       5480  
      5349       5350       5361       5360       5470       5471       5482       5481  
      5350       5351       5362       5361       5471       5472       5483       5482  
      5351       5352       5363       5362       5472       5473       5484       5483  
      5352       5353       5364       5363       5473       5474       5485       5484  
      5353       5354       5365       5364       5474       5475       5486       5485  
      5354       5355       5366       5365       5475       5476       5487       5486  
      5355       5356       5367       5366       5476       5477       5488       5487  
      5356       5357       5368       5367       5477       5478       5489       5488  
      5358       5359       5370       5369       5479       5480       5491       5490  
      5359       5360       5371       5370       5480       5481       5492       5491  
      5360       5361       5372       5371       5481       5482       5493       5492  
      5361       5362       5373       5372       5482       5483       5494       5493  
      5362       5363       5374       5373       5483       5484       5495       5494  
      5363       5364       5375       5374       5484       5485       5496       5495  
      5364       5365       5376       5375       5485       5486       5497       5496  
      5365       5366       5377       5376       5486       5487       5498       5497  
      5366       5367       5378       5377       5487       5488       5499       5498  
      5367       5368       5379       5378       5488       5489       5500       5499  
      5369       5370       5381       5380       5490       5491       5502       5501  
      5370       5371       5382       5381       5491       5492       5503       5502  
      5371       5372       5383       5382       5492       5493       5504       5503  
      5372       5373       5384       5383       5493       5494       5505       5504  
      5373       5374       5385       5384       5494       5495       5506       5505  
      5374       5375       5386       5385       5495       5496       5507       5506  
      5375       5376       5387       5386       5496       5497       5508       5507  
      5376       5377       5388       5387       5497       5498       5509       5508  
      5377       5378       5389       5388       5498       5499       5510       5509  
      5378       5379       5390       5389       5499       5500       5511       5510  
      5380       5381       5392       5391       5501       5502       5513       5512  
      5381       5382       5393       5392       5502       5503       5514       5513  
      5382       5383       5394       5393       5503       5504       5515       5514  
      5383       5384       5395       5394       5504       5505       5516       5515  
      5384       5385       5396       5395       5505       5506       5517       5516  
      5385       5386       5397       5396       5506       5507       5518       5517  
      5386       5387       5398       5397       5507       5508       5519       5518  
      5387       5388       5399       5398       5508       5509       5520       5519  
      5388       5389       5400       5399       5509       5510       5521       5520  
      5389       5390       5401       5400       5510       5511       5522       5521  
      5391       5392       5403       5402       5512       5513       5524       5523  
      5392       5393       5404       5403       5513       5514       5525       5524  
      5393       5394       5405       5404       5514       5515       5526       5525  
      5394       5395       5406       5405       5515       5516       5527       5526  
      5395       5396       5407       5406       5516       5517       5528       5527  
      5396       5397       5408       5407       5517       5518       5529       5528  
      5397       5398       5409       5408       5518       5519       5530       5529  
      5398       5399       5410       5409       5519       5520       5531       5530  
      5399       5400       5411       5410       5520       5521       5532       5531  
      5400       5401       5412       5411       5521       5522       5533       5532  
      5402       5403       5414       5413       5523       5524       5535       5534  
      5403       5404       5415       5414       5524       5525       5536       5535  
      5404       5405       5416       5415       5525       5526       5537       5536  
      5405       5406       5417       5416       5526       5527       5538       5537  
      5406       5407       5418       5417       5527       5528       5539       5538  
      5407       5408       5419       5418       5528       5529       5540       5539  
      5408       5409       5420       5419       5529       5530       5541       5540  
      5409       5410       5421       5420       5530       5531       5542       5541  
      5410       5411       5422       5421       5531       5532       5543       5542  
      5411       5412       5423       5422       5532       5533       5544       5543  
      5413       5414       5425       5424       5534       5535       5546       5545  
      5414       5415       5426       5425       5535       5536       5547       5546  
      5415       5416       5427       5426       5536       5537       5548       5547  
      5416       5417       5428       5427       5537       5538       5549       5548  
      5417       5418       5429       5428       5538       5539       5550       5549  
      5418       5419       5430       5429       5539       5540       5551       5550  
      5419       5420       5431       5430       5540       5541       5552       5551  
      5420       5421       5432       5431       5541       5542       5553       5552  
      5421       5422       5433       5432       5542       5543       5554       5553  
      5422       5423       5434       5433       5543       5544       5555       5554  
      5424       5425       5436       5435       5545       5546       5557       5556  
      5425       5426       5437       5436       5546       5547       5558       5557  
      5426       5427       5438       5437       5547       5548       5559       5558  
      5427       5428       5439       5438       5548       5549       5560       5559  
      5428       5429       5440       5439       5549       5550       5561       5560  
      5429       5430       5441       5440       5550       5551       5562       5561  
      5430       5431       5442       5441       5551       5552       5563       5562  
      5431       5432       5443       5442       5552       5553       5564       5563  
      5432       5433       5444       5443       5553       5554       5565       5564  
      5433       5434       5445       5444       5554       5555       5566       5565  
      5446       5447       5458       5457       5567       5568       5579       5578  
      5447       5448       5459       5458       5568       5569       5580       5579  
      5448       5449       5460       5459       5569       5570       5581       5580  
      5449       5450       5461       5460       5570       5571       5582       5581  
      5450       5451       5462       5461       5571       5572       5583       5582  
      5451       5452       5463       5462       5572       5573       5584       5583  
      5452       5453       5464       5463       5573       5574       5585       5584  
      5453       5454       5465       5464       5574       5575       5586       5585  
      5454       5455       5466       5465       5575       5576       5587       5586  
      5455       5456       5467       5466       5576       5577       5588       5587  
      5457       5458       5469       5468       5578       5579       5590       5589  
      5458       5459       5470       5469       5579       5580       5591       5590  
      5459       5460       5471       5470       5580       5581       5592       5591  
      5460       5461       5472       5471       5581       5582       5593       5592  
      5461       5462       5473       5472       5582       5583       5594       5593  
      5462       5463       5474       5473       5583       5584       5595       5594  
      5463       5464       5475       5474       5584       5585       5596       5595  
      5464       5465       5476       5475       5585       5586       5597       5596  
      5465       5466       5477       5476       5586       5587       5598       5597  
      5466       5467       5478       5477       5587       5588       5599       5598  
      5468       5469       5480       5479       5589       5590       5601       5600  
      5469       5470       5481       5480       5590       5591       5602       5601  
      5470       5471       5482       5481       5591       5592       5603       5602  
      5471       5472       5483       5482       5592       5593       5604       5603  
      5472       5473       5484       5483       5593       5594       5605       5604  
      5473       5474       5485       5484       5594       5595       5606       5605  
      5474       5475       5486       5485       5595       5596       5607       5606  
      5475       5476       5487       5486       5596       5597       5608       5607  
      5476       5477       5488       5487       5597       5598       5609       5608  
      5477       5478       5489       5488       5598       5599       5610       5609  
      5479       5480       5491       5490       5600       5601       5612       5611  
      5480       5481       5492       5491       5601       5602       5613       5612  
      5481       5482       5493       5492       5602       5603       5614       5613  
      5482       5483       5494       5493       5603       5604       5615       5614  
      5483       5484       5495       5494       5604       5605       5616       5615  
      5484       5485       5496       5495       5605       5606       5617       5616  
      5485       5486       5497       5496       5606       5607       5618       5617  
      5486       5487       5498       5497       5607       5608       5619       5618  
      5487       5488       5499       5498       5608       5609       5620       5619  
      5488       5489       5500       5499       5609       5610       5621       5620  
      5490       5491       5502       5501       5611       5612       5623       5622  
      5491       5492       5503       5502       5612       5613       5624       5623  
      5492       5493       5504       5503       5613       5614       5625       5624  
      5493       5494       5505       5504       5614       5615       5626       5625  
      5494       5495       5506       5505       5615       5616       5627       5626  
      5495       5496       5507       5506       5616       5617       5628       5627  
      5496       5497       5508       5507       5617       5618       5629       5628  
      5497       5498       5509       5508       5618       5619       5630       5629  
      5498       5499       5510       5509       5619       5620       5631       5630  
      5499       5500       5511       5510       5620       5621       5632       5631  
      5501       5502       5513       5512       5622       5623       5634       5633  
      5502       5503       5514       5513       5623       5624       5635       5634  
      5503       5504       5515       5514       5624       5625       5636       5635  
      5504       5505       5516       5515       5625       5626       5637       5636  
      5505       5506       5517       5516       5626       5627       5638       5637  
      5506       5507       5518       5517       5627       5628       5639       5638  
      5507       5508       5519       5518       5628       5629       5640       5639  
      5508       5509       5520       5519       5629       5630       5641       5640  
      5509       5510       5521       5520       5630       5631       5642       5641  
      5510       5511       5522       5521       5631       5632       5643       5642  
      5512       5513       5524       5523       5633       5634       5645       5644  
      5513       5514       5525       5524       5634       5635       5646       5645  
      5514       5515       5526       5525       5635       5636       5647       5646  
      5515       5516       5527       5526       5636       5637       5648       5647  
      5516       5517       5528       5527       5637       5638       5649       5648  
      5517       5518       5529       5528       5638       5639       5650       5649  
      5518       5519       5530       5529       5639       5640       5651       5650  
      5519       5520       5531       5530       5640       5641       5652       5651  
      5520       5521       5532       5531       5641       5642       5653       5652  
      5521       5522       5533       5532       5642       5643       5654       5653  
      5523       5524       5535       5534       5644       5645       5656       5655  
      5524       5525       5536       5535       5645       5646       5657       5656  
      5525       5526       5537       5536       5646       5647       5658       5657  
      5526       5527       5538       5537       5647       5648       5659       5658  
      5527       5528       5539       5538       5648       5649       5660       5659  
      5528       5529       5540       5539       5649       5650       5661       5660  
      5529       5530       5541       5540       5650       5651       5662       5661  
      5530       5531       5542       5541       5651       5652       5663       5662  
      5531       5532       5543       5542       5652       5653       5664       5663  
      5532       5533       5544       5543       5653       5654       5665       5664  
      5534       5535       5546       5545       5655       5656       5667       5666  
      5535       5536       5547       5546       5656       5657       5668       5667  
      5536       5537       5548       5547       5657       5658       5669       5668  
      5537       5538       5549       5548       5658       5659       5670       5669  
      5538       5539       5550       5549       5659       5660       5671       5670  
      5539       5540       5551       5550       5660       5661       5672       5671  
      5540       5541       5552       5551       5661       5662       5673       5672  
      5541       5542       5553       5552       5662       5663       5674       5673  
      5542       5543       5554       5553       5663       5664       5675       5674  
      5543       5544       5555       5554       5664       5665       5676       5675  
      5545       5546       5557       5556       5666       5667       5678       5677  
      5546       5547       5558       5557       5667       5668       5679       5678  
      5547       5548       5559       5558       5668       5669       5680       5679  
      5548       5549       5560       5559       5669       5670       5681       5680  
      5549       5550       5561       5560       5670       5671       5682       5681  
      5550       5551       5562       5561       5671       5672       5683       5682  
      5551       5552       5563       5562       5672       5673       5684       5683  
      5552       5553       5564       5563       5673       5674       5685       5684  
      5553       5554       5565       5564       5674       5675       5686       5685  
      5554       5555       5566       5565       5675       5676       5687       5686  
      5567       5568       5579       5578       5688       5689       5700       5699  
      5568       5569       5580       5579       5689       5690       5701       5700  
      5569       5570       5581       5580       5690       5691       5702       5701  
      5570       5571       5582       5581       5691       5692       5703       5702  
      5571       5572       5583       5582       5692       5693       5704       5703  
      5572       5573       5584       5583       5693       5694       5705       5704  
      5573       5574       5585       5584       5694       5695       5706       5705  
      5574       5575       5586       5585       5695       5696       5707       5706  
      5575       5576       5587       5586       5696       5697       5708       5707  
      5576       5577       5588       5587       5697       5698       5709       5708  
      5578       5579       5590       5589       5699       5700       5711       5710  
      5579       5580       5591       5590       5700       5701       5712       5711  
      5580       5581       5592       5591       5701       5702       5713       5712  
      5581       5582       5593       5592       5702       5703       5714       5713  
      5582       5583       5594       5593       5703       5704       5715       5714  
      5583       5584       5595       5594       5704       5705       5716       5715  
      5584       5585       5596       5595       5705       5706       5717       5716  
      5585       5586       5597       5596       5706       5707       5718       5717  
      5586       5587       5598       5597       5707       5708       5719       5718  
      5587       5588       5599       5598       5708       5709       5720       5719  
      5589       5590       5601       5600       5710       5711       5722       5721  
      5590       5591       5602       5601       5711       5712       5723       5722  
      5591       5592       5603       5602       5712       5713       5724       5723  
      5592       5593       5604       5603       5713       5714       5725       5724  
      5593       5594       5605       5604       5714       5715       5726       5725  
      5594       5595       5606       5605       5715       5716       5727       5726  
      5595       5596       5607       5606       5716       5717       5728       5727  
      5596       5597       5608       5607       5717       5718       5729       5728  
      5597       5598       5609       5608       5718       5719       5730       5729  
      5598       5599       5610       5609       5719       5720       5731       5730  
      5600       5601       5612       5611       5721       5722       5733       5732  
      5601       5602       5613       5612       5722       5723       5734       5733  
      5602       5603       5614       5613       5723       5724       5735       5734  
      5603       5604       5615       5614       5724       5725       5736       5735  
      5604       5605       5616       5615       5725       5726       5737       5736  
      5605       5606       5617       5616       5726       5727       5738       5737  
      5606       5607       5618       5617       5727       5728       5739       5738  
      5607       5608       5619       5618       5728       5729       5740       5739  
      5608       5609       5620       5619       5729       5730       5741       5740  
      5609       5610       5621       5620       5730       5731       5742       5741  
      5611       5612       5623       5622       5732       5733       5744       5743  
      5612       5613       5624       5623       5733       5734       5745       5744  
      5613       5614       5625       5624       5734       5735       5746       5745  
      5614       5615       5626       5625       5735       5736       5747       5746  
      5615       5616       5627       5626       5736       5737       5748       5747  
      5616       5617       5628       5627       5737       5738       5749       5748  
      5617       5618       5629       5628       5738       5739       5750       5749  
      5618       5619       5630       5629       5739       5740       5751       5750  
      5619       5620       5631       5630       5740       5741       5752       5751  
      5620       5621       5632       5631       5741       5742       5753       5752  
      5622       5623       5634       5633       5743       5744       5755       5754  
      5623       5624       5635       5634       5744       5745       5756       5755  
      5624       5625       5636       5635       5745       5746       5757       5756  
      5625       5626       5637       5636       5746       5747       5758       5757  
      5626       5627       5638       5637       5747       5748       5759       5758  
      5627       5628       5639       5638       5748       5749       5760       5759  
      5628       5629       5640       5639       5749       5750       5761       5760  
      5629       5630       5641       5640       5750       5751       5762       5761  
      5630       5631       5642       5641       5751       5752       5763       5762  
      5631       5632       5643       5642       5752       5753       5764       5763  
      5633       5634       5645       5644       5754       5755       5766       5765  
      5634       5635       5646       5645       5755       5756       5767       5766  
      5635       5636       5647       5646       5756       5757       5768       5767  
      5636       5637       5648       5647       5757       5758       5769       5768  
      5637       5638       5649       5648       5758       5759       5770       5769  
      5638       5639       5650       5649       5759       5760       5771       5770  
      5639       5640       5651       5650       5760       5761       5772       5771  
      5640       5641       5652       5651       5761       5762       5773       5772  
      5641       5642       5653       5652       5762       5763       5774       5773  
      5642       5643       5654       5653       5763       5764       5775       5774  
      5644       5645       5656       5655       5765       5766       5777       5776  
      5645       5646       5657       5656       5766       5767       5778       5777  
      5646       5647       5658       5657       5767       5768       5779       5778  
      5647       5648       5659       5658       5768       5769       5780       5779  
      5648       5649       5660       5659       5769       5770       5781       5780  
      5649       5650       5661       5660       5770       5771       5782       5781  
      5650       5651       5662       5661       5771       5772       5783       5782  
      5651       5652       5663       5662       5772       5773       5784       5783  
      5652       5653       5664       5663       5773       5774       5785       5784  
      5653       5654       5665       5664       5774       5775       5786       5785  
      5655       5656       5667       5666       5776       5777       5788       5787  
      5656       5657       5668       5667       5777       5778       5789       5788  
      5657       5658       5669       5668       5778       5779       5790       5789  
      5658       5659       5670       5669       5779       5780       5791       5790  
      5659       5660       5671       5670       5780       5781       5792       5791  
      5660       5661       5672       5671       5781       5782       5793       5792  
      5661       5662       5673       5672       5782       5783       5794       5793  
      5662       5663       5674       5673       5783       5784       5795       5794  
      5663       5664       5675       5674       5784       5785       5796       5795  
      5664       5665       5676       5675       5785       5786       5797       5796  
      5666       5667       5678       5677       5787       5788       5799       5798  
      5667       5668       5679       5678       5788       5789       5800       5799  
      5668       5669       5680       5679       5789       5790       5801       5800  
      5669       5670       5681       5680       5790       5791       5802       5801  
      5670       5671       5682       5681       5791       5792       5803       5802  
      5671       5672       5683       5682       5792       5793       5804       5803  
      5672       5673       5684       5683       5793       5794       5805       5804  
      5673       5674       5685       5684       5794       5795       5806       5805  
      5674       5675       5686       5685       5795       5796       5807       5806  
      5675       5676       5687       5686       5796       5797       5808       5807  
      5688       5689       5700       5699       5809       5810       5821       5820  
      5689       5690       5701       5700       5810       5811       5822       5821  
      5690       5691       5702       5701       5811       5812       5823       5822  
      5691       5692       5703       5702       5812       5813       5824       5823  
      5692       5693       5704       5703       5813       5814       5825       5824  
      5693       5694       5705       5704       5814       5815       5826       5825  
      5694       5695       5706       5705       5815       5816       5827       5826  
      5695       5696       5707       5706       5816       5817       5828       5827  
      5696       5697       5708       5707       5817       5818       5829       5828  
      5697       5698       5709       5708       5818       5819       5830       5829  
      5699       5700       5711       5710       5820       5821       5832       5831  
      5700       5701       5712       5711       5821       5822       5833       5832  
      5701       5702       5713       5712       5822       5823       5834       5833  
      5702       5703       5714       5713       5823       5824       5835       5834  
      5703       5704       5715       5714       5824       5825       5836       5835  
      5704       5705       5716       5715       5825       5826       5837       5836  
      5705       5706       5717       5716       5826       5827       5838       5837  
      5706       5707       5718       5717       5827       5828       5839       5838  
      5707       5708       5719       5718       5828       5829       5840       5839  
      5708       5709       5720       5719       5829       5830       5841       5840  
      5710       5711       5722       5721       5831       5832       5843       5842  
      5711       5712       5723       5722       5832       5833       5844       5843  
      5712       5713       5724       5723       5833       5834       5845       5844  
      5713       5714       5725       5724       5834       5835       5846       5845  
      5714       5715       5726       5725       5835       5836       5847       5846  
      5715       5716       5727       5726       5836       5837       5848       5847  
      5716       5717       5728       5727       5837       5838       5849       5848  
      5717       5718       5729       5728       5838       5839       5850       5849  
      5718       5719       5730       5729       5839       5840       5851       5850  
      5719       5720       5731       5730       5840       5841       5852       5851  
      5721       5722       5733       5732       5842       5843       5854       5853  
      5722       5723       5734       5733       5843       5844       5855       5854  
      5723       5724       5735       5734       5844       5845       5856       5855  
      5724       5725       5736       5735       5845       5846       5857       5856  
      5725       5726       5737       5736       5846       5847       5858       5857  
      5726       5727       5738       5737       5847       5848       5859       5858  
      5727       5728       5739       5738       5848       5849       5860       5859  
      5728       5729       5740       5739       5849       5850       5861       5860  
      5729       5730       5741       5740       5850       5851       5862       5861  
      5730       5731       5742       5741       5851       5852       5863       5862  
      5732       5733       5744       5743       5853       5854       5865       5864  
      5733       5734       5745       5744       5854       5855       5866       5865  
      5734       5735       5746       5745       5855       5856       5867       5866  
      5735       5736       5747       5746       5856       5857       5868       5867  
      5736       5737       5748       5747       5857       5858       5869       5868  
      5737       5738       5749       5748       5858       5859       5870       5869  
      5738       5739       5750       5749       5859       5860       5871       5870  
      5739       5740       5751       5750       5860       5861       5872       5871  
      5740       5741       5752       5751       5861       5862       5873       5872  
      5741       5742       5753       5752       5862       5863       5874       5873  
      5743       5744       5755       5754       5864       5865       5876       5875  
      5744       5745       5756       5755       5865       5866       5877       5876  
      5745       5746       5757       5756       5866       5867       5878       5877  
      5746       5747       5758       5757       5867       5868       5879       5878  
      5747       5748       5759       5758       5868       5869       5880       5879  
      5748       5749       5760       5759       5869       5870       5881       5880  
      5749       5750       5761       5760       5870       5871       5882       5881  
      5750       5751       5762       5761       5871       5872       5883       5882  
      5751       5752       5763       5762       5872       5873       5884       5883  
      5752       5753       5764       5763       5873       5874       5885       5884  
      5754       5755       5766       5765       5875       5876       5887       5886  
      5755       5756       5767       5766       5876       5877       5888       5887  
      5756       5757       5768       5767       5877       5878       5889       5888  
      5757       5758       5769       5768       5878       5879       5890       5889  
      5758       5759       5770       5769       5879       5880       5891       5890  
      5759       5760       5771       5770       5880       5881       5892       5891  
      5760       5761       5772       5771       5881       5882       5893       5892  
      5761       5762       5773       5772       5882       5883       5894       5893  
      5762       5763       5774       5773       5883       5884       5895       5894  
      5763       5764       5775       5774       5884       5885       5896       5895  
      5765       5766       5777       5776       5886       5887       5898       5897  
      5766       5767       5778       5777       5887       5888       5899       5898  
      5767       5768       5779       5778       5888       5889       5900       5899  
      5768       5769       5780       5779       5889       5890       5901       5900  
      5769       5770       5781       5780       5890       5891       5902       5901  
      5770       5771       5782       5781       5891       5892       5903       5902  
      5771       5772       5783       5782       5892       5893       5904       5903  
      5772       5773       5784       5783       5893       5894       5905       5904  
      5773       5774       5785       5784       5894       5895       5906       5905  
      5774       5775       5786       5785       5895       5896       5907       5906  
      5776       5777       5788       5787       5897       5898       5909       5908  
      5777       5778       5789       5788       5898       5899       5910       5909  
      5778       5779       5790       5789       5899       5900       5911       5910  
      5779       5780       5791       5790       5900       5901       5912       5911  
      5780       5781       5792       5791       5901       5902       5913       5912  
      5781       5782       5793       5792       5902       5903       5914       5913  
      5782       5783       5794       5793       5903       5904       5915       5914  
      5783       5784       5795       5794       5904       5905       5916       5915  
      5784       5785       5796       5795       5905       5906       5917       5916  
      5785       5786       5797       5796       5906       5907       5918       5917  
      5787       5788       5799       5798       5908       5909       5920       5919  
      5788       5789       5800       5799       5909       5910       5921       5920  
      5789       5790       5801       5800       5910       5911       5922       5921  
      5790       5791       5802       5801       5911       5912       5923       5922  
      5791       5792       5803       5802       5912       5913       5924       5923  
      5792       5793       5804       5803       5913       5914       5925       5924  
      5793       5794       5805       5804       5914       5915       5926       5925  
      5794       5795       5806       5805       5915       5916       5927       5926  
      5795       5796       5807       5806       5916       5917       5928       5927  
      5796       5797       5808       5807       5917       5918       5929       5928  
      5809       5810       5821       5820       5930       5931       5942       5941  
      5810       5811       5822       5821       5931       5932       5943       5942  
      5811       5812       5823       5822       5932       5933       5944       5943  
      5812       5813       5824       5823       5933       5934       5945       5944  
      5813       5814       5825       5824       5934       5935       5946       5945  
      5814       5815       5826       5825       5935       5936       5947       5946  
      5815       5816       5827       5826       5936       5937       5948       5947  
      5816       5817       5828       5827       5937       5938       5949       5948  
      5817       5818       5829       5828       5938       5939       5950       5949  
      5818       5819       5830       5829       5939       5940       5951       5950  
      5820       5821       5832       5831       5941       5942       5953       5952  
      5821       5822       5833       5832       5942       5943       5954       5953  
      5822       5823       5834       5833       5943       5944       5955       5954  
      5823       5824       5835       5834       5944       5945       5956       5955  
      5824       5825       5836       5835       5945       5946       5957       5956  
      5825       5826       5837       5836       5946       5947       5958       5957  
      5826       5827       5838       5837       5947       5948       5959       5958  
      5827       5828       5839       5838       5948       5949       5960       5959  
      5828       5829       5840       5839       5949       5950       5961       5960  
      5829       5830       5841       5840       5950       5951       5962       5961  
      5831       5832       5843       5842       5952       5953       5964       5963  
      5832       5833       5844       5843       5953       5954       5965       5964  
      5833       5834       5845       5844       5954       5955       5966       5965  
      5834       5835       5846       5845       5955       5956       5967       5966  
      5835       5836       5847       5846       5956       5957       5968       5967  
      5836       5837       5848       5847       5957       5958       5969       5968  
      5837       5838       5849       5848       5958       5959       5970       5969  
      5838       5839       5850       5849       5959       5960       5971       5970  
      5839       5840       5851       5850       5960       5961       5972       5971  
      5840       5841       5852       5851       5961       5962       5973       5972  
      5842       5843       5854       5853       5963       5964       5975       5974  
      5843       5844       5855       5854       5964       5965       5976       5975  
      5844       5845       5856       5855       5965       5966       5977       5976  
      5845       5846       5857       5856       5966       5967       5978       5977  
      5846       5847       5858       5857       5967       5968       5979       5978  
      5847       5848       5859       5858       5968       5969       5980       5979  
      5848       5849       5860       5859       5969       5970       5981       5980  
      5849       5850       5861       5860       5970       5971       5982       5981  
      5850       5851       5862       5861       5971       5972       5983       5982  
      5851       5852       5863       5862       5972       5973       5984       5983  
      5853       5854       5865       5864       5974       5975       5986       5985  
      5854       5855       5866       5865       5975       5976       5987       5986  
      5855       5856       5867       5866       5976       5977       5988       5987  
      5856       5857       5868       5867       5977       5978       5989       5988  
      5857       5858       5869       5868       5978       5979       5990       5989  
      5858       5859       5870       5869       5979       5980       5991       5990  
      5859       5860       5871       5870       5980       5981       5992       5991  
      5860       5861       5872       5871       5981       5982       5993       5992  
      5861       5862       5873       5872       5982       5983       5994       5993  
      5862       5863       5874       5873       5983       5984       5995       5994  
      5864       5865       5876       5875       5985       5986       5997       5996  
      5865       5866       5877       5876       5986       5987       5998       5997  
      5866       5867       5878       5877       5987       5988       5999       5998  
      5867       5868       5879       5878       5988       5989       6000       5999  
      5868       5869       5880       5879       5989       5990       6001       6000  
      5869       5870       5881       5880       5990       5991       6002       6001  
      5870       5871       5882       5881       5991       5992       6003       6002  
      5871       5872       5883       5882       5992       5993       6004       6003  
      5872       5873       5884       5883       5993       5994       6005       6004  
      5873       5874       5885       5884       5994       5995       6006       6005  
      5875       5876       5887       5886       5996       5997       6008       6007  
      5876       5877       5888       5887       5997       5998       6009       6008  
      5877       5878       5889       5888       5998       5999       6010       6009  
      5878       5879       5890       5889       5999       6000       6011       6010  
      5879       5880       5891       5890       6000       6001       6012       6011  
      5880       5881       5892       5891       6001       6002       6013       6012  
      5881       5882       5893       5892       6002       6003       6014       6013  
      5882       5883       5894       5893       6003       6004       6015       6014  
      5883       5884       5895       5894       6004       6005       6016       6015  
      5884       5885       5896       5895       6005       6006       6017       6016  
      5886       5887       5898       5897       6007       6008       6019       6018  
      5887       5888       5899       5898       6008       6009       6020       6019  
      5888       5889       5900       5899       6009       6010       6021       6020  
      5889       5890       5901       5900       6010       6011       6022       6021  
      5890       5891       5902       5901       6011       6012       6023       6022  
      5891       5892       5903       5902       6012       6013       6024       6023  
      5892       5893       5904       5903       6013       6014       6025       6024  
      5893       5894       5905       5904       6014       6015       6026       6025  
      5894       5895       5906       5905       6015       6016       6027       6026  
      5895       5896       5907       5906       6016       6017       6028       6027  
      5897       5898       5909       5908       6018       6019       6030       6029  
      5898       5899       5910       5909       6019       6020       6031       6030  
      5899       5900       5911       5910       6020       6021       6032       6031  
      5900       5901       5912       5911       6021       6022       6033       6032  
      5901       5902       5913       5912       6022       6023       6034       6033  
      5902       5903       5914       5913       6023       6024       6035       6034  
      5903       5904       5915       5914       6024       6025       6036       6035  
      5904       5905       5916       5915       6025       6026       6037       6036  
      5905       5906       5917       5916       6026       6027       6038       6037  
      5906       5907       5918       5917       6027       6028       6039       6038  
      5908       5909       5920       5919       6029       6030       6041       6040  
      5909       5910       5921       5920       6030       6031       6042       6041  
      5910       5911       5922       5921       6031       6032       6043       6042  
      5911       5912       5923       5922       6032       6033       6044       6043  
      5912       5913       5924       5923       6033       6034       6045       6044  
      5913       5914       5925       5924       6034       6035       6046       6045  
      5914       5915       5926       5925       6035       6036       6047       6046  
      5915       5916       5927       5926       6036       6037       6048       6047  
      5916       5917       5928       5927       6037       6038       6049       6048  
      5917       5918       5929       5928       6038       6039       6050       6049  
      5930       5931       5942       5941       6051       6052       6063       6062  
      5931       5932       5943       5942       6052       6053       6064       6063  
      5932       5933       5944       5943       6053       6054       6065       6064  
      5933       5934       5945       5944       6054       6055       6066       6065  
      5934       5935       5946       5945       6055       6056       6067       6066  
      5935       5936       5947       5946       6056       6057       6068       6067  
      5936       5937       5948       5947       6057       6058       6069       6068  
      5937       5938       5949       5948       6058       6059       6070       6069  
      5938       5939       5950       5949       6059       6060       6071       6070  
      5939       5940       5951       5950       6060       6061       6072       6071  
      5941       5942       5953       5952       6062       6063       6074       6073  
      5942       5943       5954       5953       6063       6064       6075       6074  
      5943       5944       5955       5954       6064       6065       6076       6075  
      5944       5945       5956       5955       6065       6066       6077       6076  
      5945       5946       5957       5956       6066       6067       6078       6077  
      5946       5947       5958       5957       6067       6068       6079       6078  
      5947       5948       5959       5958       6068       6069       6080       6079  
      5948       5949       5960       5959       6069       6070       6081       6080  
      5949       5950       5961       5960       6070       6071       6082       6081  
      5950       5951       5962       5961       6071       6072       6083       6082  
      5952       5953       5964       5963       6073       6074       6085       6084  
      5953       5954       5965       5964       6074       6075       6086       6085  
      5954       5955       5966       5965       6075       6076       6087       6086  
      5955       5956       5967       5966       6076       6077       6088       6087  
      5956       5957       5968       5967       6077       6078       6089       6088  
      5957       5958       5969       5968       6078       6079       6090       6089  
      5958       5959       5970       5969       6079       6080       6091       6090  
      5959       5960       5971       5970       6080       6081       6092       6091  
      5960       5961       5972       5971       6081       6082       6093       6092  
      5961       5962       5973       5972       6082       6083       6094       6093  
      5963       5964       5975       5974       6084       6085       6096       6095  
      5964       5965       5976       5975       6085       6086       6097       6096  
      5965       5966       5977       5976       6086       6087       6098       6097  
      5966       5967       5978       5977       6087       6088       6099       6098  
      5967       5968       5979       5978       6088       6089       6100       6099  
      5968       5969       5980       5979       6089       6090       6101       6100  
      5969       5970       5981       5980       6090       6091       6102       6101  
      5970       5971       5982       5981       6091       6092       6103       6102  
      5971       5972       5983       5982       6092       6093       6104       6103  
      5972       5973       5984       5983       6093       6094       6105       6104  
      5974       5975       5986       5985       6095       6096       6107       6106  
      5975       5976       5987       5986       6096       6097       6108       6107  
      5976       5977       5988       5987       6097       6098       6109       6108  
      5977       5978       5989       5988       6098       6099       6110       6109  
      5978       5979       5990       5989       6099       6100       6111       6110  
      5979       5980       5991       5990       6100       6101       6112       6111  
      5980       5981       5992       5991       6101       6102       6113       6112  
      5981       5982       5993       5992       6102       6103       6114       6113  
      5982       5983       5994       5993       6103       6104       6115       6114  
      5983       5984       5995       5994       6104       6105       6116       6115  
      5985       5986       5997       5996       6106       6107       6118       6117  
      5986       5987       5998       5997       6107       6108       6119       6118  
      5987       5988       5999       5998       6108       6109       6120       6119  
      5988       5989       6000       5999       6109       6110       6121       6120  
      5989       5990       6001       6000       6110       6111       6122       6121  
      5990       5991       6002       6001       6111       6112       6123       6122  
      5991       5992       6003       6002       6112       6113       6124       6123  
      5992       5993       6004       6003       6113       6114       6125       6124  
      5993       5994       6005       6004       6114       6115       6126       6125  
      5994       5995       6006       6005       6115       6116       6127       6126  
      5996       5997       6008       6007       6117       6118       6129       6128  
      5997       5998       6009       6008       6118       6119       6130       6129  
      5998       5999       6010       6009       6119       6120       6131       6130  
      5999       6000       6011       6010       6120       6121       6132       6131  
      6000       6001       6012       6011       6121       6122       6133       6132  
      6001       6002       6013       6012       6122       6123       6134       6133  
      6002       6003       6014       6013       6123       6124       6135       6134  
      6003       6004       6015       6014       6124       6125       6136       6135  
      6004       6005       6016       6015       6125       6126       6137       6136  
      6005       6006       6017       6016       6126       6127       6138       6137  
      6007       6008       6019       6018       6128       6129       6140       6139  
      6008       6009       6020       6019       6129       6130       6141       6140  
      6009       6010       6021       6020       6130       6131       6142       6141  
      6010       6011       6022       6021       6131       6132       6143       6142  
      6011       6012       6023       6022       6132       6133       6144       6143  
      6012       6013       6024       6023       6133       6134       6145       6144  
      6013       6014       6025       6024       6134       6135       6146       6145  
      6014       6015       6026       6025       6135       6136       6147       6146  
      6015       6016       6027       6026       6136       6137       6148       6147  
      6016       6017       6028       6027       6137       6138       6149       6148  
      6018       6019       6030       6029       6139       6140       6151       6150  
      6019       6020       6031       6030       6140       6141       6152       6151  
      6020       6021       6032       6031       6141       6142       6153       6152  
      6021       6022       6033       6032       6142       6143       6154       6153  
      6022       6023       6034       6033       6143       6144       6155       6154  
      6023       6024       6035       6034       6144       6145       6156       6155  
      6024       6025       6036       6035       6145       6146       6157       6156  
      6025       6026       6037       6036       6146       6147       6158       6157  
      6026       6027       6038       6037       6147       6148       6159       6158  
      6027       6028       6039       6038       6148       6149       6160       6159  
      6029       6030       6041       6040       6150       6151       6162       6161  
      6030       6031       6042       6041       6151       6152       6163       6162  
      6031       6032       6043       6042       6152       6153       6164       6163  
      6032       6033       6044       6043       6153       6154       6165       6164  
      6033       6034       6045       6044       6154       6155       6166       6165  
      6034       6035       6046       6045       6155       6156       6167       6166  
      6035       6036       6047       6046       6156       6157       6168       6167  
      6036       6037       6048       6047       6157       6158       6169       6168  
      6037       6038       6049       6048       6158       6159       6170       6169  
      6038       6039       6050       6049       6159       6160       6171       6170  
      6051       6052       6063       6062       6172       6173       6184       6183  
      6052       6053       6064       6063       6173       6174       6185       6184  
      6053       6054       6065       6064       6174       6175       6186       6185  
      6054       6055       6066       6065       6175       6176       6187       6186  
      6055       6056       6067       6066       6176       6177       6188       6187  
      6056       6057       6068       6067       6177       6178       6189       6188  
      6057       6058       6069       6068       6178       6179       6190       6189  
      6058       6059       6070       6069       6179       6180       6191       6190  
      6059       6060       6071       6070       6180       6181       6192       6191  
      6060       6061       6072       6071       6181       6182       6193       6192  
      6062       6063       6074       6073       6183       6184       6195       6194  
      6063       6064       6075       6074       6184       6185       6196       6195  
      6064       6065       6076       6075       6185       6186       6197       6196  
      6065       6066       6077       6076       6186       6187       6198       6197  
      6066       6067       6078       6077       6187       6188       6199       6198  
      6067       6068       6079       6078       6188       6189       6200       6199  
      6068       6069       6080       6079       6189       6190       6201       6200  
      6069       6070       6081       6080       6190       6191       6202       6201  
      6070       6071       6082       6081       6191       6192       6203       6202  
      6071       6072       6083       6082       6192       6193       6204       6203  
      6073       6074       6085       6084       6194       6195       6206       6205  
      6074       6075       6086       6085       6195       6196       6207       6206  
      6075       6076       6087       6086       6196       6197       6208       6207  
      6076       6077       6088       6087       6197       6198       6209       6208  
      6077       6078       6089       6088       6198       6199       6210       6209  
      6078       6079       6090       6089       6199       6200       6211       6210  
      6079       6080       6091       6090       6200       6201       6212       6211  
      6080       6081       6092       6091       6201       6202       6213       6212  
      6081       6082       6093       6092       6202       6203       6214       6213  
      6082       6083       6094       6093       6203       6204       6215       6214  
      6084       6085       6096       6095       6205       6206       6217       6216  
      6085       6086       6097       6096       6206       6207       6218       6217  
      6086       6087       6098       6097       6207       6208       6219       6218  
      6087       6088       6099       6098       6208       6209       6220       6219  
      6088       6089       6100       6099       6209       6210       6221       6220  
      6089       6090       6101       6100       6210       6211       6222       6221  
      6090       6091       6102       6101       6211       6212       6223       6222  
      6091       6092       6103       6102       6212       6213       6224       6223  
      6092       6093       6104       6103       6213       6214       6225       6224  
      6093       6094       6105       6104       6214       6215       6226       6225  
      6095       6096       6107       6106       6216       6217       6228       6227  
      6096       6097       6108       6107       6217       6218       6229       6228  
      6097       6098       6109       6108       6218       6219       6230       6229  
      6098       6099       6110       6109       6219       6220       6231       6230  
      6099       6100       6111       6110       6220       6221       6232       6231  
      6100       6101       6112       6111       6221       6222       6233       6232  
      6101       6102       6113       6112       6222       6223       6234       6233  
      6102       6103       6114       6113       6223       6224       6235       6234  
      6103       6104       6115       6114       6224       6225       6236       6235  
      6104       6105       6116       6115       6225       6226       6237       6236  
      6106       6107       6118       6117       6227       6228       6239       6238  
      6107       6108       6119       6118       6228       6229       6240       6239  
      6108       6109       6120       6119       6229       6230       6241       6240  
      6109       6110       6121       6120       6230       6231       6242       6241  
      6110       6111       6122       6121       6231       6232       6243       6242  
      6111       6112       6123       6122       6232       6233       6244       6243  
      6112       6113       6124       6123       6233       6234       6245       6244  
      6113       6114       6125       6124       6234       6235       6246       6245  
      6114       6115       6126       6125       6235       6236       6247       6246  
      6115       6116       6127       6126       6236       6237       6248       6247  
      6117       6118       6129       6128       6238       6239       6250       6249  
      6118       6119       6130       6129       6239       6240       6251       6250  
      6119       6120       6131       6130       6240       6241       6252       6251  
      6120       6121       6132       6131       6241       6242       6253       6252  
      6121       6122       6133       6132       6242       6243       6254       6253  
      6122       6123       6134       6133       6243       6244       6255       6254  
      6123       6124       6135       6134       6244       6245       6256       6255  
      6124       6125       6136       6135       6245       6246       6257       6256  
      6125       6126       6137       6136       6246       6247       6258       6257  
      6126       6127       6138       6137       6247       6248       6259       6258  
      6128       6129       6140       6139       6249       6250       6261       6260  
      6129       6130       6141       6140       6250       6251       6262       6261  
      6130       6131       6142       6141       6251       6252       6263       6262  
      6131       6132       6143       6142       6252       6253       6264       6263  
      6132       6133       6144       6143       6253       6254       6265       6264  
      6133       6134       6145       6144       6254       6255       6266       6265  
      6134       6135       6146       6145       6255       6256       6267       6266  
      6135       6136       6147       6146       6256       6257       6268       6267  
      6136       6137       6148       6147       6257       6258       6269       6268  
      6137       6138       6149       6148       6258       6259       6270       6269  
      6139       6140       6151       6150       6260       6261       6272       6271  
      6140       6141       6152       6151       6261       6262       6273       6272  
      6141       6142       6153       6152       6262       6263       6274       6273  
      6142       6143       6154       6153       6263       6264       6275       6274  
      6143       6144       6155       6154       6264       6265       6276       6275  
      6144       6145       6156       6155       6265       6266       6277       6276  
      6145       6146       6157       6156       6266       6267       6278       6277  
      6146       6147       6158       6157       6267       6268       6279       6278  
      6147       6148       6159       6158       6268       6269       6280       6279  
      6148       6149       6160       6159       6269       6270       6281       6280  
      6150       6151       6162       6161       6271       6272       6283       6282  
      6151       6152       6163       6162       6272       6273       6284       6283  
      6152       6153       6164       6163       6273       6274       6285       6284  
      6153       6154       6165       6164       6274       6275       6286       6285  
      6154       6155       6166       6165       6275       6276       6287       6286  
      6155       6156       6167       6166       6276       6277       6288       6287  
      6156       6157       6168       6167       6277       6278       6289       6288  
      6157       6158       6169       6168       6278       6279       6290       6289  
      6158       6159       6170       6169       6279       6280       6291       6290  
      6159       6160       6171       6170       6280       6281       6292       6291  
      6172       6173       6184       6183       6293       6294       6305       6304  
      6173       6174       6185       6184       6294       6295       6306       6305  
      6174       6175       6186       6185       6295       6296       6307       6306  
      6175       6176       6187       6186       6296       6297       6308       6307  
      6176       6177       6188       6187       6297       6298       6309       6308  
      6177       6178       6189       6188       6298       6299       6310       6309  
      6178       6179       6190       6189       6299       6300       6311       6310  
      6179       6180       6191       6190       6300       6301       6312       6311  
      6180       6181       6192       6191       6301       6302       6313       6312  
      6181       6182       6193       6192       6302       6303       6314       6313  
      6183       6184       6195       6194       6304       6305       6316       6315  
      6184       6185       6196       6195       6305       6306       6317       6316  
      6185       6186       6197       6196       6306       6307       6318       6317  
      6186       6187       6198       6197       6307       6308       6319       6318  
      6187       6188       6199       6198       6308       6309       6320       6319  
      6188       6189       6200       6199       6309       6310       6321       6320  
      6189       6190       6201       6200       6310       6311       6322       6321  
      6190       6191       6202       6201       6311       6312       6323       6322  
      6191       6192       6203       6202       6312       6313       6324       6323  
      6192       6193       6204       6203       6313       6314       6325       6324  
      6194       6195       6206       6205       6315       6316       6327       6326  
      6195       6196       6207       6206       6316       6317       6328       6327  
      6196       6197       6208       6207       6317       6318       6329       6328  
      6197       6198       6209       6208       6318       6319       6330       6329  
      6198       6199       6210       6209       6319       6320       6331       6330  
      6199       6200       6211       6210       6320       6321       6332       6331  
      6200       6201       6212       6211       6321       6322       6333       6332  
      6201       6202       6213       6212       6322       6323       6334       6333  
      6202       6203       6214       6213       6323       6324       6335       6334  
      6203       6204       6215       6214       6324       6325       6336       6335  
      6205       6206       6217       6216       6326       6327       6338       6337  
      6206       6207       6218       6217       6327       6328       6339       6338  
      6207       6208       6219       6218       6328       6329       6340       6339  
      6208       6209       6220       6219       6329       6330       6341       6340  
      6209       6210       6221       6220       6330       6331       6342       6341  
      6210       6211       6222       6221       6331       6332       6343       6342  
      6211       6212       6223       6222       6332       6333       6344       6343  
      6212       6213       6224       6223       6333       6334       6345       6344  
      6213       6214       6225       6224       6334       6335       6346       6345  
      6214       6215       6226       6225       6335       6336       6347       6346  
      6216       6217       6228       6227       6337       6338       6349       6348  
      6217       6218       6229       6228       6338       6339       6350       6349  
      6218       6219       6230       6229       6339       6340       6351       6350  
      6219       6220       6231       6230       6340       6341       6352       6351  
      6220       6221       6232       6231       6341       6342       6353       6352  
      6221       6222       6233       6232       6342       6343       6354       6353  
      6222       6223       6234       6233       6343       6344       6355       6354  
      6223       6224       6235       6234       6344       6345       6356       6355  
      6224       6225       6236       6235       6345       6346       6357       6356  
      6225       6226       6237       6236       6346       6347       6358       6357  
      6227       6228       6239       6238       6348       6349       6360       6359  
      6228       6229       6240       6239       6349       6350       6361       6360  
      6229       6230       6241       6240       6350       6351       6362       6361  
      6230       6231       6242       6241       6351       6352       6363       6362  
      6231       6232       6243       6242       6352       6353       6364       6363  
      6232       6233       6244       6243       6353       6354       6365       6364  
      6233       6234       6245       6244       6354       6355       6366       6365  
      6234       6235       6246       6245       6355       6356       6367       6366  
      6235       6236       6247       6246       6356       6357       6368       6367  
      6236       6237       6248       6247       6357       6358       6369       6368  
      6238       6239       6250       6249       6359       6360       6371       6370  
      6239       6240       6251       6250       6360       6361       6372       6371  
      6240       6241       6252       6251       6361       6362       6373       6372  
      6241       6242       6253       6252       6362       6363       6374       6373  
      6242       6243       6254       6253       6363       6364       6375       6374  
      6243       6244       6255       6254       6364       6365       6376       6375  
      6244       6245       6256       6255       6365       6366       6377       6376  
      6245       6246       6257       6256       6366       6367       6378       6377  
      6246       6247       6258       6257       6367       6368       6379       6378  
      6247       6248       6259       6258       6368       6369       6380       6379  
      6249       6250       6261       6260       6370       6371       6382       6381  
      6250       6251       6262       6261       6371       6372       6383       6382  
      6251       6252       6263       6262       6372       6373       6384       6383  
      6252       6253       6264       6263       6373       6374       6385       6384  
      6253       6254       6265       6264       6374       6375       6386       6385  
      6254       6255       6266       6265       6375       6376       6387       6386  
      6255       6256       6267       6266       6376       6377       6388       6387  
      6256       6257       6268       6267       6377       6378       6389       6388  
      6257       6258       6269       6268       6378       6379       6390       6389  
      6258       6259       6270       6269       6379       6380       6391       6390  
      6260       6261       6272       6271       6381       6382       6393       6392  
      6261       6262       6273       6272       6382       6383       6394       6393  
      6262       6263       6274       6273       6383       6384       6395       6394  
      6263       6264       6275       6274       6384       6385       6396       6395  
      6264       6265       6276       6275       6385       6386       6397       6396  
      6265       6266       6277       6276       6386       6387       6398       6397  
      6266       6267       6278       6277       6387       6388       6399       6398  
      6267       6268       6279       6278       6388       6389       6400       6399  
      6268       6269       6280       6279       6389       6390       6401       6400  
      6269       6270       6281       6280       6390       6391       6402       6401  
      6271       6272       6283       6282       6392       6393       6404       6403  
      6272       6273       6284       6283       6393       6394       6405       6404  
      6273       6274       6285       6284       6394       6395       6406       6405  
      6274       6275       6286       6285       6395       6396       6407       6406  
      6275       6276       6287       6286       6396       6397       6408       6407  
      6276       6277       6288       6287       6397       6398       6409       6408  
      6277       6278       6289       6288       6398       6399       6410       6409  
      6278       6279       6290       6289       6399       6400       6411       6410  
      6279       6280       6291       6290       6400       6401       6412       6411  
      6280       6281       6292       6291       6401       6402       6413       6412  
      6293       6294       6305       6304       6414       6415       6426       6425  
      6294       6295       6306       6305       6415       6416       6427       6426  
      6295       6296       6307       6306       6416       6417       6428       6427  
      6296       6297       6308       6307       6417       6418       6429       6428  
      6297       6298       6309       6308       6418       6419       6430       6429  
      6298       6299       6310       6309       6419       6420       6431       6430  
      6299       6300       6311       6310       6420       6421       6432       6431  
      6300       6301       6312       6311       6421       6422       6433       6432  
      6301       6302       6313       6312       6422       6423       6434       6433  
      6302       6303       6314       6313       6423       6424       6435       6434  
      6304       6305       6316       6315       6425       6426       6437       6436  
      6305       6306       6317       6316       6426       6427       6438       6437  
      6306       6307       6318       6317       6427       6428       6439       6438  
      6307       6308       6319       6318       6428       6429       6440       6439  
      6308       6309       6320       6319       6429       6430       6441       6440  
      6309       6310       6321       6320       6430       6431       6442       6441  
      6310       6311       6322       6321       6431       6432       6443       6442  
      6311       6312       6323       6322       6432       6433       6444       6443  
      6312       6313       6324       6323       6433       6434       6445       6444  
      6313       6314       6325       6324       6434       6435       6446       6445  
      6315       6316       6327       6326       6436       6437       6448       6447  
      6316       6317       6328       6327       6437       6438       6449       6448  
      6317       6318       6329       6328       6438       6439       6450       6449  
      6318       6319       6330       6329       6439       6440       6451       6450  
      6319       6320       6331       6330       6440       6441       6452       6451  
      6320       6321       6332       6331       6441       6442       6453       6452  
      6321       6322       6333       6332       6442       6443       6454       6453  
      6322       6323       6334       6333       6443       6444       6455       6454  
      6323       6324       6335       6334       6444       6445       6456       6455  
      6324       6325       6336       6335       6445       6446       6457       6456  
      6326       6327       6338       6337       6447       6448       6459       6458  
      6327       6328       6339       6338       6448       6449       6460       6459  
      6328       6329       6340       6339       6449       6450       6461       6460  
      6329       6330       6341       6340       6450       6451       6462       6461  
      6330       6331       6342       6341       6451       6452       6463       6462  
      6331       6332       6343       6342       6452       6453       6464       6463  
      6332       6333       6344       6343       6453       6454       6465       6464  
      6333       6334       6345       6344       6454       6455       6466       6465  
      6334       6335       6346       6345       6455       6456       6467       6466  
      6335       6336       6347       6346       6456       6457       6468       6467  
      6337       6338       6349       6348       6458       6459       6470       6469  
      6338       6339       6350       6349       6459       6460       6471       6470  
      6339       6340       6351       6350       6460       6461       6472       6471  
      6340       6341       6352       6351       6461       6462       6473       6472  
      6341       6342       6353       6352       6462       6463       6474       6473  
      6342       6343       6354       6353       6463       6464       6475       6474  
      6343       6344       6355       6354       6464       6465       6476       6475  
      6344       6345       6356       6355       6465       6466       6477       6476  
      6345       6346       6357       6356       6466       6467       6478       6477  
      6346       6347       6358       6357       6467       6468       6479       6478  
      6348       6349       6360       6359       6469       6470       6481       6480  
      6349       6350       6361       6360       6470       6471       6482       6481  
      6350       6351       6362       6361       6471       6472       6483       6482  
      6351       6352       6363       6362       6472       6473       6484       6483  
      6352       6353       6364       6363       6473       6474       6485       6484  
      6353       6354       6365       6364       6474       6475       6486       6485  
      6354       6355       6366       6365       6475       6476       6487       6486  
      6355       6356       6367       6366       6476       6477       6488       6487  
      6356       6357       6368       6367       6477       6478       6489       6488  
      6357       6358       6369       6368       6478       6479       6490       6489  
      6359       6360       6371       6370       6480       6481       6492       6491  
      6360       6361       6372       6371       6481       6482       6493       6492  
      6361       6362       6373       6372       6482       6483       6494       6493  
      6362       6363       6374       6373       6483       6484       6495       6494  
      6363       6364       6375       6374       6484       6485       6496       6495  
      6364       6365       6376       6375       6485       6486       6497       6496  
      6365       6366       6377       6376       6486       6487       6498       6497  
      6366       6367       6378       6377       6487       6488       6499       6498  
      6367       6368       6379       6378       6488       6489       6500       6499  
      6368       6369       6380       6379       6489       6490       6501       6500  
      6370       6371       6382       6381       6491       6492       6503       6502  
      6371       6372       6383       6382       6492       6493       6504       6503  
      6372       6373       6384       6383       6493       6494       6505       6504  
      6373       6374       6385       6384       6494       6495       6506       6505  
      6374       6375       6386       6385       6495       6496       6507       6506  
      6375       6376       6387       6386       6496       6497       6508       6507  
      6376       6377       6388       6387       6497       6498       6509       6508  
      6377       6378       6389       6388       6498       6499       6510       6509  
      6378       6379       6390       6389       6499       6500       6511       6510  
      6379       6380       6391       6390       6500       6501       6512       6511  
      6381       6382       6393       6392       6502       6503       6514       6513  
      6382       6383       6394       6393       6503       6504       6515       6514  
      6383       6384       6395       6394       6504       6505       6516       6515  
      6384       6385       6396       6395       6505       6506       6517       6516  
      6385       6386       6397       6396       6506       6507       6518       6517  
      6386       6387       6398       6397       6507       6508       6519       6518  
      6387       6388       6399       6398       6508       6509       6520       6519  
      6388       6389       6400       6399       6509       6510       6521       6520  
      6389       6390       6401       6400       6510       6511       6522       6521  
      6390       6391       6402       6401       6511       6512       6523       6522  
      6392       6393       6404       6403       6513       6514       6525       6524  
      6393       6394       6405       6404       6514       6515       6526       6525  
      6394       6395       6406       6405       6515       6516       6527       6526  
      6395       6396       6407       6406       6516       6517       6528       6527  
      6396       6397       6408       6407       6517       6518       6529       6528  
      6397       6398       6409       6408       6518       6519       6530       6529  
      6398       6399       6410       6409       6519       6520       6531       6530  
      6399       6400       6411       6410       6520       6521       6532       6531  
      6400       6401       6412       6411       6521       6522       6533       6532  
      6401       6402       6413       6412       6522       6523       6534       6533  
      6414       6415       6426       6425       6535       6536       6547       6546  
      6415       6416       6427       6426       6536       6537       6548       6547  
      6416       6417       6428       6427       6537       6538       6549       6548  
      6417       6418       6429       6428       6538       6539       6550       6549  
      6418       6419       6430       6429       6539       6540       6551       6550  
      6419       6420       6431       6430       6540       6541       6552       6551  
      6420       6421       6432       6431       6541       6542       6553       6552  
      6421       6422       6433       6432       6542       6543       6554       6553  
      6422       6423       6434       6433       6543       6544       6555       6554  
      6423       6424       6435       6434       6544       6545       6556       6555  
      6425       6426       6437       6436       6546       6547       6558       6557  
      6426       6427       6438       6437       6547       6548       6559       6558  
      6427       6428       6439       6438       6548       6549       6560       6559  
      6428       6429       6440       6439       6549       6550       6561       6560  
      6429       6430       6441       6440       6550       6551       6562       6561  
      6430       6431       6442       6441       6551       6552       6563       6562  
      6431       6432       6443       6442       6552       6553       6564       6563  
      6432       6433       6444       6443       6553       6554       6565       6564  
      6433       6434       6445       6444       6554       6555       6566       6565  
      6434       6435       6446       6445       6555       6556       6567       6566  
      6436       6437       6448       6447       6557       6558       6569       6568  
      6437       6438       6449       6448       6558       6559       6570       6569  
      6438       6439       6450       6449       6559       6560       6571       6570  
      6439       6440       6451       6450       6560       6561       6572       6571  
      6440       6441       6452       6451       6561       6562       6573       6572  
      6441       6442       6453       6452       6562       6563       6574       6573  
      6442       6443       6454       6453       6563       6564       6575       6574  
      6443       6444       6455       6454       6564       6565       6576       6575  
      6444       6445       6456       6455       6565       6566       6577       6576  
      6445       6446       6457       6456       6566       6567       6578       6577  
      6447       6448       6459       6458       6568       6569       6580       6579  
      6448       6449       6460       6459       6569       6570       6581       6580  
      6449       6450       6461       6460       6570       6571       6582       6581  
      6450       6451       6462       6461       6571       6572       6583       6582  
      6451       6452       6463       6462       6572       6573       6584       6583  
      6452       6453       6464       6463       6573       6574       6585       6584  
      6453       6454       6465       6464       6574       6575       6586       6585  
      6454       6455       6466       6465       6575       6576       6587       6586  
      6455       6456       6467       6466       6576       6577       6588       6587  
      6456       6457       6468       6467       6577       6578       6589       6588  
      6458       6459       6470       6469       6579       6580       6591       6590  
      6459       6460       6471       6470       6580       6581       6592       6591  
      6460       6461       6472       6471       6581       6582       6593       6592  
      6461       6462       6473       6472       6582       6583       6594       6593  
      6462       6463       6474       6473       6583       6584       6595       6594  
      6463       6464       6475       6474       6584       6585       6596       6595  
      6464       6465       6476       6475       6585       6586       6597       6596  
      6465       6466       6477       6476       6586       6587       6598       6597  
      6466       6467       6478       6477       6587       6588       6599       6598  
      6467       6468       6479       6478       6588       6589       6600       6599  
      6469       6470       6481       6480       6590       6591       6602       6601  
      6470       6471       6482       6481       6591       6592       6603       6602  
      6471       6472       6483       6482       6592       6593       6604       6603  
      6472       6473       6484       6483       6593       6594       6605       6604  
      6473       6474       6485       6484       6594       6595       6606       6605  
      6474       6475       6486       6485       6595       6596       6607       6606  
      6475       6476       6487       6486       6596       6597       6608       6607  
      6476       6477       6488       6487       6597       6598       6609       6608  
      6477       6478       6489       6488       6598       6599       6610       6609  
      6478       6479       6490       6489       6599       6600       6611       6610  
      6480       6481       6492       6491       6601       6602       6613       6612  
      6481       6482       6493       6492       6602       6603       6614       6613  
      6482       6483       6494       6493       6603       6604       6615       6614  
      6483       6484       6495       6494       6604       6605       6616       6615  
      6484       6485       6496       6495       6605       6606       6617       6616  
      6485       6486       6497       6496       6606       6607       6618       6617  
      6486       6487       6498       6497       6607       6608       6619       6618  
      6487       6488       6499       6498       6608       6609       6620       6619  
      6488       6489       6500       6499       6609       6610       6621       6620  
      6489       6490       6501       6500       6610       6611       6622       6621  
      6491       6492       6503       6502       6612       6613       6624       6623  
      6492       6493       6504       6503       6613       6614       6625       6624  
      6493       6494       6505       6504       6614       6615       6626       6625  
      6494       6495       6506       6505       6615       6616       6627       6626  
      6495       6496       6507       6506       6616       6617       6628       6627  
      6496       6497       6508       6507       6617       6618       6629       6628  
      6497       6498       6509       6508       6618       6619       6630       6629  
      6498       6499       6510       6509       6619       6620       6631       6630  
      6499       6500       6511       6510       6620       6621       6632       6631  
      6500       6501       6512       6511       6621       6622       6633       6632  
      6502       6503       6514       6513       6623       6624       6635       6634  
      6503       6504       6515       6514       6624       6625       6636       6635  
      6504       6505       6516       6515       6625       6626       6637       6636  
      6505       6506       6517       6516       6626       6627       6638       6637  
      6506       6507       6518       6517       6627       6628       6639       6638  
      6507       6508       6519       6518       6628       6629       6640       6639  
      6508       6509       6520       6519       6629       6630       6641       6640  
      6509       6510       6521       6520       6630       6631       6642       6641  
      6510       6511       6522       6521       6631       6632       6643       6642  
      6511       6512       6523       6522       6632       6633       6644       6643  
      6513       6514       6525       6524       6634       6635       6646       6645  
      6514       6515       6526       6525       6635       6636       6647       6646  
      6515       6516       6527       6526       6636       6637       6648       6647  
      6516       6517       6528       6527       6637       6638       6649       6648  
      6517       6518       6529       6528       6638       6639       6650       6649  
      6518       6519       6530       6529       6639       6640       6651       6650  
      6519       6520       6531       6530       6640       6641       6652       6651  
      6520       6521       6532       6531       6641       6642       6653       6652  
      6521       6522       6533       6532       6642       6643       6654       6653  
      6522       6523       6534       6533       6643       6644       6655       6654  
      6535       6536       6547       6546       6656       6657       6668       6667  
      6536       6537       6548       6547       6657       6658       6669       6668  
      6537       6538       6549       6548       6658       6659       6670       6669  
      6538       6539       6550       6549       6659       6660       6671       6670  
      6539       6540       6551       6550       6660       6661       6672       6671  
      6540       6541       6552       6551       6661       6662       6673       6672  
      6541       6542       6553       6552       6662       6663       6674       6673  
      6542       6543       6554       6553       6663       6664       6675       6674  
      6543       6544       6555       6554       6664       6665       6676       6675  
      6544       6545       6556       6555       6665       6666       6677       6676  
      6546       6547       6558       6557       6667       6668       6679       6678  
      6547       6548       6559       6558       6668       6669       6680       6679  
      6548       6549       6560       6559       6669       6670       6681       6680  
      6549       6550       6561       6560       6670       6671       6682       6681  
      6550       6551       6562       6561       6671       6672       6683       6682  
      6551       6552       6563       6562       6672       6673       6684       6683  
      6552       6553       6564       6563       6673       6674       6685       6684  
      6553       6554       6565       6564       6674       6675       6686       6685  
      6554       6555       6566       6565       6675       6676       6687       6686  
      6555       6556       6567       6566       6676       6677       6688       6687  
      6557       6558       6569       6568       6678       6679       6690       6689  
      6558       6559       6570       6569       6679       6680       6691       6690  
      6559       6560       6571       6570       6680       6681       6692       6691  
      6560       6561       6572       6571       6681       6682       6693       6692  
      6561       6562       6573       6572       6682       6683       6694       6693  
      6562       6563       6574       6573       6683       6684       6695       6694  
      6563       6564       6575       6574       6684       6685       6696       6695  
      6564       6565       6576       6575       6685       6686       6697       6696  
      6565       6566       6577       6576       6686       6687       6698       6697  
      6566       6567       6578       6577       6687       6688       6699       6698  
      6568       6569       6580       6579       6689       6690       6701       6700  
      6569       6570       6581       6580       6690       6691       6702       6701  
      6570       6571       6582       6581       6691       6692       6703       6702  
      6571       6572       6583       6582       6692       6693       6704       6703  
      6572       6573       6584       6583       6693       6694       6705       6704  
      6573       6574       6585       6584       6694       6695       6706       6705  
      6574       6575       6586       6585       6695       6696       6707       6706  
      6575       6576       6587       6586       6696       6697       6708       6707  
      6576       6577       6588       6587       6697       6698       6709       6708  
      6577       6578       6589       6588       6698       6699       6710       6709  
      6579       6580       6591       6590       6700       6701       6712       6711  
      6580       6581       6592       6591       6701       6702       6713       6712  
      6581       6582       6593       6592       6702       6703       6714       6713  
      6582       6583       6594       6593       6703       6704       6715       6714  
      6583       6584       6595       6594       6704       6705       6716       6715  
      6584       6585       6596       6595       6705       6706       6717       6716  
      6585       6586       6597       6596       6706       6707       6718       6717  
      6586       6587       6598       6597       6707       6708       6719       6718  
      6587       6588       6599       6598       6708       6709       6720       6719  
      6588       6589       6600       6599       6709       6710       6721       6720  
      6590       6591       6602       6601       6711       6712       6723       6722  
      6591       6592       6603       6602       6712       6713       6724       6723  
      6592       6593       6604       6603       6713       6714       6725       6724  
      6593       6594       6605       6604       6714       6715       6726       6725  
      6594       6595       6606       6605       6715       6716       6727       6726  
      6595       6596       6607       6606       6716       6717       6728       6727  
      6596       6597       6608       6607       6717       6718       6729       6728  
      6597       6598       6609       6608       6718       6719       6730       6729  
      6598       6599       6610       6609       6719       6720       6731       6730  
      6599       6600       6611       6610       6720       6721       6732       6731  
      6601       6602       6613       6612       6722       6723       6734       6733  
      6602       6603       6614       6613       6723       6724       6735       6734  
      6603       6604       6615       6614       6724       6725       6736       6735  
      6604       6605       6616       6615       6725       6726       6737       6736  
      6605       6606       6617       6616       6726       6727       6738       6737  
      6606       6607       6618       6617       6727       6728       6739       6738  
      6607       6608       6619       6618       6728       6729       6740       6739  
      6608       6609       6620       6619       6729       6730       6741       6740  
      6609       6610       6621       6620       6730       6731       6742       6741  
      6610       6611       6622       6621       6731       6732       6743       6742  
      6612       6613       6624       6623       6733       6734       6745       6744  
      6613       6614       6625       6624       6734       6735       6746       6745  
      6614       6615       6626       6625       6735       6736       6747       6746  
      6615       6616       6627       6626       6736       6737       6748       6747  
      6616       6617       6628       6627       6737       6738       6749       6748  
      6617       6618       6629       6628       6738       6739       6750       6749  
      6618       6619       6630       6629       6739       6740       6751       6750  
      6619       6620       6631       6630       6740       6741       6752       6751  
      6620       6621       6632       6631       6741       6742       6753       6752  
      6621       6622       6633       6632       6742       6743       6754       6753  
      6623       6624       6635       6634       6744       6745       6756       6755  
      6624       6625       6636       6635       6745       6746       6757       6756  
      6625       6626       6637       6636       6746       6747       6758       6757  
      6626       6627       6638       6637       6747       6748       6759       6758  
      6627       6628       6639       6638       6748       6749       6760       6759  
      6628       6629       6640       6639       6749       6750       6761       6760  
      6629       6630       6641       6640       6750       6751       6762       6761  
      6630       6631       6642       6641       6751       6752       6763       6762  
      6631       6632       6643       6642       6752       6753       6764       6763  
      6632       6633       6644       6643       6753       6754       6765       6764  
      6634       6635       6646       6645       6755       6756       6767       6766  
      6635       6636       6647       6646       6756       6757       6768       6767  
      6636       6637       6648       6647       6757       6758       6769       6768  
      6637       6638       6649       6648       6758       6759       6770       6769  
      6638       6639       6650       6649       6759       6760       6771       6770  
      6639       6640       6651       6650       6760       6761       6772       6771  
      6640       6641       6652       6651       6761       6762       6773       6772  
      6641       6642       6653       6652       6762       6763       6774       6773  
      6642       6643       6654       6653       6763       6764       6775       6774  
      6643       6644       6655       6654       6764       6765       6776       6775  
      6656       6657       6668       6667       6777       6778       6789       6788  
      6657       6658       6669       6668       6778       6779       6790       6789  
      6658       6659       6670       6669       6779       6780       6791       6790  
      6659       6660       6671       6670       6780       6781       6792       6791  
      6660       6661       6672       6671       6781       6782       6793       6792  
      6661       6662       6673       6672       6782       6783       6794       6793  
      6662       6663       6674       6673       6783       6784       6795       6794  
      6663       6664       6675       6674       6784       6785       6796       6795  
      6664       6665       6676       6675       6785       6786       6797       6796  
      6665       6666       6677       6676       6786       6787       6798       6797  
      6667       6668       6679       6678       6788       6789       6800       6799  
      6668       6669       6680       6679       6789       6790       6801       6800  
      6669       6670       6681       6680       6790       6791       6802       6801  
      6670       6671       6682       6681       6791       6792       6803       6802  
      6671       6672       6683       6682       6792       6793       6804       6803  
      6672       6673       6684       6683       6793       6794       6805       6804  
      6673       6674       6685       6684       6794       6795       6806       6805  
      6674       6675       6686       6685       6795       6796       6807       6806  
      6675       6676       6687       6686       6796       6797       6808       6807  
      6676       6677       6688       6687       6797       6798       6809       6808  
      6678       6679       6690       6689       6799       6800       6811       6810  
      6679       6680       6691       6690       6800       6801       6812       6811  
      6680       6681       6692       6691       6801       6802       6813       6812  
      6681       6682       6693       6692       6802       6803       6814       6813  
      6682       6683       6694       6693       6803       6804       6815       6814  
      6683       6684       6695       6694       6804       6805       6816       6815  
      6684       6685       6696       6695       6805       6806       6817       6816  
      6685       6686       6697       6696       6806       6807       6818       6817  
      6686       6687       6698       6697       6807       6808       6819       6818  
      6687       6688       6699       6698       6808       6809       6820       6819  
      6689       6690       6701       6700       6810       6811       6822       6821  
      6690       6691       6702       6701       6811       6812       6823       6822  
      6691       6692       6703       6702       6812       6813       6824       6823  
      6692       6693       6704       6703       6813       6814       6825       6824  
      6693       6694       6705       6704       6814       6815       6826       6825  
      6694       6695       6706       6705       6815       6816       6827       6826  
      6695       6696       6707       6706       6816       6817       6828       6827  
      6696       6697       6708       6707       6817       6818       6829       6828  
      6697       6698       6709       6708       6818       6819       6830       6829  
      6698       6699       6710       6709       6819       6820       6831       6830  
      6700       6701       6712       6711       6821       6822       6833       6832  
      6701       6702       6713       6712       6822       6823       6834       6833  
      6702       6703       6714       6713       6823       6824       6835       6834  
      6703       6704       6715       6714       6824       6825       6836       6835  
      6704       6705       6716       6715       6825       6826       6837       6836  
      6705       6706       6717       6716       6826       6827       6838       6837  
      6706       6707       6718       6717       6827       6828       6839       6838  
      6707       6708       6719       6718       6828       6829       6840       6839  
      6708       6709       6720       6719       6829       6830       6841       6840  
      6709       6710       6721       6720       6830       6831       6842       6841  
      6711       6712       6723       6722       6832       6833       6844       6843  
      6712       6713       6724       6723       6833       6834       6845       6844  
      6713       6714       6725       6724       6834       6835       6846       6845  
      6714       6715       6726       6725       6835       6836       6847       6846  
      6715       6716       6727       6726       6836       6837       6848       6847  
      6716       6717       6728       6727       6837       6838       6849       6848  
      6717       6718       6729       6728       6838       6839       6850       6849  
      6718       6719       6730       6729       6839       6840       6851       6850  
      6719       6720       6731       6730       6840       6841       6852       6851  
      6720       6721       6732       6731       6841       6842       6853       6852  
      6722       6723       6734       6733       6843       6844       6855       6854  
      6723       6724       6735       6734       6844       6845       6856       6855  
      6724       6725       6736       6735       6845       6846       6857       6856  
      6725       6726       6737       6736       6846       6847       6858       6857  
      6726       6727       6738       6737       6847       6848       6859       6858  
      6727       6728       6739       6738       6848       6849       6860       6859  
      6728       6729       6740       6739       6849       6850       6861       6860  
      6729       6730       6741       6740       6850       6851       6862       6861  
      6730       6731       6742       6741       6851       6852       6863       6862  
      6731       6732       6743       6742       6852       6853       6864       6863  
      6733       6734       6745       6744       6854       6855       6866       6865  
      6734       6735       6746       6745       6855       6856       6867       6866  
      6735       6736       6747       6746       6856       6857       6868       6867  
      6736       6737       6748       6747       6857       6858       6869       6868  
      6737       6738       6749       6748       6858       6859       6870       6869  
      6738       6739       6750       6749       6859       6860       6871       6870  
      6739       6740       6751       6750       6860       6861       6872       6871  
      6740       6741       6752       6751       6861       6862       6873       6872  
      6741       6742       6753       6752       6862       6863       6874       6873  
      6742       6743       6754       6753       6863       6864       6875       6874  
      6744       6745       6756       6755       6865       6866       6877       6876  
      6745       6746       6757       6756       6866       6867       6878       6877  
      6746       6747       6758       6757       6867       6868       6879       6878  
      6747       6748       6759       6758       6868       6869       6880       6879  
      6748       6749       6760       6759       6869       6870       6881       6880  
      6749       6750       6761       6760       6870       6871       6882       6881  
      6750       6751       6762       6761       6871       6872       6883       6882  
      6751       6752       6763       6762       6872       6873       6884       6883  
      6752       6753       6764       6763       6873       6874       6885       6884  
      6753       6754       6765       6764       6874       6875       6886       6885  
      6755       6756       6767       6766       6876       6877       6888       6887  
      6756       6757       6768       6767       6877       6878       6889       6888  
      6757       6758       6769       6768       6878       6879       6890       6889  
      6758       6759       6770       6769       6879       6880       6891       6890  
      6759       6760       6771       6770       6880       6881       6892       6891  
      6760       6761       6772       6771       6881       6882       6893       6892  
      6761       6762       6773       6772       6882       6883       6894       6893  
      6762       6763       6774       6773       6883       6884       6895       6894  
      6763       6764       6775       6774       6884       6885       6896       6895  
      6764       6765       6776       6775       6885       6886       6897       6896  
      6777       6778       6789       6788       6898       6899       6910       6909  
      6778       6779       6790       6789       6899       6900       6911       6910  
      6779       6780       6791       6790       6900       6901       6912       6911  
      6780       6781       6792       6791       6901       6902       6913       6912  
      6781       6782       6793       6792       6902       6903       6914       6913  
      6782       6783       6794       6793       6903       6904       6915       6914  
      6783       6784       6795       6794       6904       6905       6916       6915  
      6784       6785       6796       6795       6905       6906       6917       6916  
      6785       6786       6797       6796       6906       6907       6918       6917  
      6786       6787       6798       6797       6907       6908       6919       6918  
      6788       6789       6800       6799       6909       6910       6921       6920  
      6789       6790       6801       6800       6910       6911       6922       6921  
      6790       6791       6802       6801       6911       6912       6923       6922  
      6791       6792       6803       6802       6912       6913       6924       6923  
      6792       6793       6804       6803       6913       6914       6925       6924  
      6793       6794       6805       6804       6914       6915       6926       6925  
      6794       6795       6806       6805       6915       6916       6927       6926  
      6795       6796       6807       6806       6916       6917       6928       6927  
      6796       6797       6808       6807       6917       6918       6929       6928  
      6797       6798       6809       6808       6918       6919       6930       6929  
      6799       6800       6811       6810       6920       6921       6932       6931  
      6800       6801       6812       6811       6921       6922       6933       6932  
      6801       6802       6813       6812       6922       6923       6934       6933  
      6802       6803       6814       6813       6923       6924       6935       6934  
      6803       6804       6815       6814       6924       6925       6936       6935  
      6804       6805       6816       6815       6925       6926       6937       6936  
      6805       6806       6817       6816       6926       6927       6938       6937  
      6806       6807       6818       6817       6927       6928       6939       6938  
      6807       6808       6819       6818       6928       6929       6940       6939  
      6808       6809       6820       6819       6929       6930       6941       6940  
      6810       6811       6822       6821       6931       6932       6943       6942  
      6811       6812       6823       6822       6932       6933       6944       6943  
      6812       6813       6824       6823       6933       6934       6945       6944  
      6813       6814       6825       6824       6934       6935       6946       6945  
      6814       6815       6826       6825       6935       6936       6947       6946  
      6815       6816       6827       6826       6936       6937       6948       6947  
      6816       6817       6828       6827       6937       6938       6949       6948  
      6817       6818       6829       6828       6938       6939       6950       6949  
      6818       6819       6830       6829       6939       6940       6951       6950  
      6819       6820       6831       6830       6940       6941       6952       6951  
      6821       6822       6833       6832       6942       6943       6954       6953  
      6822       6823       6834       6833       6943       6944       6955       6954  
      6823       6824       6835       6834       6944       6945       6956       6955  
      6824       6825       6836       6835       6945       6946       6957       6956  
      6825       6826       6837       6836       6946       6947       6958       6957  
      6826       6827       6838       6837       6947       6948       6959       6958  
      6827       6828       6839       6838       6948       6949       6960       6959  
      6828       6829       6840       6839       6949       6950       6961       6960  
      6829       6830       6841       6840       6950       6951       6962       6961  
      6830       6831       6842       6841       6951       6952       6963       6962  
      6832       6833       6844       6843       6953       6954       6965       6964  
      6833       6834       6845       6844       6954       6955       6966       6965  
      6834       6835       6846       6845       6955       6956       6967       6966  
      6835       6836       6847       6846       6956       6957       6968       6967  
      6836       6837       6848       6847       6957       6958       6969       6968  
      6837       6838       6849       6848       6958       6959       6970       6969  
      6838       6839       6850       6849       6959       6960       6971       6970  
      6839       6840       6851       6850       6960       6961       6972       6971  
      6840       6841       6852       6851       6961       6962       6973       6972  
      6841       6842       6853       6852       6962       6963       6974       6973  
      6843       6844       6855       6854       6964       6965       6976       6975  
      6844       6845       6856       6855       6965       6966       6977       6976  
      6845       6846       6857       6856       6966       6967       6978       6977  
      6846       6847       6858       6857       6967       6968       6979       6978  
      6847       6848       6859       6858       6968       6969       6980       6979  
      6848       6849       6860       6859       6969       6970       6981       6980  
      6849       6850       6861       6860       6970       6971       6982       6981  
      6850       6851       6862       6861       6971       6972       6983       6982  
      6851       6852       6863       6862       6972       6973       6984       6983  
      6852       6853       6864       6863       6973       6974       6985       6984  
      6854       6855       6866       6865       6975       6976       6987       6986  
      6855       6856       6867       6866       6976       6977       6988       6987  
      6856       6857       6868       6867       6977       6978       6989       6988  
      6857       6858       6869       6868       6978       6979       6990       6989  
      6858       6859       6870       6869       6979       6980       6991       6990  
      6859       6860       6871       6870       6980       6981       6992       6991  
      6860       6861       6872       6871       6981       6982       6993       6992  
      6861       6862       6873       6872       6982       6983       6994       6993  
      6862       6863       6874       6873       6983       6984       6995       6994  
      6863       6864       6875       6874       6984       6985       6996       6995  
      6865       6866       6877       6876       6986       6987       6998       6997  
      6866       6867       6878       6877       6987       6988       6999       6998  
      6867       6868       6879       6878       6988       6989       7000       6999  
      6868       6869       6880       6879       6989       6990       7001       7000  
      6869       6870       6881       6880       6990       6991       7002       7001  
      6870       6871       6882       6881       6991       6992       7003       7002  
      6871       6872       6883       6882       6992       6993       7004       7003  
      6872       6873       6884       6883       6993       6994       7005       7004  
      6873       6874       6885       6884       6994       6995       7006       7005  
      6874       6875       6886       6885       6995       6996       7007       7006  
      6876       6877       6888       6887       6997       6998       7009       7008  
      6877       6878       6889       6888       6998       6999       7010       7009  
      6878       6879       6890       6889       6999       7000       7011       7010  
      6879       6880       6891       6890       7000       7001       7012       7011  
      6880       6881       6892       6891       7001       7002       7013       7012  
      6881       6882       6893       6892       7002       7003       7014       7013  
      6882       6883       6894       6893       7003       7004       7015       7014  
      6883       6884       6895       6894       7004       7005       7016       7015  
      6884       6885       6896       6895       7005       7006       7017       7016  
      6885       6886       6897       6896       7006       7007       7018       7017  
      6898       6899       6910       6909       7019       7020       7031       7030  
      6899       6900       6911       6910       7020       7021       7032       7031  
      6900       6901       6912       6911       7021       7022       7033       7032  
      6901       6902       6913       6912       7022       7023       7034       7033  
      6902       6903       6914       6913       7023       7024       7035       7034  
      6903       6904       6915       6914       7024       7025       7036       7035  
      6904       6905       6916       6915       7025       7026       7037       7036  
      6905       6906       6917       6916       7026       7027       7038       7037  
      6906       6907       6918       6917       7027       7028       7039       7038  
      6907       6908       6919       6918       7028       7029       7040       7039  
      6909       6910       6921       6920       7030       7031       7042       7041  
      6910       6911       6922       6921       7031       7032       7043       7042  
      6911       6912       6923       6922       7032       7033       7044       7043  
      6912       6913       6924       6923       7033       7034       7045       7044  
      6913       6914       6925       6924       7034       7035       7046       7045  
      6914       6915       6926       6925       7035       7036       7047       7046  
      6915       6916       6927       6926       7036       7037       7048       7047  
      6916       6917       6928       6927       7037       7038       7049       7048  
      6917       6918       6929       6928       7038       7039       7050       7049  
      6918       6919       6930       6929       7039       7040       7051       7050  
      6920       6921       6932       6931       7041       7042       7053       7052  
      6921       6922       6933       6932       7042       7043       7054       7053  
      6922       6923       6934       6933       7043       7044       7055       7054  
      6923       6924       6935       6934       7044       7045       7056       7055  
      6924       6925       6936       6935       7045       7046       7057       7056  
      6925       6926       6937       6936       7046       7047       7058       7057  
      6926       6927       6938       6937       7047       7048       7059       7058  
      6927       6928       6939       6938       7048       7049       7060       7059  
      6928       6929       6940       6939       7049       7050       7061       7060  
      6929       6930       6941       6940       7050       7051       7062       7061  
      6931       6932       6943       6942       7052       7053       7064       7063  
      6932       6933       6944       6943       7053       7054       7065       7064  
      6933       6934       6945       6944       7054       7055       7066       7065  
      6934       6935       6946       6945       7055       7056       7067       7066  
      6935       6936       6947       6946       7056       7057       7068       7067  
      6936       6937       6948       6947       7057       7058       7069       7068  
      6937       6938       6949       6948       7058       7059       7070       7069  
      6938       6939       6950       6949       7059       7060       7071       7070  
      6939       6940       6951       6950       7060       7061       7072       7071  
      6940       6941       6952       6951       7061       7062       7073       7072  
      6942       6943       6954       6953       7063       7064       7075       7074  
      6943       6944       6955       6954       7064       7065       7076       7075  
      6944       6945       6956       6955       7065       7066       7077       7076  
      6945       6946       6957       6956       7066       7067       7078       7077  
      6946       6947       6958       6957       7067       7068       7079       7078  
      6947       6948       6959       6958       7068       7069       7080       7079  
      6948       6949       6960       6959       7069       7070       7081       7080  
      6949       6950       6961       6960       7070       7071       7082       7081  
      6950       6951       6962       6961       7071       7072       7083       7082  
      6951       6952       6963       6962       7072       7073       7084       7083  
      6953       6954       6965       6964       7074       7075       7086       7085  
      6954       6955       6966       6965       7075       7076       7087       7086  
      6955       6956       6967       6966       7076       7077       7088       7087  
      6956       6957       6968       6967       7077       7078       7089       7088  
      6957       6958       6969       6968       7078       7079       7090       7089  
      6958       6959       6970       6969       7079       7080       7091       7090  
      6959       6960       6971       6970       7080       7081       7092       7091  
      6960       6961       6972       6971       7081       7082       7093       7092  
      6961       6962       6973       6972       7082       7083       7094       7093  
      6962       6963       6974       6973       7083       7084       7095       7094  
      6964       6965       6976       6975       7085       7086       7097       7096  
      6965       6966       6977       6976       7086       7087       7098       7097  
      6966       6967       6978       6977       7087       7088       7099       7098  
      6967       6968       6979       6978       7088       7089       7100       7099  
      6968       6969       6980       6979       7089       7090       7101       7100  
      6969       6970       6981       6980       7090       7091       7102       7101  
      6970       6971       6982       6981       7091       7092       7103       7102  
      6971       6972       6983       6982       7092       7093       7104       7103  
      6972       6973       6984       6983       7093       7094       7105       7104  
      6973       6974       6985       6984       7094       7095       7106       7105  
      6975       6976       6987       6986       7096       7097       7108       7107  
      6976       6977       6988       6987       7097       7098       7109       7108  
      6977       6978       6989       6988       7098       7099       7110       7109  
      6978       6979       6990       6989       7099       7100       7111       7110  
      6979       6980       6991       6990       7100       7101       7112       7111  
      6980       6981       6992       6991       7101       7102       7113       7112  
      6981       6982       6993       6992       7102       7103       7114       7113  
      6982       6983       6994       6993       7103       7104       7115       7114  
      6983       6984       6995       6994       7104       7105       7116       7115  
      6984       6985       6996       6995       7105       7106       7117       7116  
      6986       6987       6998       6997       7107       7108       7119       7118  
      6987       6988       6999       6998       7108       7109       7120       7119  
      6988       6989       7000       6999       7109       7110       7121       7120  
      6989       6990       7001       7000       7110       7111       7122       7121  
      6990       6991       7002       7001       7111       7112       7123       7122  
      6991       6992       7003       7002       7112       7113       7124       7123  
      6992       6993       7004       7003       7113       7114       7125       7124  
      6993       6994       7005       7004       7114       7115       7126       7125  
      6994       6995       7006       7005       7115       7116       7127       7126  
      6995       6996       7007       7006       7116       7117       7128       7127  
      6997       6998       7009       7008       7118       7119       7130       7129  
      6998       6999       7010       7009       7119       7120       7131       7130  
      6999       7000       7011       7010       7120       7121       7132       7131  
      7000       7001       7012       7011       7121       7122       7133       7132  
      7001       7002       7013       7012       7122       7123       7134       7133  
      7002       7003       7014       7013       7123       7124       7135       7134  
      7003       7004       7015       7014       7124       7125       7136       7135  
      7004       7005       7016       7015       7125       7126       7137       7136  
      7005       7006       7017       7016       7126       7127       7138       7137  
      7006       7007       7018       7017       7127       7128       7139       7138  
      7019       7020       7031       7030       7140       7141       7152       7151  
      7020       7021       7032       7031       7141       7142       7153       7152  
      7021       7022       7033       7032       7142       7143       7154       7153  
      7022       7023       7034       7033       7143       7144       7155       7154  
      7023       7024       7035       7034       7144       7145       7156       7155  
      7024       7025       7036       7035       7145       7146       7157       7156  
      7025       7026       7037       7036       7146       7147       7158       7157  
      7026       7027       7038       7037       7147       7148       7159       7158  
      7027       7028       7039       7038       7148       7149       7160       7159  
      7028       7029       7040       7039       7149       7150       7161       7160  
      7030       7031       7042       7041       7151       7152       7163       7162  
      7031       7032       7043       7042       7152       7153       7164       7163  
      7032       7033       7044       7043       7153       7154       7165       7164  
      7033       7034       7045       7044       7154       7155       7166       7165  
      7034       7035       7046       7045       7155       7156       7167       7166  
      7035       7036       7047       7046       7156       7157       7168       7167  
      7036       7037       7048       7047       7157       7158       7169       7168  
      7037       7038       7049       7048       7158       7159       7170       7169  
      7038       7039       7050       7049       7159       7160       7171       7170  
      7039       7040       7051       7050       7160       7161       7172       7171  
      7041       7042       7053       7052       7162       7163       7174       7173  
      7042       7043       7054       7053       7163       7164       7175       7174  
      7043       7044       7055       7054       7164       7165       7176       7175  
      7044       7045       7056       7055       7165       7166       7177       7176  
      7045       7046       7057       7056       7166       7167       7178       7177  
      7046       7047       7058       7057       7167       7168       7179       7178  
      7047       7048       7059       7058       7168       7169       7180       7179  
      7048       7049       7060       7059       7169       7170       7181       7180  
      7049       7050       7061       7060       7170       7171       7182       7181  
      7050       7051       7062       7061       7171       7172       7183       7182  
      7052       7053       7064       7063       7173       7174       7185       7184  
      7053       7054       7065       7064       7174       7175       7186       7185  
      7054       7055       7066       7065       7175       7176       7187       7186  
      7055       7056       7067       7066       7176       7177       7188       7187  
      7056       7057       7068       7067       7177       7178       7189       7188  
      7057       7058       7069       7068       7178       7179       7190       7189  
      7058       7059       7070       7069       7179       7180       7191       7190  
      7059       7060       7071       7070       7180       7181       7192       7191  
      7060       7061       7072       7071       7181       7182       7193       7192  
      7061       7062       7073       7072       7182       7183       7194       7193  
      7063       7064       7075       7074       7184       7185       7196       7195  
      7064       7065       7076       7075       7185       7186       7197       7196  
      7065       7066       7077       7076       7186       7187       7198       7197  
      7066       7067       7078       7077       7187       7188       7199       7198  
      7067       7068       7079       7078       7188       7189       7200       7199  
      7068       7069       7080       7079       7189       7190       7201       7200  
      7069       7070       7081       7080       7190       7191       7202       7201  
      7070       7071       7082       7081       7191       7192       7203       7202  
      7071       7072       7083       7082       7192       7193       7204       7203  
      7072       7073       7084       7083       7193       7194       7205       7204  
      7074       7075       7086       7085       7195       7196       7207       7206  
      7075       7076       7087       7086       7196       7197       7208       7207  
      7076       7077       7088       7087       7197       7198       7209       7208  
      7077       7078       7089       7088       7198       7199       7210       7209  
      7078       7079       7090       7089       7199       7200       7211       7210  
      7079       7080       7091       7090       7200       7201       7212       7211  
      7080       7081       7092       7091       7201       7202       7213       7212  
      7081       7082       7093       7092       7202       7203       7214       7213  
      7082       7083       7094       7093       7203       7204       7215       7214  
      7083       7084       7095       7094       7204       7205       7216       7215  
      7085       7086       7097       7096       7206       7207       7218       7217  
      7086       7087       7098       7097       7207       7208       7219       7218  
      7087       7088       7099       7098       7208       7209       7220       7219  
      7088       7089       7100       7099       7209       7210       7221       7220  
      7089       7090       7101       7100       7210       7211       7222       7221  
      7090       7091       7102       7101       7211       7212       7223       7222  
      7091       7092       7103       7102       7212       7213       7224       7223  
      7092       7093       7104       7103       7213       7214       7225       7224  
      7093       7094       7105       7104       7214       7215       7226       7225  
      7094       7095       7106       7105       7215       7216       7227       7226  
      7096       7097       7108       7107       7217       7218       7229       7228  
      7097       7098       7109       7108       7218       7219       7230       7229  
      7098       7099       7110       7109       7219       7220       7231       7230  
      7099       7100       7111       7110       7220       7221       7232       7231  
      7100       7101       7112       7111       7221       7222       7233       7232  
      7101       7102       7113       7112       7222       7223       7234       7233  
      7102       7103       7114       7113       7223       7224       7235       7234  
      7103       7104       7115       7114       7224       7225       7236       7235  
      7104       7105       7116       7115       7225       7226       7237       7236  
      7105       7106       7117       7116       7226       7227       7238       7237  
      7107       7108       7119       7118       7228       7229       7240       7239  
      7108       7109       7120       7119       7229       7230       7241       7240  
      7109       7110       7121       7120       7230       7231       7242       7241  
      7110       7111       7122       7121       7231       7232       7243       7242  
      7111       7112       7123       7122       7232       7233       7244       7243  
      7112       7113       7124       7123       7233       7234       7245       7244  
      7113       7114       7125       7124       7234       7235       7246       7245  
      7114       7115       7126       7125       7235       7236       7247       7246  
      7115       7116       7127       7126       7236       7237       7248       7247  
      7116       7117       7128       7127       7237       7238       7249       7248  
      7118       7119       7130       7129       7239       7240       7251       7250  
      7119       7120       7131       7130       7240       7241       7252       7251  
      7120       7121       7132       7131       7241       7242       7253       7252  
      7121       7122       7133       7132       7242       7243       7254       7253  
      7122       7123       7134       7133       7243       7244       7255       7254  
      7123       7124       7135       7134       7244       7245       7256       7255  
      7124       7125       7136       7135       7245       7246       7257       7256  
      7125       7126       7137       7136       7246       7247       7258       7257  
      7126       7127       7138       7137       7247       7248       7259       7258  
      7127       7128       7139       7138       7248       7249       7260       7259  
      7140       7141       7152       7151       7261       7262       7273       7272  
      7141       7142       7153       7152       7262       7263       7274       7273  
      7142       7143       7154       7153       7263       7264       7275       7274  
      7143       7144       7155       7154       7264       7265       7276       7275  
      7144       7145       7156       7155       7265       7266       7277       7276  
      7145       7146       7157       7156       7266       7267       7278       7277  
      7146       7147       7158       7157       7267       7268       7279       7278  
      7147       7148       7159       7158       7268       7269       7280       7279  
      7148       7149       7160       7159       7269       7270       7281       7280  
      7149       7150       7161       7160       7270       7271       7282       7281  
      7151       7152       7163       7162       7272       7273       7284       7283  
      7152       7153       7164       7163       7273       7274       7285       7284  
      7153       7154       7165       7164       7274       7275       7286       7285  
      7154       7155       7166       7165       7275       7276       7287       7286  
      7155       7156       7167       7166       7276       7277       7288       7287  
      7156       7157       7168       7167       7277       7278       7289       7288  
      7157       7158       7169       7168       7278       7279       7290       7289  
      7158       7159       7170       7169       7279       7280       7291       7290  
      7159       7160       7171       7170       7280       7281       7292       7291  
      7160       7161       7172       7171       7281       7282       7293       7292  
      7162       7163       7174       7173       7283       7284       7295       7294  
      7163       7164       7175       7174       7284       7285       7296       7295  
      7164       7165       7176       7175       7285       7286       7297       7296  
      7165       7166       7177       7176       7286       7287       7298       7297  
      7166       7167       7178       7177       7287       7288       7299       7298  
      7167       7168       7179       7178       7288       7289       7300       7299  
      7168       7169       7180       7179       7289       7290       7301       7300  
      7169       7170       7181       7180       7290       7291       7302       7301  
      7170       7171       7182       7181       7291       7292       7303       7302  
      7171       7172       7183       7182       7292       7293       7304       7303  
      7173       7174       7185       7184       7294       7295       7306       7305  
      7174       7175       7186       7185       7295       7296       7307       7306  
      7175       7176       7187       7186       7296       7297       7308       7307  
      7176       7177       7188       7187       7297       7298       7309       7308  
      7177       7178       7189       7188       7298       7299       7310       7309  
      7178       7179       7190       7189       7299       7300       7311       7310  
      7179       7180       7191       7190       7300       7301       7312       7311  
      7180       7181       7192       7191       7301       7302       7313       7312  
      7181       7182       7193       7192       7302       7303       7314       7313  
      7182       7183       7194       7193       7303       7304       7315       7314  
      7184       7185       7196       7195       7305       7306       7317       7316  
      7185       7186       7197       7196       7306       7307       7318       7317  
      7186       7187       7198       7197       7307       7308       7319       7318  
      7187       7188       7199       7198       7308       7309       7320       7319  
      7188       7189       7200       7199       7309       7310       7321       7320  
      7189       7190       7201       7200       7310       7311       7322       7321  
      7190       7191       7202       7201       7311       7312       7323       7322  
      7191       7192       7203       7202       7312       7313       7324       7323  
      7192       7193       7204       7203       7313       7314       7325       7324  
      7193       7194       7205       7204       7314       7315       7326       7325  
      7195       7196       7207       7206       7316       7317       7328       7327  
      7196       7197       7208       7207       7317       7318       7329       7328  
      7197       7198       7209       7208       7318       7319       7330       7329  
      7198       7199       7210       7209       7319       7320       7331       7330  
      7199       7200       7211       7210       7320       7321       7332       7331  
      7200       7201       7212       7211       7321       7322       7333       7332  
      7201       7202       7213       7212       7322       7323       7334       7333  
      7202       7203       7214       7213       7323       7324       7335       7334  
      7203       7204       7215       7214       7324       7325       7336       7335  
      7204       7205       7216       7215       7325       7326       7337       7336  
      7206       7207       7218       7217       7327       7328       7339       7338  
      7207       7208       7219       7218       7328       7329       7340       7339  
      7208       7209       7220       7219       7329       7330       7341       7340  
      7209       7210       7221       7220       7330       7331       7342       7341  
      7210       7211       7222       7221       7331       7332       7343       7342  
      7211       7212       7223       7222       7332       7333       7344       7343  
      7212       7213       7224       7223       7333       7334       7345       7344  
      7213       7214       7225       7224       7334       7335       7346       7345  
      7214       7215       7226       7225       7335       7336       7347       7346  
      7215       7216       7227       7226       7336       7337       7348       7347  
      7217       7218       7229       7228       7338       7339       7350       7349  
      7218       7219       7230       7229       7339       7340       7351       7350  
      7219       7220       7231       7230       7340       7341       7352       7351  
      7220       7221       7232       7231       7341       7342       7353       7352  
      7221       7222       7233       7232       7342       7343       7354       7353  
      7222       7223       7234       7233       7343       7344       7355       7354  
      7223       7224       7235       7234       7344       7345       7356       7355  
      7224       7225       7236       7235       7345       7346       7357       7356  
      7225       7226       7237       7236       7346       7347       7358       7357  
      7226       7227       7238       7237       7347       7348       7359       7358  
      7228       7229       7240       7239       7349       7350       7361       7360  
      7229       7230       7241       7240       7350       7351       7362       7361  
      7230       7231       7242       7241       7351       7352       7363       7362  
      7231       7232       7243       7242       7352       7353       7364       7363  
      7232       7233       7244       7243       7353       7354       7365       7364  
      7233       7234       7245       7244       7354       7355       7366       7365  
      7234       7235       7246       7245       7355       7356       7367       7366  
      7235       7236       7247       7246       7356       7357       7368       7367  
      7236       7237       7248       7247       7357       7358       7369       7368  
      7237       7238       7249       7248       7358       7359       7370       7369  
      7239       7240       7251       7250       7360       7361       7372       7371  
      7240       7241       7252       7251       7361       7362       7373       7372  
      7241       7242       7253       7252       7362       7363       7374       7373  
      7242       7243       7254       7253       7363       7364       7375       7374  
      7243       7244       7255       7254       7364       7365       7376       7375  
      7244       7245       7256       7255       7365       7366       7377       7376  
      7245       7246       7257       7256       7366       7367       7378       7377  
      7246       7247       7258       7257       7367       7368       7379       7378  
      7247       7248       7259       7258       7368       7369       7380       7379  
      7248       7249       7260       7259       7369       7370       7381       7380  
      7261       7262       7273       7272       7382       7383       7394       7393  
      7262       7263       7274       7273       7383       7384       7395       7394  
      7263       7264       7275       7274       7384       7385       7396       7395  
      7264       7265       7276       7275       7385       7386       7397       7396  
      7265       7266       7277       7276       7386       7387       7398       7397  
      7266       7267       7278       7277       7387       7388       7399       7398  
      7267       7268       7279       7278       7388       7389       7400       7399  
      7268       7269       7280       7279       7389       7390       7401       7400  
      7269       7270       7281       7280       7390       7391       7402       7401  
      7270       7271       7282       7281       7391       7392       7403       7402  
      7272       7273       7284       7283       7393       7394       7405       7404  
      7273       7274       7285       7284       7394       7395       7406       7405  
      7274       7275       7286       7285       7395       7396       7407       7406  
      7275       7276       7287       7286       7396       7397       7408       7407  
      7276       7277       7288       7287       7397       7398       7409       7408  
      7277       7278       7289       7288       7398       7399       7410       7409  
      7278       7279       7290       7289       7399       7400       7411       7410  
      7279       7280       7291       7290       7400       7401       7412       7411  
      7280       7281       7292       7291       7401       7402       7413       7412  
      7281       7282       7293       7292       7402       7403       7414       7413  
      7283       7284       7295       7294       7404       7405       7416       7415  
      7284       7285       7296       7295       7405       7406       7417       7416  
      7285       7286       7297       7296       7406       7407       7418       7417  
      7286       7287       7298       7297       7407       7408       7419       7418  
      7287       7288       7299       7298       7408       7409       7420       7419  
      7288       7289       7300       7299       7409       7410       7421       7420  
      7289       7290       7301       7300       7410       7411       7422       7421  
      7290       7291       7302       7301       7411       7412       7423       7422  
      7291       7292       7303       7302       7412       7413       7424       7423  
      7292       7293       7304       7303       7413       7414       7425       7424  
      7294       7295       7306       7305       7415       7416       7427       7426  
      7295       7296       7307       7306       7416       7417       7428       7427  
      7296       7297       7308       7307       7417       7418       7429       7428  
      7297       7298       7309       7308       7418       7419       7430       7429  
      7298       7299       7310       7309       7419       7420       7431       7430  
      7299       7300       7311       7310       7420       7421       7432       7431  
      7300       7301       7312       7311       7421       7422       7433       7432  
      7301       7302       7313       7312       7422       7423       7434       7433  
      7302       7303       7314       7313       7423       7424       7435       7434  
      7303       7304       7315       7314       7424       7425       7436       7435  
      7305       7306       7317       7316       7426       7427       7438       7437  
      7306       7307       7318       7317       7427       7428       7439       7438  
      7307       7308       7319       7318       7428       7429       7440       7439  
      7308       7309       7320       7319       7429       7430       7441       7440  
      7309       7310       7321       7320       7430       7431       7442       7441  
      7310       7311       7322       7321       7431       7432       7443       7442  
      7311       7312       7323       7322       7432       7433       7444       7443  
      7312       7313       7324       7323       7433       7434       7445       7444  
      7313       7314       7325       7324       7434       7435       7446       7445  
      7314       7315       7326       7325       7435       7436       7447       7446  
      7316       7317       7328       7327       7437       7438       7449       7448  
      7317       7318       7329       7328       7438       7439       7450       7449  
      7318       7319       7330       7329       7439       7440       7451       7450  
      7319       7320       7331       7330       7440       7441       7452       7451  
      7320       7321       7332       7331       7441       7442       7453       7452  
      7321       7322       7333       7332       7442       7443       7454       7453  
      7322       7323       7334       7333       7443       7444       7455       7454  
      7323       7324       7335       7334       7444       7445       7456       7455  
      7324       7325       7336       7335       7445       7446       7457       7456  
      7325       7326       7337       7336       7446       7447       7458       7457  
      7327       7328       7339       7338       7448       7449       7460       7459  
      7328       7329       7340       7339       7449       7450       7461       7460  
      7329       7330       7341       7340       7450       7451       7462       7461  
      7330       7331       7342       7341       7451       7452       7463       7462  
      7331       7332       7343       7342       7452       7453       7464       7463  
      7332       7333       7344       7343       7453       7454       7465       7464  
      7333       7334       7345       7344       7454       7455       7466       7465  
      7334       7335       7346       7345       7455       7456       7467       7466  
      7335       7336       7347       7346       7456       7457       7468       7467  
      7336       7337       7348       7347       7457       7458       7469       7468  
      7338       7339       7350       7349       7459       7460       7471       7470  
      7339       7340       7351       7350       7460       7461       7472       7471  
      7340       7341       7352       7351       7461       7462       7473       7472  
      7341       7342       7353       7352       7462       7463       7474       7473  
      7342       7343       7354       7353       7463       7464       7475       7474  
      7343       7344       7355       7354       7464       7465       7476       7475  
      7344       7345       7356       7355       7465       7466       7477       7476  
      7345       7346       7357       7356       7466       7467       7478       7477  
      7346       7347       7358       7357       7467       7468       7479       7478  
      7347       7348       7359       7358       7468       7469       7480       7479  
      7349       7350       7361       7360       7470       7471       7482       7481  
      7350       7351       7362       7361       7471       7472       7483       7482  
      7351       7352       7363       7362       7472       7473       7484       7483  
      7352       7353       7364       7363       7473       7474       7485       7484  
      7353       7354       7365       7364       7474       7475       7486       7485  
      7354       7355       7366       7365       7475       7476       7487       7486  
      7355       7356       7367       7366       7476       7477       7488       7487  
      7356       7357       7368       7367       7477       7478       7489       7488  
      7357       7358       7369       7368       7478       7479       7490       7489  
      7358       7359       7370       7369       7479       7480       7491       7490  
      7360       7361       7372       7371       7481       7482       7493       7492  
      7361       7362       7373       7372       7482       7483       7494       7493  
      7362       7363       7374       7373       7483       7484       7495       7494  
      7363       7364       7375       7374       7484       7485       7496       7495  
      7364       7365       7376       7375       7485       7486       7497       7496  
      7365       7366       7377       7376       7486       7487       7498       7497  
      7366       7367       7378       7377       7487       7488       7499       7498  
      7367       7368       7379       7378       7488       7489       7500       7499  
      7368       7369       7380       7379       7489       7490       7501       7500  
      7369       7370       7381       7380       7490       7491       7502       7501  
      7382       7383       7394       7393       7503       7504       7515       7514  
      7383       7384       7395       7394       7504       7505       7516       7515  
      7384       7385       7396       7395       7505       7506       7517       7516  
      7385       7386       7397       7396       7506       7507       7518       7517  
      7386       7387       7398       7397       7507       7508       7519       7518  
      7387       7388       7399       7398       7508       7509       7520       7519  
      7388       7389       7400       7399       7509       7510       7521       7520  
      7389       7390       7401       7400       7510       7511       7522       7521  
      7390       7391       7402       7401       7511       7512       7523       7522  
      7391       7392       7403       7402       7512       7513       7524       7523  
      7393       7394       7405       7404       7514       7515       7526       7525  
      7394       7395       7406       7405       7515       7516       7527       7526  
      7395       7396       7407       7406       7516       7517       7528       7527  
      7396       7397       7408       7407       7517       7518       7529       7528  
      7397       7398       7409       7408       7518       7519       7530       7529  
      7398       7399       7410       7409       7519       7520       7531       7530  
      7399       7400       7411       7410       7520       7521       7532       7531  
      7400       7401       7412       7411       7521       7522       7533       7532  
      7401       7402       7413       7412       7522       7523       7534       7533  
      7402       7403       7414       7413       7523       7524       7535       7534  
      7404       7405       7416       7415       7525       7526       7537       7536  
      7405       7406       7417       7416       7526       7527       7538       7537  
      7406       7407       7418       7417       7527       7528       7539       7538  
      7407       7408       7419       7418       7528       7529       7540       7539  
      7408       7409       7420       7419       7529       7530       7541       7540  
      7409       7410       7421       7420       7530       7531       7542       7541  
      7410       7411       7422       7421       7531       7532       7543       7542  
      7411       7412       7423       7422       7532       7533       7544       7543  
      7412       7413       7424       7423       7533       7534       7545       7544  
      7413       7414       7425       7424       7534       7535       7546       7545  
      7415       7416       7427       7426       7536       7537       7548       7547  
      7416       7417       7428       7427       7537       7538       7549       7548  
      7417       7418       7429       7428       7538       7539       7550       7549  
      7418       7419       7430       7429       7539       7540       7551       7550  
      7419       7420       7431       7430       7540       7541       7552       7551  
      7420       7421       7432       7431       7541       7542       7553       7552  
      7421       7422       7433       7432       7542       7543       7554       7553  
      7422       7423       7434       7433       7543       7544       7555       7554  
      7423       7424       7435       7434       7544       7545       7556       7555  
      7424       7425       7436       7435       7545       7546       7557       7556  
      7426       7427       7438       7437       7547       7548       7559       7558  
      7427       7428       7439       7438       7548       7549       7560       7559  
      7428       7429       7440       7439       7549       7550       7561       7560  
      7429       7430       7441       7440       7550       7551       7562       7561  
      7430       7431       7442       7441       7551       7552       7563       7562  
      7431       7432       7443       7442       7552       7553       7564       7563  
      7432       7433       7444       7443       7553       7554       7565       7564  
      7433       7434       7445       7444       7554       7555       7566       7565  
      7434       7435       7446       7445       7555       7556       7567       7566  
      7435       7436       7447       7446       7556       7557       7568       7567  
      7437       7438       7449       7448       7558       7559       7570       7569  
      7438       7439       7450       7449       7559       7560       7571       7570  
      7439       7440       7451       7450       7560       7561       7572       7571  
      7440       7441       7452       7451       7561       7562       7573       7572  
      7441       7442       7453       7452       7562       7563       7574       7573  
      7442       7443       7454       7453       7563       7564       7575       7574  
      7443       7444       7455       7454       7564       7565       7576       7575  
      7444       7445       7456       7455       7565       7566       7577       7576  
      7445       7446       7457       7456       7566       7567       7578       7577  
      7446       7447       7458       7457       7567       7568       7579       7578  
      7448       7449       7460       7459       7569       7570       7581       7580  
      7449       7450       7461       7460       7570       7571       7582       7581  
      7450       7451       7462       7461       7571       7572       7583       7582  
      7451       7452       7463       7462       7572       7573       7584       7583  
      7452       7453       7464       7463       7573       7574       7585       7584  
      7453       7454       7465       7464       7574       7575       7586       7585  
      7454       7455       7466       7465       7575       7576       7587       7586  
      7455       7456       7467       7466       7576       7577       7588       7587  
      7456       7457       7468       7467       7577       7578       7589       7588  
      7457       7458       7469       7468       7578       7579       7590       7589  
      7459       7460       7471       7470       7580       7581       7592       7591  
      7460       7461       7472       7471       7581       7582       7593       7592  
      7461       7462       7473       7472       7582       7583       7594       7593  
      7462       7463       7474       7473       7583       7584       7595       7594  
      7463       7464       7475       7474       7584       7585       7596       7595  
      7464       7465       7476       7475       7585       7586       7597       7596  
      7465       7466       7477       7476       7586       7587       7598       7597  
      7466       7467       7478       7477       7587       7588       7599       7598  
      7467       7468       7479       7478       7588       7589       7600       7599  
      7468       7469       7480       7479       7589       7590       7601       7600  
      7470       7471       7482       7481       7591       7592       7603       7602  
      7471       7472       7483       7482       7592       7593       7604       7603  
      7472       7473       7484       7483       7593       7594       7605       7604  
      7473       7474       7485       7484       7594       7595       7606       7605  
      7474       7475       7486       7485       7595       7596       7607       7606  
      7475       7476       7487       7486       7596       7597       7608       7607  
      7476       7477       7488       7487       7597       7598       7609       7608  
      7477       7478       7489       7488       7598       7599       7610       7609  
      7478       7479       7490       7489       7599       7600       7611       7610  
      7479       7480       7491       7490       7600       7601       7612       7611  
      7481       7482       7493       7492       7602       7603       7614       7613  
      7482       7483       7494       7493       7603       7604       7615       7614  
      7483       7484       7495       7494       7604       7605       7616       7615  
      7484       7485       7496       7495       7605       7606       7617       7616  
      7485       7486       7497       7496       7606       7607       7618       7617  
      7486       7487       7498       7497       7607       7608       7619       7618  
      7487       7488       7499       7498       7608       7609       7620       7619  
      7488       7489       7500       7499       7609       7610       7621       7620  
      7489       7490       7501       7500       7610       7611       7622       7621  
      7490       7491       7502       7501       7611       7612       7623       7622  
      7503       7504       7515       7514       7624       7625       7636       7635  
      7504       7505       7516       7515       7625       7626       7637       7636  
      7505       7506       7517       7516       7626       7627       7638       7637  
      7506       7507       7518       7517       7627       7628       7639       7638  
      7507       7508       7519       7518       7628       7629       7640       7639  
      7508       7509       7520       7519       7629       7630       7641       7640  
      7509       7510       7521       7520       7630       7631       7642       7641  
      7510       7511       7522       7521       7631       7632       7643       7642  
      7511       7512       7523       7522       7632       7633       7644       7643  
      7512       7513       7524       7523       7633       7634       7645       7644  
      7514       7515       7526       7525       7635       7636       7647       7646  
      7515       7516       7527       7526       7636       7637       7648       7647  
      7516       7517       7528       7527       7637       7638       7649       7648  
      7517       7518       7529       7528       7638       7639       7650       7649  
      7518       7519       7530       7529       7639       7640       7651       7650  
      7519       7520       7531       7530       7640       7641       7652       7651  
      7520       7521       7532       7531       7641       7642       7653       7652  
      7521       7522       7533       7532       7642       7643       7654       7653  
      7522       7523       7534       7533       7643       7644       7655       7654  
      7523       7524       7535       7534       7644       7645       7656       7655  
      7525       7526       7537       7536       7646       7647       7658       7657  
      7526       7527       7538       7537       7647       7648       7659       7658  
      7527       7528       7539       7538       7648       7649       7660       7659  
      7528       7529       7540       7539       7649       7650       7661       7660  
      7529       7530       7541       7540       7650       7651       7662       7661  
      7530       7531       7542       7541       7651       7652       7663       7662  
      7531       7532       7543       7542       7652       7653       7664       7663  
      7532       7533       7544       7543       7653       7654       7665       7664  
      7533       7534       7545       7544       7654       7655       7666       7665  
      7534       7535       7546       7545       7655       7656       7667       7666  
      7536       7537       7548       7547       7657       7658       7669       7668  
      7537       7538       7549       7548       7658       7659       7670       7669  
      7538       7539       7550       7549       7659       7660       7671       7670  
      7539       7540       7551       7550       7660       7661       7672       7671  
      7540       7541       7552       7551       7661       7662       7673       7672  
      7541       7542       7553       7552       7662       7663       7674       7673  
      7542       7543       7554       7553       7663       7664       7675       7674  
      7543       7544       7555       7554       7664       7665       7676       7675  
      7544       7545       7556       7555       7665       7666       7677       7676  
      7545       7546       7557       7556       7666       7667       7678       7677  
      7547       7548       7559       7558       7668       7669       7680       7679  
      7548       7549       7560       7559       7669       7670       7681       7680  
      7549       7550       7561       7560       7670       7671       7682       7681  
      7550       7551       7562       7561       7671       7672       7683       7682  
      7551       7552       7563       7562       7672       7673       7684       7683  
      7552       7553       7564       7563       7673       7674       7685       7684  
      7553       7554       7565       7564       7674       7675       7686       7685  
      7554       7555       7566       7565       7675       7676       7687       7686  
      7555       7556       7567       7566       7676       7677       7688       7687  
      7556       7557       7568       7567       7677       7678       7689       7688  
      7558       7559       7570       7569       7679       7680       7691       7690  
      7559       7560       7571       7570       7680       7681       7692       7691  
      7560       7561       7572       7571       7681       7682       7693       7692  
      7561       7562       7573       7572       7682       7683       7694       7693  
      7562       7563       7574       7573       7683       7684       7695       7694  
      7563       7564       7575       7574       7684       7685       7696       7695  
      7564       7565       7576       7575       7685       7686       7697       7696  
      7565       7566       7577       7576       7686       7687       7698       7697  
      7566       7567       7578       7577       7687       7688       7699       7698  
      7567       7568       7579       7578       7688       7689       7700       7699  
      7569       7570       7581       7580       7690       7691       7702       7701  
      7570       7571       7582       7581       7691       7692       7703       7702  
      7571       7572       7583       7582       7692       7693       7704       7703  
      7572       7573       7584       7583       7693       7694       7705       7704  
      7573       7574       7585       7584       7694       7695       7706       7705  
      7574       7575       7586       7585       7695       7696       7707       7706  
      7575       7576       7587       7586       7696       7697       7708       7707  
      7576       7577       7588       7587       7697       7698       7709       7708  
      7577       7578       7589       7588       7698       7699       7710       7709  
      7578       7579       7590       7589       7699       7700       7711       7710  
      7580       7581       7592       7591       7701       7702       7713       7712  
      7581       7582       7593       7592       7702       7703       7714       7713  
      7582       7583       7594       7593       7703       7704       7715       7714  
      7583       7584       7595       7594       7704       7705       7716       7715  
      7584       7585       7596       7595       7705       7706       7717       7716  
      7585       7586       7597       7596       7706       7707       7718       7717  
      7586       7587       7598       7597       7707       7708       7719       7718  
      7587       7588       7599       7598       7708       7709       7720       7719  
      7588       7589       7600       7599       7709       7710       7721       7720  
      7589       7590       7601       7600       7710       7711       7722       7721  
      7591       7592       7603       7602       7712       7713       7724       7723  
      7592       7593       7604       7603       7713       7714       7725       7724  
      7593       7594       7605       7604       7714       7715       7726       7725  
      7594       7595       7606       7605       7715       7716       7727       7726  
      7595       7596       7607       7606       7716       7717       7728       7727  
      7596       7597       7608       7607       7717       7718       7729       7728  
      7597       7598       7609       7608       7718       7719       7730       7729  
      7598       7599       7610       7609       7719       7720       7731       7730  
      7599       7600       7611       7610       7720       7721       7732       7731  
      7600       7601       7612       7611       7721       7722       7733       7732  
      7602       7603       7614       7613       7723       7724       7735       7734  
      7603       7604       7615       7614       7724       7725       7736       7735  
      7604       7605       7616       7615       7725       7726       7737       7736  
      7605       7606       7617       7616       7726       7727       7738       7737  
      7606       7607       7618       7617       7727       7728       7739       7738  
      7607       7608       7619       7618       7728       7729       7740       7739  
      7608       7609       7620       7619       7729       7730       7741       7740  
      7609       7610       7621       7620       7730       7731       7742       7741  
      7610       7611       7622       7621       7731       7732       7743       7742  
      7611       7612       7623       7622       7732       7733       7744       7743  
      7624       7625       7636       7635       7745       7746       7757       7756  
      7625       7626       7637       7636       7746       7747       7758       7757  
      7626       7627       7638       7637       7747       7748       7759       7758  
      7627       7628       7639       7638       7748       7749       7760       7759  
      7628       7629       7640       7639       7749       7750       7761       7760  
      7629       7630       7641       7640       7750       7751       7762       7761  
      7630       7631       7642       7641       7751       7752       7763       7762  
      7631       7632       7643       7642       7752       7753       7764       7763  
      7632       7633       7644       7643       7753       7754       7765       7764  
      7633       7634       7645       7644       7754       7755       7766       7765  
      7635       7636       7647       7646       7756       7757       7768       7767  
      7636       7637       7648       7647       7757       7758       7769       7768  
      7637       7638       7649       7648       7758       7759       7770       7769  
      7638       7639       7650       7649       7759       7760       7771       7770  
      7639       7640       7651       7650       7760       7761       7772       7771  
      7640       7641       7652       7651       7761       7762       7773       7772  
      7641       7642       7653       7652       7762       7763       7774       7773  
      7642       7643       7654       7653       7763       7764       7775       7774  
      7643       7644       7655       7654       7764       7765       7776       7775  
      7644       7645       7656       7655       7765       7766       7777       7776  
      7646       7647       7658       7657       7767       7768       7779       7778  
      7647       7648       7659       7658       7768       7769       7780       7779  
      7648       7649       7660       7659       7769       7770       7781       7780  
      7649       7650       7661       7660       7770       7771       7782       7781  
      7650       7651       7662       7661       7771       7772       7783       7782  
      7651       7652       7663       7662       7772       7773       7784       7783  
      7652       7653       7664       7663       7773       7774       7785       7784  
      7653       7654       7665       7664       7774       7775       7786       7785  
      7654       7655       7666       7665       7775       7776       7787       7786  
      7655       7656       7667       7666       7776       7777       7788       7787  
      7657       7658       7669       7668       7778       7779       7790       7789  
      7658       7659       7670       7669       7779       7780       7791       7790  
      7659       7660       7671       7670       7780       7781       7792       7791  
      7660       7661       7672       7671       7781       7782       7793       7792  
      7661       7662       7673       7672       7782       7783       7794       7793  
      7662       7663       7674       7673       7783       7784       7795       7794  
      7663       7664       7675       7674       7784       7785       7796       7795  
      7664       7665       7676       7675       7785       7786       7797       7796  
      7665       7666       7677       7676       7786       7787       7798       7797  
      7666       7667       7678       7677       7787       7788       7799       7798  
      7668       7669       7680       7679       7789       7790       7801       7800  
      7669       7670       7681       7680       7790       7791       7802       7801  
      7670       7671       7682       7681       7791       7792       7803       7802  
      7671       7672       7683       7682       7792       7793       7804       7803  
      7672       7673       7684       7683       7793       7794       7805       7804  
      7673       7674       7685       7684       7794       7795       7806       7805  
      7674       7675       7686       7685       7795       7796       7807       7806  
      7675       7676       7687       7686       7796       7797       7808       7807  
      7676       7677       7688       7687       7797       7798       7809       7808  
      7677       7678       7689       7688       7798       7799       7810       7809  
      7679       7680       7691       7690       7800       7801       7812       7811  
      7680       7681       7692       7691       7801       7802       7813       7812  
      7681       7682       7693       7692       7802       7803       7814       7813  
      7682       7683       7694       7693       7803       7804       7815       7814  
      7683       7684       7695       7694       7804       7805       7816       7815  
      7684       7685       7696       7695       7805       7806       7817       7816  
      7685       7686       7697       7696       7806       7807       7818       7817  
      7686       7687       7698       7697       7807       7808       7819       7818  
      7687       7688       7699       7698       7808       7809       7820       7819  
      7688       7689       7700       7699       7809       7810       7821       7820  
      7690       7691       7702       7701       7811       7812       7823       7822  
      7691       7692       7703       7702       7812       7813       7824       7823  
      7692       7693       7704       7703       7813       7814       7825       7824  
      7693       7694       7705       7704       7814       7815       7826       7825  
      7694       7695       7706       7705       7815       7816       7827       7826  
      7695       7696       7707       7706       7816       7817       7828       7827  
      7696       7697       7708       7707       7817       7818       7829       7828  
      7697       7698       7709       7708       7818       7819       7830       7829  
      7698       7699       7710       7709       7819       7820       7831       7830  
      7699       7700       7711       7710       7820       7821       7832       7831  
      7701       7702       7713       7712       7822       7823       7834       7833  
      7702       7703       7714       7713       7823       7824       7835       7834  
      7703       7704       7715       7714       7824       7825       7836       7835  
      7704       7705       7716       7715       7825       7826       7837       7836  
      7705       7706       7717       7716       7826       7827       7838       7837  
      7706       7707       7718       7717       7827       7828       7839       7838  
      7707       7708       7719       7718       7828       7829       7840       7839  
      7708       7709       7720       7719       7829       7830       7841       7840  
      7709       7710       7721       7720       7830       7831       7842       7841  
      7710       7711       7722       7721       7831       7832       7843       7842  
      7712       7713       7724       7723       7833       7834       7845       7844  
      7713       7714       7725       7724       7834       7835       7846       7845  
      7714       7715       7726       7725       7835       7836       7847       7846  
      7715       7716       7727       7726       7836       7837       7848       7847  
      7716       7717       7728       7727       7837       7838       7849       7848  
      7717       7718       7729       7728       7838       7839       7850       7849  
      7718       7719       7730       7729       7839       7840       7851       7850  
      7719       7720       7731       7730       7840       7841       7852       7851  
      7720       7721       7732       7731       7841       7842       7853       7852  
      7721       7722       7733       7732       7842       7843       7854       7853  
      7723       7724       7735       7734       7844       7845       7856       7855  
      7724       7725       7736       7735       7845       7846       7857       7856  
      7725       7726       7737       7736       7846       7847       7858       7857  
      7726       7727       7738       7737       7847       7848       7859       7858  
      7727       7728       7739       7738       7848       7849       7860       7859  
      7728       7729       7740       7739       7849       7850       7861       7860  
      7729       7730       7741       7740       7850       7851       7862       7861  
      7730       7731       7742       7741       7851       7852       7863       7862  
      7731       7732       7743       7742       7852       7853       7864       7863  
      7732       7733       7744       7743       7853       7854       7865       7864  
      7745       7746       7757       7756       7866       7867       7878       7877  
      7746       7747       7758       7757       7867       7868       7879       7878  
      7747       7748       7759       7758       7868       7869       7880       7879  
      7748       7749       7760       7759       7869       7870       7881       7880  
      7749       7750       7761       7760       7870       7871       7882       7881  
      7750       7751       7762       7761       7871       7872       7883       7882  
      7751       7752       7763       7762       7872       7873       7884       7883  
      7752       7753       7764       7763       7873       7874       7885       7884  
      7753       7754       7765       7764       7874       7875       7886       7885  
      7754       7755       7766       7765       7875       7876       7887       7886  
      7756       7757       7768       7767       7877       7878       7889       7888  
      7757       7758       7769       7768       7878       7879       7890       7889  
      7758       7759       7770       7769       7879       7880       7891       7890  
      7759       7760       7771       7770       7880       7881       7892       7891  
      7760       7761       7772       7771       7881       7882       7893       7892  
      7761       7762       7773       7772       7882       7883       7894       7893  
      7762       7763       7774       7773       7883       7884       7895       7894  
      7763       7764       7775       7774       7884       7885       7896       7895  
      7764       7765       7776       7775       7885       7886       7897       7896  
      7765       7766       7777       7776       7886       7887       7898       7897  
      7767       7768       7779       7778       7888       7889       7900       7899  
      7768       7769       7780       7779       7889       7890       7901       7900  
      7769       7770       7781       7780       7890       7891       7902       7901  
      7770       7771       7782       7781       7891       7892       7903       7902  
      7771       7772       7783       7782       7892       7893       7904       7903  
      7772       7773       7784       7783       7893       7894       7905       7904  
      7773       7774       7785       7784       7894       7895       7906       7905  
      7774       7775       7786       7785       7895       7896       7907       7906  
      7775       7776       7787       7786       7896       7897       7908       7907  
      7776       7777       7788       7787       7897       7898       7909       7908  
      7778       7779       7790       7789       7899       7900       7911       7910  
      7779       7780       7791       7790       7900       7901       7912       7911  
      7780       7781       7792       7791       7901       7902       7913       7912  
      7781       7782       7793       7792       7902       7903       7914       7913  
      7782       7783       7794       7793       7903       7904       7915       7914  
      7783       7784       7795       7794       7904       7905       7916       7915  
      7784       7785       7796       7795       7905       7906       7917       7916  
      7785       7786       7797       7796       7906       7907       7918       7917  
      7786       7787       7798       7797       7907       7908       7919       7918  
      7787       7788       7799       7798       7908       7909       7920       7919  
      7789       7790       7801       7800       7910       7911       7922       7921  
      7790       7791       7802       7801       7911       7912       7923       7922  
      7791       7792       7803       7802       7912       7913       7924       7923  
      7792       7793       7804       7803       7913       7914       7925       7924  
      7793       7794       7805       7804       7914       7915       7926       7925  
      7794       7795       7806       7805       7915       7916       7927       7926  
      7795       7796       7807       7806       7916       7917       7928       7927  
      7796       7797       7808       7807       7917       7918       7929       7928  
      7797       7798       7809       7808       7918       7919       7930       7929  
      7798       7799       7810       7809       7919       7920       7931       7930  
      7800       7801       7812       7811       7921       7922       7933       7932  
      7801       7802       7813       7812       7922       7923       7934       7933  
      7802       7803       7814       7813       7923       7924       7935       7934  
      7803       7804       7815       7814       7924       7925       7936       7935  
      7804       7805       7816       7815       7925       7926       7937       7936  
      7805       7806       7817       7816       7926       7927       7938       7937  
      7806       7807       7818       7817       7927       7928       7939       7938  
      7807       7808       7819       7818       7928       7929       7940       7939  
      7808       7809       7820       7819       7929       7930       7941       7940  
      7809       7810       7821       7820       7930       7931       7942       7941  
      7811       7812       7823       7822       7932       7933       7944       7943  
      7812       7813       7824       7823       7933       7934       7945       7944  
      7813       7814       7825       7824       7934       7935       7946       7945  
      7814       7815       7826       7825       7935       7936       7947       7946  
      7815       7816       7827       7826       7936       7937       7948       7947  
      7816       7817       7828       7827       7937       7938       7949       7948  
      7817       7818       7829       7828       7938       7939       7950       7949  
      7818       7819       7830       7829       7939       7940       7951       7950  
      7819       7820       7831       7830       7940       7941       7952       7951  
      7820       7821       7832       7831       7941       7942       7953       7952  
      7822       7823       7834       7833       7943       7944       7955       7954  
      7823       7824       7835       7834       7944       7945       7956       7955  
      7824       7825       7836       7835       7945       7946       7957       7956  
      7825       7826       7837       7836       7946       7947       7958       7957  
      7826       7827       7838       7837       7947       7948       7959       7958  
      7827       7828       7839       7838       7948       7949       7960       7959  
      7828       7829       7840       7839       7949       7950       7961       7960  
      7829       7830       7841       7840       7950       7951       7962       7961  
      7830       7831       7842       7841       7951       7952       7963       7962  
      7831       7832       7843       7842       7952       7953       7964       7963  
      7833       7834       7845       7844       7954       7955       7966       7965  
      7834       7835       7846       7845       7955       7956       7967       7966  
      7835       7836       7847       7846       7956       7957       7968       7967  
      7836       7837       7848       7847       7957       7958       7969       7968  
      7837       7838       7849       7848       7958       7959       7970       7969  
      7838       7839       7850       7849       7959       7960       7971       7970  
      7839       7840       7851       7850       7960       7961       7972       7971  
      7840       7841       7852       7851       7961       7962       7973       7972  
      7841       7842       7853       7852       7962       7963       7974       7973  
      7842       7843       7854       7853       7963       7964       7975       7974  
      7844       7845       7856       7855       7965       7966       7977       7976  
      7845       7846       7857       7856       7966       7967       7978       7977  
      7846       7847       7858       7857       7967       7968       7979       7978  
      7847       7848       7859       7858       7968       7969       7980       7979  
      7848       7849       7860       7859       7969       7970       7981       7980  
      7849       7850       7861       7860       7970       7971       7982       7981  
      7850       7851       7862       7861       7971       7972       7983       7982  
      7851       7852       7863       7862       7972       7973       7984       7983  
      7852       7853       7864       7863       7973       7974       7985       7984  
      7853       7854       7865       7864       7974       7975       7986       7985  
      7866       7867       7878       7877       7987       7988       7999       7998  
      7867       7868       7879       7878       7988       7989       8000       7999  
      7868       7869       7880       7879       7989       7990       8001       8000  
      7869       7870       7881       7880       7990       7991       8002       8001  
      7870       7871       7882       7881       7991       7992       8003       8002  
      7871       7872       7883       7882       7992       7993       8004       8003  
      7872       7873       7884       7883       7993       7994       8005       8004  
      7873       7874       7885       7884       7994       7995       8006       8005  
      7874       7875       7886       7885       7995       7996       8007       8006  
      7875       7876       7887       7886       7996       7997       8008       8007  
      7877       7878       7889       7888       7998       7999       8010       8009  
      7878       7879       7890       7889       7999       8000       8011       8010  
      7879       7880       7891       7890       8000       8001       8012       8011  
      7880       7881       7892       7891       8001       8002       8013       8012  
      7881       7882       7893       7892       8002       8003       8014       8013  
      7882       7883       7894       7893       8003       8004       8015       8014  
      7883       7884       7895       7894       8004       8005       8016       8015  
      7884       7885       7896       7895       8005       8006       8017       8016  
      7885       7886       7897       7896       8006       8007       8018       8017  
      7886       7887       7898       7897       8007       8008       8019       8018  
      7888       7889       7900       7899       8009       8010       8021       8020  
      7889       7890       7901       7900       8010       8011       8022       8021  
      7890       7891       7902       7901       8011       8012       8023       8022  
      7891       7892       7903       7902       8012       8013       8024       8023  
      7892       7893       7904       7903       8013       8014       8025       8024  
      7893       7894       7905       7904       8014       8015       8026       8025  
      7894       7895       7906       7905       8015       8016       8027       8026  
      7895       7896       7907       7906       8016       8017       8028       8027  
      7896       7897       7908       7907       8017       8018       8029       8028  
      7897       7898       7909       7908       8018       8019       8030       8029  
      7899       7900       7911       7910       8020       8021       8032       8031  
      7900       7901       7912       7911       8021       8022       8033       8032  
      7901       7902       7913       7912       8022       8023       8034       8033  
      7902       7903       7914       7913       8023       8024       8035       8034  
      7903       7904       7915       7914       8024       8025       8036       8035  
      7904       7905       7916       7915       8025       8026       8037       8036  
      7905       7906       7917       7916       8026       8027       8038       8037  
      7906       7907       7918       7917       8027       8028       8039       8038  
      7907       7908       7919       7918       8028       8029       8040       8039  
      7908       7909       7920       7919       8029       8030       8041       8040  
      7910       7911       7922       7921       8031       8032       8043       8042  
      7911       7912       7923       7922       8032       8033       8044       8043  
      7912       7913       7924       7923       8033       8034       8045       8044  
      7913       7914       7925       7924       8034       8035       8046       8045  
      7914       7915       7926       7925       8035       8036       8047       8046  
      7915       7916       7927       7926       8036       8037       8048       8047  
      7916       7917       7928       7927       8037       8038       8049       8048  
      7917       7918       7929       7928       8038       8039       8050       8049  
      7918       7919       7930       7929       8039       8040       8051       8050  
      7919       7920       7931       7930       8040       8041       8052       8051  
      7921       7922       7933       7932       8042       8043       8054       8053  
      7922       7923       7934       7933       8043       8044       8055       8054  
      7923       7924       7935       7934       8044       8045       8056       8055  
      7924       7925       7936       7935       8045       8046       8057       8056  
      7925       7926       7937       7936       8046       8047       8058       8057  
      7926       7927       7938       7937       8047       8048       8059       8058  
      7927       7928       7939       7938       8048       8049       8060       8059  
      7928       7929       7940       7939       8049       8050       8061       8060  
      7929       7930       7941       7940       8050       8051       8062       8061  
      7930       7931       7942       7941       8051       8052       8063       8062  
      7932       7933       7944       7943       8053       8054       8065       8064  
      7933       7934       7945       7944       8054       8055       8066       8065  
      7934       7935       7946       7945       8055       8056       8067       8066  
      7935       7936       7947       7946       8056       8057       8068       8067  
      7936       7937       7948       7947       8057       8058       8069       8068  
      7937       7938       7949       7948       8058       8059       8070       8069  
      7938       7939       7950       7949       8059       8060       8071       8070  
      7939       7940       7951       7950       8060       8061       8072       8071  
      7940       7941       7952       7951       8061       8062       8073       8072  
      7941       7942       7953       7952       8062       8063       8074       8073  
      7943       7944       7955       7954       8064       8065       8076       8075  
      7944       7945       7956       7955       8065       8066       8077       8076  
      7945       7946       7957       7956       8066       8067       8078       8077  
      7946       7947       7958       7957       8067       8068       8079       8078  
      7947       7948       7959       7958       8068       8069       8080       8079  
      7948       7949       7960       7959       8069       8070       8081       8080  
      7949       7950       7961       7960       8070       8071       8082       8081  
      7950       7951       7962       7961       8071       8072       8083       8082  
      7951       7952       7963       7962       8072       8073       8084       8083  
      7952       7953       7964       7963       8073       8074       8085       8084  
      7954       7955       7966       7965       8075       8076       8087       8086  
      7955       7956       7967       7966       8076       8077       8088       8087  
      7956       7957       7968       7967       8077       8078       8089       8088  
      7957       7958       7969       7968       8078       8079       8090       8089  
      7958       7959       7970       7969       8079       8080       8091       8090  
      7959       7960       7971       7970       8080       8081       8092       8091  
      7960       7961       7972       7971       8081       8082       8093       8092  
      7961       7962       7973       7972       8082       8083       8094       8093  
      7962       7963       7974       7973       8083       8084       8095       8094  
      7963       7964       7975       7974       8084       8085       8096       8095  
      7965       7966       7977       7976       8086       8087       8098       8097  
      7966       7967       7978       7977       8087       8088       8099       8098  
      7967       7968       7979       7978       8088       8089       8100       8099  
      7968       7969       7980       7979       8089       8090       8101       8100  
      7969       7970       7981       7980       8090       8091       8102       8101  
      7970       7971       7982       7981       8091       8092       8103       8102  
      7971       7972       7983       7982       8092       8093       8104       8103  
      7972       7973       7984       7983       8093       8094       8105       8104  
      7973       7974       7985       7984       8094       8095       8106       8105  
      7974       7975       7986       7985       8095       8096       8107       8106  
      7987       7988       7999       7998       8108       8109       8120       8119  
      7988       7989       8000       7999       8109       8110       8121       8120  
      7989       7990       8001       8000       8110       8111       8122       8121  
      7990       7991       8002       8001       8111       8112       8123       8122  
      7991       7992       8003       8002       8112       8113       8124       8123  
      7992       7993       8004       8003       8113       8114       8125       8124  
      7993       7994       8005       8004       8114       8115       8126       8125  
      7994       7995       8006       8005       8115       8116       8127       8126  
      7995       7996       8007       8006       8116       8117       8128       8127  
      7996       7997       8008       8007       8117       8118       8129       8128  
      7998       7999       8010       8009       8119       8120       8131       8130  
      7999       8000       8011       8010       8120       8121       8132       8131  
      8000       8001       8012       8011       8121       8122       8133       8132  
      8001       8002       8013       8012       8122       8123       8134       8133  
      8002       8003       8014       8013       8123       8124       8135       8134  
      8003       8004       8015       8014       8124       8125       8136       8135  
      8004       8005       8016       8015       8125       8126       8137       8136  
      8005       8006       8017       8016       8126       8127       8138       8137  
      8006       8007       8018       8017       8127       8128       8139       8138  
      8007       8008       8019       8018       8128       8129       8140       8139  
      8009       8010       8021       8020       8130       8131       8142       8141  
      8010       8011       8022       8021       8131       8132       8143       8142  
      8011       8012       8023       8022       8132       8133       8144       8143  
      8012       8013       8024       8023       8133       8134       8145       8144  
      8013       8014       8025       8024       8134       8135       8146       8145  
      8014       8015       8026       8025       8135       8136       8147       8146  
      8015       8016       8027       8026       8136       8137       8148       8147  
      8016       8017       8028       8027       8137       8138       8149       8148  
      8017       8018       8029       8028       8138       8139       8150       8149  
      8018       8019       8030       8029       8139       8140       8151       8150  
      8020       8021       8032       8031       8141       8142       8153       8152  
      8021       8022       8033       8032       8142       8143       8154       8153  
      8022       8023       8034       8033       8143       8144       8155       8154  
      8023       8024       8035       8034       8144       8145       8156       8155  
      8024       8025       8036       8035       8145       8146       8157       8156  
      8025       8026       8037       8036       8146       8147       8158       8157  
      8026       8027       8038       8037       8147       8148       8159       8158  
      8027       8028       8039       8038       8148       8149       8160       8159  
      8028       8029       8040       8039       8149       8150       8161       8160  
      8029       8030       8041       8040       8150       8151       8162       8161  
      8031       8032       8043       8042       8152       8153       8164       8163  
      8032       8033       8044       8043       8153       8154       8165       8164  
      8033       8034       8045       8044       8154       8155       8166       8165  
      8034       8035       8046       8045       8155       8156       8167       8166  
      8035       8036       8047       8046       8156       8157       8168       8167  
      8036       8037       8048       8047       8157       8158       8169       8168  
      8037       8038       8049       8048       8158       8159       8170       8169  
      8038       8039       8050       8049       8159       8160       8171       8170  
      8039       8040       8051       8050       8160       8161       8172       8171  
      8040       8041       8052       8051       8161       8162       8173       8172  
      8042       8043       8054       8053       8163       8164       8175       8174  
      8043       8044       8055       8054       8164       8165       8176       8175  
      8044       8045       8056       8055       8165       8166       8177       8176  
      8045       8046       8057       8056       8166       8167       8178       8177  
      8046       8047       8058       8057       8167       8168       8179       8178  
      8047       8048       8059       8058       8168       8169       8180       8179  
      8048       8049       8060       8059       8169       8170       8181       8180  
      8049       8050       8061       8060       8170       8171       8182       8181  
      8050       8051       8062       8061       8171       8172       8183       8182  
      8051       8052       8063       8062       8172       8173       8184       8183  
      8053       8054       8065       8064       8174       8175       8186       8185  
      8054       8055       8066       8065       8175       8176       8187       8186  
      8055       8056       8067       8066       8176       8177       8188       8187  
      8056       8057       8068       8067       8177       8178       8189       8188  
      8057       8058       8069       8068       8178       8179       8190       8189  
      8058       8059       8070       8069       8179       8180       8191       8190  
      8059       8060       8071       8070       8180       8181       8192       8191  
      8060       8061       8072       8071       8181       8182       8193       8192  
      8061       8062       8073       8072       8182       8183       8194       8193  
      8062       8063       8074       8073       8183       8184       8195       8194  
      8064       8065       8076       8075       8185       8186       8197       8196  
      8065       8066       8077       8076       8186       8187       8198       8197  
      8066       8067       8078       8077       8187       8188       8199       8198  
      8067       8068       8079       8078       8188       8189       8200       8199  
      8068       8069       8080       8079       8189       8190       8201       8200  
      8069       8070       8081       8080       8190       8191       8202       8201  
      8070       8071       8082       8081       8191       8192       8203       8202  
      8071       8072       8083       8082       8192       8193       8204       8203  
      8072       8073       8084       8083       8193       8194       8205       8204  
      8073       8074       8085       8084       8194       8195       8206       8205  
      8075       8076       8087       8086       8196       8197       8208       8207  
      8076       8077       8088       8087       8197       8198       8209       8208  
      8077       8078       8089       8088       8198       8199       8210       8209  
      8078       8079       8090       8089       8199       8200       8211       8210  
      8079       8080       8091       8090       8200       8201       8212       8211  
      8080       8081       8092       8091       8201       8202       8213       8212  
      8081       8082       8093       8092       8202       8203       8214       8213  
      8082       8083       8094       8093       8203       8204       8215       8214  
      8083       8084       8095       8094       8204       8205       8216       8215  
      8084       8085       8096       8095       8205       8206       8217       8216  
      8086       8087       8098       8097       8207       8208       8219       8218  
      8087       8088       8099       8098       8208       8209       8220       8219  
      8088       8089       8100       8099       8209       8210       8221       8220  
      8089       8090       8101       8100       8210       8211       8222       8221  
      8090       8091       8102       8101       8211       8212       8223       8222  
      8091       8092       8103       8102       8212       8213       8224       8223  
      8092       8093       8104       8103       8213       8214       8225       8224  
      8093       8094       8105       8104       8214       8215       8226       8225  
      8094       8095       8106       8105       8215       8216       8227       8226  
      8095       8096       8107       8106       8216       8217       8228       8227  
      8108       8109       8120       8119       8229       8230       8241       8240  
      8109       8110       8121       8120       8230       8231       8242       8241  
      8110       8111       8122       8121       8231       8232       8243       8242  
      8111       8112       8123       8122       8232       8233       8244       8243  
      8112       8113       8124       8123       8233       8234       8245       8244  
      8113       8114       8125       8124       8234       8235       8246       8245  
      8114       8115       8126       8125       8235       8236       8247       8246  
      8115       8116       8127       8126       8236       8237       8248       8247  
      8116       8117       8128       8127       8237       8238       8249       8248  
      8117       8118       8129       8128       8238       8239       8250       8249  
      8119       8120       8131       8130       8240       8241       8252       8251  
      8120       8121       8132       8131       8241       8242       8253       8252  
      8121       8122       8133       8132       8242       8243       8254       8253  
      8122       8123       8134       8133       8243       8244       8255       8254  
      8123       8124       8135       8134       8244       8245       8256       8255  
      8124       8125       8136       8135       8245       8246       8257       8256  
      8125       8126       8137       8136       8246       8247       8258       8257  
      8126       8127       8138       8137       8247       8248       8259       8258  
      8127       8128       8139       8138       8248       8249       8260       8259  
      8128       8129       8140       8139       8249       8250       8261       8260  
      8130       8131       8142       8141       8251       8252       8263       8262  
      8131       8132       8143       8142       8252       8253       8264       8263  
      8132       8133       8144       8143       8253       8254       8265       8264  
      8133       8134       8145       8144       8254       8255       8266       8265  
      8134       8135       8146       8145       8255       8256       8267       8266  
      8135       8136       8147       8146       8256       8257       8268       8267  
      8136       8137       8148       8147       8257       8258       8269       8268  
      8137       8138       8149       8148       8258       8259       8270       8269  
      8138       8139       8150       8149       8259       8260       8271       8270  
      8139       8140       8151       8150       8260       8261       8272       8271  
      8141       8142       8153       8152       8262       8263       8274       8273  
      8142       8143       8154       8153       8263       8264       8275       8274  
      8143       8144       8155       8154       8264       8265       8276       8275  
      8144       8145       8156       8155       8265       8266       8277       8276  
      8145       8146       8157       8156       8266       8267       8278       8277  
      8146       8147       8158       8157       8267       8268       8279       8278  
      8147       8148       8159       8158       8268       8269       8280       8279  
      8148       8149       8160       8159       8269       8270       8281       8280  
      8149       8150       8161       8160       8270       8271       8282       8281  
      8150       8151       8162       8161       8271       8272       8283       8282  
      8152       8153       8164       8163       8273       8274       8285       8284  
      8153       8154       8165       8164       8274       8275       8286       8285  
      8154       8155       8166       8165       8275       8276       8287       8286  
      8155       8156       8167       8166       8276       8277       8288       8287  
      8156       8157       8168       8167       8277       8278       8289       8288  
      8157       8158       8169       8168       8278       8279       8290       8289  
      8158       8159       8170       8169       8279       8280       8291       8290  
      8159       8160       8171       8170       8280       8281       8292       8291  
      8160       8161       8172       8171       8281       8282       8293       8292  
      8161       8162       8173       8172       8282       8283       8294       8293  
      8163       8164       8175       8174       8284       8285       8296       8295  
      8164       8165       8176       8175       8285       8286       8297       8296  
      8165       8166       8177       8176       8286       8287       8298       8297  
      8166       8167       8178       8177       8287       8288       8299       8298  
      8167       8168       8179       8178       8288       8289       8300       8299  
      8168       8169       8180       8179       8289       8290       8301       8300  
      8169       8170       8181       8180       8290       8291       8302       8301  
      8170       8171       8182       8181       8291       8292       8303       8302  
      8171       8172       8183       8182       8292       8293       8304       8303  
      8172       8173       8184       8183       8293       8294       8305       8304  
      8174       8175       8186       8185       8295       8296       8307       8306  
      8175       8176       8187       8186       8296       8297       8308       8307  
      8176       8177       8188       8187       8297       8298       8309       8308  
      8177       8178       8189       8188       8298       8299       8310       8309  
      8178       8179       8190       8189       8299       8300       8311       8310  
      8179       8180       8191       8190       8300       8301       8312       8311  
      8180       8181       8192       8191       8301       8302       8313       8312  
      8181       8182       8193       8192       8302       8303       8314       8313  
      8182       8183       8194       8193       8303       8304       8315       8314  
      8183       8184       8195       8194       8304       8305       8316       8315  
      8185       8186       8197       8196       8306       8307       8318       8317  
      8186       8187       8198       8197       8307       8308       8319       8318  
      8187       8188       8199       8198       8308       8309       8320       8319  
      8188       8189       8200       8199       8309       8310       8321       8320  
      8189       8190       8201       8200       8310       8311       8322       8321  
      8190       8191       8202       8201       8311       8312       8323       8322  
      8191       8192       8203       8202       8312       8313       8324       8323  
      8192       8193       8204       8203       8313       8314       8325       8324  
      8193       8194       8205       8204       8314       8315       8326       8325  
      8194       8195       8206       8205       8315       8316       8327       8326  
      8196       8197       8208       8207       8317       8318       8329       8328  
      8197       8198       8209       8208       8318       8319       8330       8329  
      8198       8199       8210       8209       8319       8320       8331       8330  
      8199       8200       8211       8210       8320       8321       8332       8331  
      8200       8201       8212       8211       8321       8322       8333       8332  
      8201       8202       8213       8212       8322       8323       8334       8333  
      8202       8203       8214       8213       8323       8324       8335       8334  
      8203       8204       8215       8214       8324       8325       8336       8335  
      8204       8205       8216       8215       8325       8326       8337       8336  
      8205       8206       8217       8216       8326       8327       8338       8337  
      8207       8208       8219       8218       8328       8329       8340       8339  
      8208       8209       8220       8219       8329       8330       8341       8340  
      8209       8210       8221       8220       8330       8331       8342       8341  
      8210       8211       8222       8221       8331       8332       8343       8342  
      8211       8212       8223       8222       8332       8333       8344       8343  
      8212       8213       8224       8223       8333       8334       8345       8344  
      8213       8214       8225       8224       8334       8335       8346       8345  
      8214       8215       8226       8225       8335       8336       8347       8346  
      8215       8216       8227       8226       8336       8337       8348       8347  
      8216       8217       8228       8227       8337       8338       8349       8348  
      8229       8230       8241       8240       8350       8351       8362       8361  
      8230       8231       8242       8241       8351       8352       8363       8362  
      8231       8232       8243       8242       8352       8353       8364       8363  
      8232       8233       8244       8243       8353       8354       8365       8364  
      8233       8234       8245       8244       8354       8355       8366       8365  
      8234       8235       8246       8245       8355       8356       8367       8366  
      8235       8236       8247       8246       8356       8357       8368       8367  
      8236       8237       8248       8247       8357       8358       8369       8368  
      8237       8238       8249       8248       8358       8359       8370       8369  
      8238       8239       8250       8249       8359       8360       8371       8370  
      8240       8241       8252       8251       8361       8362       8373       8372  
      8241       8242       8253       8252       8362       8363       8374       8373  
      8242       8243       8254       8253       8363       8364       8375       8374  
      8243       8244       8255       8254       8364       8365       8376       8375  
      8244       8245       8256       8255       8365       8366       8377       8376  
      8245       8246       8257       8256       8366       8367       8378       8377  
      8246       8247       8258       8257       8367       8368       8379       8378  
      8247       8248       8259       8258       8368       8369       8380       8379  
      8248       8249       8260       8259       8369       8370       8381       8380  
      8249       8250       8261       8260       8370       8371       8382       8381  
      8251       8252       8263       8262       8372       8373       8384       8383  
      8252       8253       8264       8263       8373       8374       8385       8384  
      8253       8254       8265       8264       8374       8375       8386       8385  
      8254       8255       8266       8265       8375       8376       8387       8386  
      8255       8256       8267       8266       8376       8377       8388       8387  
      8256       8257       8268       8267       8377       8378       8389       8388  
      8257       8258       8269       8268       8378       8379       8390       8389  
      8258       8259       8270       8269       8379       8380       8391       8390  
      8259       8260       8271       8270       8380       8381       8392       8391  
      8260       8261       8272       8271       8381       8382       8393       8392  
      8262       8263       8274       8273       8383       8384       8395       8394  
      8263       8264       8275       8274       8384       8385       8396       8395  
      8264       8265       8276       8275       8385       8386       8397       8396  
      8265       8266       8277       8276       8386       8387       8398       8397  
      8266       8267       8278       8277       8387       8388       8399       8398  
      8267       8268       8279       8278       8388       8389       8400       8399  
      8268       8269       8280       8279       8389       8390       8401       8400  
      8269       8270       8281       8280       8390       8391       8402       8401  
      8270       8271       8282       8281       8391       8392       8403       8402  
      8271       8272       8283       8282       8392       8393       8404       8403  
      8273       8274       8285       8284       8394       8395       8406       8405  
      8274       8275       8286       8285       8395       8396       8407       8406  
      8275       8276       8287       8286       8396       8397       8408       8407  
      8276       8277       8288       8287       8397       8398       8409       8408  
      8277       8278       8289       8288       8398       8399       8410       8409  
      8278       8279       8290       8289       8399       8400       8411       8410  
      8279       8280       8291       8290       8400       8401       8412       8411  
      8280       8281       8292       8291       8401       8402       8413       8412  
      8281       8282       8293       8292       8402       8403       8414       8413  
      8282       8283       8294       8293       8403       8404       8415       8414  
      8284       8285       8296       8295       8405       8406       8417       8416  
      8285       8286       8297       8296       8406       8407       8418       8417  
      8286       8287       8298       8297       8407       8408       8419       8418  
      8287       8288       8299       8298       8408       8409       8420       8419  
      8288       8289       8300       8299       8409       8410       8421       8420  
      8289       8290       8301       8300       8410       8411       8422       8421  
      8290       8291       8302       8301       8411       8412       8423       8422  
      8291       8292       8303       8302       8412       8413       8424       8423  
      8292       8293       8304       8303       8413       8414       8425       8424  
      8293       8294       8305       8304       8414       8415       8426       8425  
      8295       8296       8307       8306       8416       8417       8428       8427  
      8296       8297       8308       8307       8417       8418       8429       8428  
      8297       8298       8309       8308       8418       8419       8430       8429  
      8298       8299       8310       8309       8419       8420       8431       8430  
      8299       8300       8311       8310       8420       8421       8432       8431  
      8300       8301       8312       8311       8421       8422       8433       8432  
      8301       8302       8313       8312       8422       8423       8434       8433  
      8302       8303       8314       8313       8423       8424       8435       8434  
      8303       8304       8315       8314       8424       8425       8436       8435  
      8304       8305       8316       8315       8425       8426       8437       8436  
      8306       8307       8318       8317       8427       8428       8439       8438  
      8307       8308       8319       8318       8428       8429       8440       8439  
      8308       8309       8320       8319       8429       8430       8441       8440  
      8309       8310       8321       8320       8430       8431       8442       8441  
      8310       8311       8322       8321       8431       8432       8443       8442  
      8311       8312       8323       8322       8432       8433       8444       8443  
      8312       8313       8324       8323       8433       8434       8445       8444  
      8313       8314       8325       8324       8434       8435       8446       8445  
      8314       8315       8326       8325       8435       8436       8447       8446  
      8315       8316       8327       8326       8436       8437       8448       8447  
      8317       8318       8329       8328       8438       8439       8450       8449  
      8318       8319       8330       8329       8439       8440       8451       8450  
      8319       8320       8331       8330       8440       8441       8452       8451  
      8320       8321       8332       8331       8441       8442       8453       8452  
      8321       8322       8333       8332       8442       8443       8454       8453  
      8322       8323       8334       8333       8443       8444       8455       8454  
      8323       8324       8335       8334       8444       8445       8456       8455  
      8324       8325       8336       8335       8445       8446       8457       8456  
      8325       8326       8337       8336       8446       8447       8458       8457  
      8326       8327       8338       8337       8447       8448       8459       8458  
      8328       8329       8340       8339       8449       8450       8461       8460  
      8329       8330       8341       8340       8450       8451       8462       8461  
      8330       8331       8342       8341       8451       8452       8463       8462  
      8331       8332       8343       8342       8452       8453       8464       8463  
      8332       8333       8344       8343       8453       8454       8465       8464  
      8333       8334       8345       8344       8454       8455       8466       8465  
      8334       8335       8346       8345       8455       8456       8467       8466  
      8335       8336       8347       8346       8456       8457       8468       8467  
      8336       8337       8348       8347       8457       8458       8469       8468  
      8337       8338       8349       8348       8458       8459       8470       8469  
      8350       8351       8362       8361       8471       8472       8483       8482  
      8351       8352       8363       8362       8472       8473       8484       8483  
      8352       8353       8364       8363       8473       8474       8485       8484  
      8353       8354       8365       8364       8474       8475       8486       8485  
      8354       8355       8366       8365       8475       8476       8487       8486  
      8355       8356       8367       8366       8476       8477       8488       8487  
      8356       8357       8368       8367       8477       8478       8489       8488  
      8357       8358       8369       8368       8478       8479       8490       8489  
      8358       8359       8370       8369       8479       8480       8491       8490  
      8359       8360       8371       8370       8480       8481       8492       8491  
      8361       8362       8373       8372       8482       8483       8494       8493  
      8362       8363       8374       8373       8483       8484       8495       8494  
      8363       8364       8375       8374       8484       8485       8496       8495  
      8364       8365       8376       8375       8485       8486       8497       8496  
      8365       8366       8377       8376       8486       8487       8498       8497  
      8366       8367       8378       8377       8487       8488       8499       8498  
      8367       8368       8379       8378       8488       8489       8500       8499  
      8368       8369       8380       8379       8489       8490       8501       8500  
      8369       8370       8381       8380       8490       8491       8502       8501  
      8370       8371       8382       8381       8491       8492       8503       8502  
      8372       8373       8384       8383       8493       8494       8505       8504  
      8373       8374       8385       8384       8494       8495       8506       8505  
      8374       8375       8386       8385       8495       8496       8507       8506  
      8375       8376       8387       8386       8496       8497       8508       8507  
      8376       8377       8388       8387       8497       8498       8509       8508  
      8377       8378       8389       8388       8498       8499       8510       8509  
      8378       8379       8390       8389       8499       8500       8511       8510  
      8379       8380       8391       8390       8500       8501       8512       8511  
      8380       8381       8392       8391       8501       8502       8513       8512  
      8381       8382       8393       8392       8502       8503       8514       8513  
      8383       8384       8395       8394       8504       8505       8516       8515  
      8384       8385       8396       8395       8505       8506       8517       8516  
      8385       8386       8397       8396       8506       8507       8518       8517  
      8386       8387       8398       8397       8507       8508       8519       8518  
      8387       8388       8399       8398       8508       8509       8520       8519  
      8388       8389       8400       8399       8509       8510       8521       8520  
      8389       8390       8401       8400       8510       8511       8522       8521  
      8390       8391       8402       8401       8511       8512       8523       8522  
      8391       8392       8403       8402       8512       8513       8524       8523  
      8392       8393       8404       8403       8513       8514       8525       8524  
      8394       8395       8406       8405       8515       8516       8527       8526  
      8395       8396       8407       8406       8516       8517       8528       8527  
      8396       8397       8408       8407       8517       8518       8529       8528  
      8397       8398       8409       8408       8518       8519       8530       8529  
      8398       8399       8410       8409       8519       8520       8531       8530  
      8399       8400       8411       8410       8520       8521       8532       8531  
      8400       8401       8412       8411       8521       8522       8533       8532  
      8401       8402       8413       8412       8522       8523       8534       8533  
      8402       8403       8414       8413       8523       8524       8535       8534  
      8403       8404       8415       8414       8524       8525       8536       8535  
      8405       8406       8417       8416       8526       8527       8538       8537  
      8406       8407       8418       8417       8527       8528       8539       8538  
      8407       8408       8419       8418       8528       8529       8540       8539  
      8408       8409       8420       8419       8529       8530       8541       8540  
      8409       8410       8421       8420       8530       8531       8542       8541  
      8410       8411       8422       8421       8531       8532       8543       8542  
      8411       8412       8423       8422       8532       8533       8544       8543  
      8412       8413       8424       8423       8533       8534       8545       8544  
      8413       8414       8425       8424       8534       8535       8546       8545  
      8414       8415       8426       8425       8535       8536       8547       8546  
      8416       8417       8428       8427       8537       8538       8549       8548  
      8417       8418       8429       8428       8538       8539       8550       8549  
      8418       8419       8430       8429       8539       8540       8551       8550  
      8419       8420       8431       8430       8540       8541       8552       8551  
      8420       8421       8432       8431       8541       8542       8553       8552  
      8421       8422       8433       8432       8542       8543       8554       8553  
      8422       8423       8434       8433       8543       8544       8555       8554  
      8423       8424       8435       8434       8544       8545       8556       8555  
      8424       8425       8436       8435       8545       8546       8557       8556  
      8425       8426       8437       8436       8546       8547       8558       8557  
      8427       8428       8439       8438       8548       8549       8560       8559  
      8428       8429       8440       8439       8549       8550       8561       8560  
      8429       8430       8441       8440       8550       8551       8562       8561  
      8430       8431       8442       8441       8551       8552       8563       8562  
      8431       8432       8443       8442       8552       8553       8564       8563  
      8432       8433       8444       8443       8553       8554       8565       8564  
      8433       8434       8445       8444       8554       8555       8566       8565  
      8434       8435       8446       8445       8555       8556       8567       8566  
      8435       8436       8447       8446       8556       8557       8568       8567  
      8436       8437       8448       8447       8557       8558       8569       8568  
      8438       8439       8450       8449       8559       8560       8571       8570  
      8439       8440       8451       8450       8560       8561       8572       8571  
      8440       8441       8452       8451       8561       8562       8573       8572  
      8441       8442       8453       8452       8562       8563       8574       8573  
      8442       8443       8454       8453       8563       8564       8575       8574  
      8443       8444       8455       8454       8564       8565       8576       8575  
      8444       8445       8456       8455       8565       8566       8577       8576  
      8445       8446       8457       8456       8566       8567       8578       8577  
      8446       8447       8458       8457       8567       8568       8579       8578  
      8447       8448       8459       8458       8568       8569       8580       8579  
      8449       8450       8461       8460       8570       8571       8582       8581  
      8450       8451       8462       8461       8571       8572       8583       8582  
      8451       8452       8463       8462       8572       8573       8584       8583  
      8452       8453       8464       8463       8573       8574       8585       8584  
      8453       8454       8465       8464       8574       8575       8586       8585  
      8454       8455       8466       8465       8575       8576       8587       8586  
      8455       8456       8467       8466       8576       8577       8588       8587  
      8456       8457       8468       8467       8577       8578       8589       8588  
      8457       8458       8469       8468       8578       8579       8590       8589  
      8458       8459       8470       8469       8579       8580       8591       8590  
      8471       8472       8483       8482       8592       8593       8604       8603  
      8472       8473       8484       8483       8593       8594       8605       8604  
      8473       8474       8485       8484       8594       8595       8606       8605  
      8474       8475       8486       8485       8595       8596       8607       8606  
      8475       8476       8487       8486       8596       8597       8608       8607  
      8476       8477       8488       8487       8597       8598       8609       8608  
      8477       8478       8489       8488       8598       8599       8610       8609  
      8478       8479       8490       8489       8599       8600       8611       8610  
      8479       8480       8491       8490       8600       8601       8612       8611  
      8480       8481       8492       8491       8601       8602       8613       8612  
      8482       8483       8494       8493       8603       8604       8615       8614  
      8483       8484       8495       8494       8604       8605       8616       8615  
      8484       8485       8496       8495       8605       8606       8617       8616  
      8485       8486       8497       8496       8606       8607       8618       8617  
      8486       8487       8498       8497       8607       8608       8619       8618  
      8487       8488       8499       8498       8608       8609       8620       8619  
      8488       8489       8500       8499       8609       8610       8621       8620  
      8489       8490       8501       8500       8610       8611       8622       8621  
      8490       8491       8502       8501       8611       8612       8623       8622  
      8491       8492       8503       8502       8612       8613       8624       8623  
      8493       8494       8505       8504       8614       8615       8626       8625  
      8494       8495       8506       8505       8615       8616       8627       8626  
      8495       8496       8507       8506       8616       8617       8628       8627  
      8496       8497       8508       8507       8617       8618       8629       8628  
      8497       8498       8509       8508       8618       8619       8630       8629  
      8498       8499       8510       8509       8619       8620       8631       8630  
      8499       8500       8511       8510       8620       8621       8632       8631  
      8500       8501       8512       8511       8621       8622       8633       8632  
      8501       8502       8513       8512       8622       8623       8634       8633  
      8502       8503       8514       8513       8623       8624       8635       8634  
      8504       8505       8516       8515       8625       8626       8637       8636  
      8505       8506       8517       8516       8626       8627       8638       8637  
      8506       8507       8518       8517       8627       8628       8639       8638  
      8507       8508       8519       8518       8628       8629       8640       8639  
      8508       8509       8520       8519       8629       8630       8641       8640  
      8509       8510       8521       8520       8630       8631       8642       8641  
      8510       8511       8522       8521       8631       8632       8643       8642  
      8511       8512       8523       8522       8632       8633       8644       8643  
      8512       8513       8524       8523       8633       8634       8645       8644  
      8513       8514       8525       8524       8634       8635       8646       8645  
      8515       8516       8527       8526       8636       8637       8648       8647  
      8516       8517       8528       8527       8637       8638       8649       8648  
      8517       8518       8529       8528       8638       8639       8650       8649  
      8518       8519       8530       8529       8639       8640       8651       8650  
      8519       8520       8531       8530       8640       8641       8652       8651  
      8520       8521       8532       8531       8641       8642       8653       8652  
      8521       8522       8533       8532       8642       8643       8654       8653  
      8522       8523       8534       8533       8643       8644       8655       8654  
      8523       8524       8535       8534       8644       8645       8656       8655  
      8524       8525       8536       8535       8645       8646       8657       8656  
      8526       8527       8538       8537       8647       8648       8659       8658  
      8527       8528       8539       8538       8648       8649       8660       8659  
      8528       8529       8540       8539       8649       8650       8661       8660  
      8529       8530       8541       8540       8650       8651       8662       8661  
      8530       8531       8542       8541       8651       8652       8663       8662  
      8531       8532       8543       8542       8652       8653       8664       8663  
      8532       8533       8544       8543       8653       8654       8665       8664  
      8533       8534       8545       8544       8654       8655       8666       8665  
      8534       8535       8546       8545       8655       8656       8667       8666  
      8535       8536       8547       8546       8656       8657       8668       8667  
      8537       8538       8549       8548       8658       8659       8670       8669  
      8538       8539       8550       8549       8659       8660       8671       8670  
      8539       8540       8551       8550       8660       8661       8672       8671  
      8540       8541       8552       8551       8661       8662       8673       8672  
      8541       8542       8553       8552       8662       8663       8674       8673  
      8542       8543       8554       8553       8663       8664       8675       8674  
      8543       8544       8555       8554       8664       8665       8676       8675  
      8544       8545       8556       8555       8665       8666       8677       8676  
      8545       8546       8557       8556       8666       8667       8678       8677  
      8546       8547       8558       8557       8667       8668       8679       8678  
      8548       8549       8560       8559       8669       8670       8681       8680  
      8549       8550       8561       8560       8670       8671       8682       8681  
      8550       8551       8562       8561       8671       8672       8683       8682  
      8551       8552       8563       8562       8672       8673       8684       8683  
      8552       8553       8564       8563       8673       8674       8685       8684  
      8553       8554       8565       8564       8674       8675       8686       8685  
      8554       8555       8566       8565       8675       8676       8687       8686  
      8555       8556       8567       8566       8676       8677       8688       8687  
      8556       8557       8568       8567       8677       8678       8689       8688  
      8557       8558       8569       8568       8678       8679       8690       8689  
      8559       8560       8571       8570       8680       8681       8692       8691  
      8560       8561       8572       8571       8681       8682       8693       8692  
      8561       8562       8573       8572       8682       8683       8694       8693  
      8562       8563       8574       8573       8683       8684       8695       8694  
      8563       8564       8575       8574       8684       8685       8696       8695  
      8564       8565       8576       8575       8685       8686       8697       8696  
      8565       8566       8577       8576       8686       8687       8698       8697  
      8566       8567       8578       8577       8687       8688       8699       8698  
      8567       8568       8579       8578       8688       8689       8700       8699  
      8568       8569       8580       8579       8689       8690       8701       8700  
      8570       8571       8582       8581       8691       8692       8703       8702  
      8571       8572       8583       8582       8692       8693       8704       8703  
      8572       8573       8584       8583       8693       8694       8705       8704  
      8573       8574       8585       8584       8694       8695       8706       8705  
      8574       8575       8586       8585       8695       8696       8707       8706  
      8575       8576       8587       8586       8696       8697       8708       8707  
      8576       8577       8588       8587       8697       8698       8709       8708  
      8577       8578       8589       8588       8698       8699       8710       8709  
      8578       8579       8590       8589       8699       8700       8711       8710  
      8579       8580       8591       8590       8700       8701       8712       8711  
      8592       8593       8604       8603       8713       8714       8725       8724  
      8593       8594       8605       8604       8714       8715       8726       8725  
      8594       8595       8606       8605       8715       8716       8727       8726  
      8595       8596       8607       8606       8716       8717       8728       8727  
      8596       8597       8608       8607       8717       8718       8729       8728  
      8597       8598       8609       8608       8718       8719       8730       8729  
      8598       8599       8610       8609       8719       8720       8731       8730  
      8599       8600       8611       8610       8720       8721       8732       8731  
      8600       8601       8612       8611       8721       8722       8733       8732  
      8601       8602       8613       8612       8722       8723       8734       8733  
      8603       8604       8615       8614       8724       8725       8736       8735  
      8604       8605       8616       8615       8725       8726       8737       8736  
      8605       8606       8617       8616       8726       8727       8738       8737  
      8606       8607       8618       8617       8727       8728       8739       8738  
      8607       8608       8619       8618       8728       8729       8740       8739  
      8608       8609       8620       8619       8729       8730       8741       8740  
      8609       8610       8621       8620       8730       8731       8742       8741  
      8610       8611       8622       8621       8731       8732       8743       8742  
      8611       8612       8623       8622       8732       8733       8744       8743  
      8612       8613       8624       8623       8733       8734       8745       8744  
      8614       8615       8626       8625       8735       8736       8747       8746  
      8615       8616       8627       8626       8736       8737       8748       8747  
      8616       8617       8628       8627       8737       8738       8749       8748  
      8617       8618       8629       8628       8738       8739       8750       8749  
      8618       8619       8630       8629       8739       8740       8751       8750  
      8619       8620       8631       8630       8740       8741       8752       8751  
      8620       8621       8632       8631       8741       8742       8753       8752  
      8621       8622       8633       8632       8742       8743       8754       8753  
      8622       8623       8634       8633       8743       8744       8755       8754  
      8623       8624       8635       8634       8744       8745       8756       8755  
      8625       8626       8637       8636       8746       8747       8758       8757  
      8626       8627       8638       8637       8747       8748       8759       8758  
      8627       8628       8639       8638       8748       8749       8760       8759  
      8628       8629       8640       8639       8749       8750       8761       8760  
      8629       8630       8641       8640       8750       8751       8762       8761  
      8630       8631       8642       8641       8751       8752       8763       8762  
      8631       8632       8643       8642       8752       8753       8764       8763  
      8632       8633       8644       8643       8753       8754       8765       8764  
      8633       8634       8645       8644       8754       8755       8766       8765  
      8634       8635       8646       8645       8755       8756       8767       8766  
      8636       8637       8648       8647       8757       8758       8769       8768  
      8637       8638       8649       8648       8758       8759       8770       8769  
      8638       8639       8650       8649       8759       8760       8771       8770  
      8639       8640       8651       8650       8760       8761       8772       8771  
      8640       8641       8652       8651       8761       8762       8773       8772  
      8641       8642       8653       8652       8762       8763       8774       8773  
      8642       8643       8654       8653       8763       8764       8775       8774  
      8643       8644       8655       8654       8764       8765       8776       8775  
      8644       8645       8656       8655       8765       8766       8777       8776  
      8645       8646       8657       8656       8766       8767       8778       8777  
      8647       8648       8659       8658       8768       8769       8780       8779  
      8648       8649       8660       8659       8769       8770       8781       8780  
      8649       8650       8661       8660       8770       8771       8782       8781  
      8650       8651       8662       8661       8771       8772       8783       8782  
      8651       8652       8663       8662       8772       8773       8784       8783  
      8652       8653       8664       8663       8773       8774       8785       8784  
      8653       8654       8665       8664       8774       8775       8786       8785  
      8654       8655       8666       8665       8775       8776       8787       8786  
      8655       8656       8667       8666       8776       8777       8788       8787  
      8656       8657       8668       8667       8777       8778       8789       8788  
      8658       8659       8670       8669       8779       8780       8791       8790  
      8659       8660       8671       8670       8780       8781       8792       8791  
      8660       8661       8672       8671       8781       8782       8793       8792  
      8661       8662       8673       8672       8782       8783       8794       8793  
      8662       8663       8674       8673       8783       8784       8795       8794  
      8663       8664       8675       8674       8784       8785       8796       8795  
      8664       8665       8676       8675       8785       8786       8797       8796  
      8665       8666       8677       8676       8786       8787       8798       8797  
      8666       8667       8678       8677       8787       8788       8799       8798  
      8667       8668       8679       8678       8788       8789       8800       8799  
      8669       8670       8681       8680       8790       8791       8802       8801  
      8670       8671       8682       8681       8791       8792       8803       8802  
      8671       8672       8683       8682       8792       8793       8804       8803  
      8672       8673       8684       8683       8793       8794       8805       8804  
      8673       8674       8685       8684       8794       8795       8806       8805  
      8674       8675       8686       8685       8795       8796       8807       8806  
      8675       8676       8687       8686       8796       8797       8808       8807  
      8676       8677       8688       8687       8797       8798       8809       8808  
      8677       8678       8689       8688       8798       8799       8810       8809  
      8678       8679       8690       8689       8799       8800       8811       8810  
      8680       8681       8692       8691       8801       8802       8813       8812  
      8681       8682       8693       8692       8802       8803       8814       8813  
      8682       8683       8694       8693       8803       8804       8815       8814  
      8683       8684       8695       8694       8804       8805       8816       8815  
      8684       8685       8696       8695       8805       8806       8817       8816  
      8685       8686       8697       8696       8806       8807       8818       8817  
      8686       8687       8698       8697       8807       8808       8819       8818  
      8687       8688       8699       8698       8808       8809       8820       8819  
      8688       8689       8700       8699       8809       8810       8821       8820  
      8689       8690       8701       8700       8810       8811       8822       8821  
      8691       8692       8703       8702       8812       8813       8824       8823  
      8692       8693       8704       8703       8813       8814       8825       8824  
      8693       8694       8705       8704       8814       8815       8826       8825  
      8694       8695       8706       8705       8815       8816       8827       8826  
      8695       8696       8707       8706       8816       8817       8828       8827  
      8696       8697       8708       8707       8817       8818       8829       8828  
      8697       8698       8709       8708       8818       8819       8830       8829  
      8698       8699       8710       8709       8819       8820       8831       8830  
      8699       8700       8711       8710       8820       8821       8832       8831  
      8700       8701       8712       8711       8821       8822       8833       8832  
      8713       8714       8725       8724       8834       8835       8846       8845  
      8714       8715       8726       8725       8835       8836       8847       8846  
      8715       8716       8727       8726       8836       8837       8848       8847  
      8716       8717       8728       8727       8837       8838       8849       8848  
      8717       8718       8729       8728       8838       8839       8850       8849  
      8718       8719       8730       8729       8839       8840       8851       8850  
      8719       8720       8731       8730       8840       8841       8852       8851  
      8720       8721       8732       8731       8841       8842       8853       8852  
      8721       8722       8733       8732       8842       8843       8854       8853  
      8722       8723       8734       8733       8843       8844       8855       8854  
      8724       8725       8736       8735       8845       8846       8857       8856  
      8725       8726       8737       8736       8846       8847       8858       8857  
      8726       8727       8738       8737       8847       8848       8859       8858  
      8727       8728       8739       8738       8848       8849       8860       8859  
      8728       8729       8740       8739       8849       8850       8861       8860  
      8729       8730       8741       8740       8850       8851       8862       8861  
      8730       8731       8742       8741       8851       8852       8863       8862  
      8731       8732       8743       8742       8852       8853       8864       8863  
      8732       8733       8744       8743       8853       8854       8865       8864  
      8733       8734       8745       8744       8854       8855       8866       8865  
      8735       8736       8747       8746       8856       8857       8868       8867  
      8736       8737       8748       8747       8857       8858       8869       8868  
      8737       8738       8749       8748       8858       8859       8870       8869  
      8738       8739       8750       8749       8859       8860       8871       8870  
      8739       8740       8751       8750       8860       8861       8872       8871  
      8740       8741       8752       8751       8861       8862       8873       8872  
      8741       8742       8753       8752       8862       8863       8874       8873  
      8742       8743       8754       8753       8863       8864       8875       8874  
      8743       8744       8755       8754       8864       8865       8876       8875  
      8744       8745       8756       8755       8865       8866       8877       8876  
      8746       8747       8758       8757       8867       8868       8879       8878  
      8747       8748       8759       8758       8868       8869       8880       8879  
      8748       8749       8760       8759       8869       8870       8881       8880  
      8749       8750       8761       8760       8870       8871       8882       8881  
      8750       8751       8762       8761       8871       8872       8883       8882  
      8751       8752       8763       8762       8872       8873       8884       8883  
      8752       8753       8764       8763       8873       8874       8885       8884  
      8753       8754       8765       8764       8874       8875       8886       8885  
      8754       8755       8766       8765       8875       8876       8887       8886  
      8755       8756       8767       8766       8876       8877       8888       8887  
      8757       8758       8769       8768       8878       8879       8890       8889  
      8758       8759       8770       8769       8879       8880       8891       8890  
      8759       8760       8771       8770       8880       8881       8892       8891  
      8760       8761       8772       8771       8881       8882       8893       8892  
      8761       8762       8773       8772       8882       8883       8894       8893  
      8762       8763       8774       8773       8883       8884       8895       8894  
      8763       8764       8775       8774       8884       8885       8896       8895  
      8764       8765       8776       8775       8885       8886       8897       8896  
      8765       8766       8777       8776       8886       8887       8898       8897  
      8766       8767       8778       8777       8887       8888       8899       8898  
      8768       8769       8780       8779       8889       8890       8901       8900  
      8769       8770       8781       8780       8890       8891       8902       8901  
      8770       8771       8782       8781       8891       8892       8903       8902  
      8771       8772       8783       8782       8892       8893       8904       8903  
      8772       8773       8784       8783       8893       8894       8905       8904  
      8773       8774       8785       8784       8894       8895       8906       8905  
      8774       8775       8786       8785       8895       8896       8907       8906  
      8775       8776       8787       8786       8896       8897       8908       8907  
      8776       8777       8788       8787       8897       8898       8909       8908  
      8777       8778       8789       8788       8898       8899       8910       8909  
      8779       8780       8791       8790       8900       8901       8912       8911  
      8780       8781       8792       8791       8901       8902       8913       8912  
      8781       8782       8793       8792       8902       8903       8914       8913  
      8782       8783       8794       8793       8903       8904       8915       8914  
      8783       8784       8795       8794       8904       8905       8916       8915  
      8784       8785       8796       8795       8905       8906       8917       8916  
      8785       8786       8797       8796       8906       8907       8918       8917  
      8786       8787       8798       8797       8907       8908       8919       8918  
      8787       8788       8799       8798       8908       8909       8920       8919  
      8788       8789       8800       8799       8909       8910       8921       8920  
      8790       8791       8802       8801       8911       8912       8923       8922  
      8791       8792       8803       8802       8912       8913       8924       8923  
      8792       8793       8804       8803       8913       8914       8925       8924  
      8793       8794       8805       8804       8914       8915       8926       8925  
      8794       8795       8806       8805       8915       8916       8927       8926  
      8795       8796       8807       8806       8916       8917       8928       8927  
      8796       8797       8808       8807       8917       8918       8929       8928  
      8797       8798       8809       8808       8918       8919       8930       8929  
      8798       8799       8810       8809       8919       8920       8931       8930  
      8799       8800       8811       8810       8920       8921       8932       8931  
      8801       8802       8813       8812       8922       8923       8934       8933  
      8802       8803       8814       8813       8923       8924       8935       8934  
      8803       8804       8815       8814       8924       8925       8936       8935  
      8804       8805       8816       8815       8925       8926       8937       8936  
      8805       8806       8817       8816       8926       8927       8938       8937  
      8806       8807       8818       8817       8927       8928       8939       8938  
      8807       8808       8819       8818       8928       8929       8940       8939  
      8808       8809       8820       8819       8929       8930       8941       8940  
      8809       8810       8821       8820       8930       8931       8942       8941  
      8810       8811       8822       8821       8931       8932       8943       8942  
      8812       8813       8824       8823       8933       8934       8945       8944  
      8813       8814       8825       8824       8934       8935       8946       8945  
      8814       8815       8826       8825       8935       8936       8947       8946  
      8815       8816       8827       8826       8936       8937       8948       8947  
      8816       8817       8828       8827       8937       8938       8949       8948  
      8817       8818       8829       8828       8938       8939       8950       8949  
      8818       8819       8830       8829       8939       8940       8951       8950  
      8819       8820       8831       8830       8940       8941       8952       8951  
      8820       8821       8832       8831       8941       8942       8953       8952  
      8821       8822       8833       8832       8942       8943       8954       8953  
      8834       8835       8846       8845       8955       8956       8967       8966  
      8835       8836       8847       8846       8956       8957       8968       8967  
      8836       8837       8848       8847       8957       8958       8969       8968  
      8837       8838       8849       8848       8958       8959       8970       8969  
      8838       8839       8850       8849       8959       8960       8971       8970  
      8839       8840       8851       8850       8960       8961       8972       8971  
      8840       8841       8852       8851       8961       8962       8973       8972  
      8841       8842       8853       8852       8962       8963       8974       8973  
      8842       8843       8854       8853       8963       8964       8975       8974  
      8843       8844       8855       8854       8964       8965       8976       8975  
      8845       8846       8857       8856       8966       8967       8978       8977  
      8846       8847       8858       8857       8967       8968       8979       8978  
      8847       8848       8859       8858       8968       8969       8980       8979  
      8848       8849       8860       8859       8969       8970       8981       8980  
      8849       8850       8861       8860       8970       8971       8982       8981  
      8850       8851       8862       8861       8971       8972       8983       8982  
      8851       8852       8863       8862       8972       8973       8984       8983  
      8852       8853       8864       8863       8973       8974       8985       8984  
      8853       8854       8865       8864       8974       8975       8986       8985  
      8854       8855       8866       8865       8975       8976       8987       8986  
      8856       8857       8868       8867       8977       8978       8989       8988  
      8857       8858       8869       8868       8978       8979       8990       8989  
      8858       8859       8870       8869       8979       8980       8991       8990  
      8859       8860       8871       8870       8980       8981       8992       8991  
      8860       8861       8872       8871       8981       8982       8993       8992  
      8861       8862       8873       8872       8982       8983       8994       8993  
      8862       8863       8874       8873       8983       8984       8995       8994  
      8863       8864       8875       8874       8984       8985       8996       8995  
      8864       8865       8876       8875       8985       8986       8997       8996  
      8865       8866       8877       8876       8986       8987       8998       8997  
      8867       8868       8879       8878       8988       8989       9000       8999  
      8868       8869       8880       8879       8989       8990       9001       9000  
      8869       8870       8881       8880       8990       8991       9002       9001  
      8870       8871       8882       8881       8991       8992       9003       9002  
      8871       8872       8883       8882       8992       8993       9004       9003  
      8872       8873       8884       8883       8993       8994       9005       9004  
      8873       8874       8885       8884       8994       8995       9006       9005  
      8874       8875       8886       8885       8995       8996       9007       9006  
      8875       8876       8887       8886       8996       8997       9008       9007  
      8876       8877       8888       8887       8997       8998       9009       9008  
      8878       8879       8890       8889       8999       9000       9011       9010  
      8879       8880       8891       8890       9000       9001       9012       9011  
      8880       8881       8892       8891       9001       9002       9013       9012  
      8881       8882       8893       8892       9002       9003       9014       9013  
      8882       8883       8894       8893       9003       9004       9015       9014  
      8883       8884       8895       8894       9004       9005       9016       9015  
      8884       8885       8896       8895       9005       9006       9017       9016  
      8885       8886       8897       8896       9006       9007       9018       9017  
      8886       8887       8898       8897       9007       9008       9019       9018  
      8887       8888       8899       8898       9008       9009       9020       9019  
      8889       8890       8901       8900       9010       9011       9022       9021  
      8890       8891       8902       8901       9011       9012       9023       9022  
      8891       8892       8903       8902       9012       9013       9024       9023  
      8892       8893       8904       8903       9013       9014       9025       9024  
      8893       8894       8905       8904       9014       9015       9026       9025  
      8894       8895       8906       8905       9015       9016       9027       9026  
      8895       8896       8907       8906       9016       9017       9028       9027  
      8896       8897       8908       8907       9017       9018       9029       9028  
      8897       8898       8909       8908       9018       9019       9030       9029  
      8898       8899       8910       8909       9019       9020       9031       9030  
      8900       8901       8912       8911       9021       9022       9033       9032  
      8901       8902       8913       8912       9022       9023       9034       9033  
      8902       8903       8914       8913       9023       9024       9035       9034  
      8903       8904       8915       8914       9024       9025       9036       9035  
      8904       8905       8916       8915       9025       9026       9037       9036  
      8905       8906       8917       8916       9026       9027       9038       9037  
      8906       8907       8918       8917       9027       9028       9039       9038  
      8907       8908       8919       8918       9028       9029       9040       9039  
      8908       8909       8920       8919       9029       9030       9041       9040  
      8909       8910       8921       8920       9030       9031       9042       9041  
      8911       8912       8923       8922       9032       9033       9044       9043  
      8912       8913       8924       8923       9033       9034       9045       9044  
      8913       8914       8925       8924       9034       9035       9046       9045  
      8914       8915       8926       8925       9035       9036       9047       9046  
      8915       8916       8927       8926       9036       9037       9048       9047  
      8916       8917       8928       8927       9037       9038       9049       9048  
      8917       8918       8929       8928       9038       9039       9050       9049  
      8918       8919       8930       8929       9039       9040       9051       9050  
      8919       8920       8931       8930       9040       9041       9052       9051  
      8920       8921       8932       8931       9041       9042       9053       9052  
      8922       8923       8934       8933       9043       9044       9055       9054  
      8923       8924       8935       8934       9044       9045       9056       9055  
      8924       8925       8936       8935       9045       9046       9057       9056  
      8925       8926       8937       8936       9046       9047       9058       9057  
      8926       8927       8938       8937       9047       9048       9059       9058  
      8927       8928       8939       8938       9048       9049       9060       9059  
      8928       8929       8940       8939       9049       9050       9061       9060  
      8929       8930       8941       8940       9050       9051       9062       9061  
      8930       8931       8942       8941       9051       9052       9063       9062  
      8931       8932       8943       8942       9052       9053       9064       9063  
      8933       8934       8945       8944       9054       9055       9066       9065  
      8934       8935       8946       8945       9055       9056       9067       9066  
      8935       8936       8947       8946       9056       9057       9068       9067  
      8936       8937       8948       8947       9057       9058       9069       9068  
      8937       8938       8949       8948       9058       9059       9070       9069  
      8938       8939       8950       8949       9059       9060       9071       9070  
      8939       8940       8951       8950       9060       9061       9072       9071  
      8940       8941       8952       8951       9061       9062       9073       9072  
      8941       8942       8953       8952       9062       9063       9074       9073  
      8942       8943       8954       8953       9063       9064       9075       9074  
      8955       8956       8967       8966       9076       9077       9088       9087  
      8956       8957       8968       8967       9077       9078       9089       9088  
      8957       8958       8969       8968       9078       9079       9090       9089  
      8958       8959       8970       8969       9079       9080       9091       9090  
      8959       8960       8971       8970       9080       9081       9092       9091  
      8960       8961       8972       8971       9081       9082       9093       9092  
      8961       8962       8973       8972       9082       9083       9094       9093  
      8962       8963       8974       8973       9083       9084       9095       9094  
      8963       8964       8975       8974       9084       9085       9096       9095  
      8964       8965       8976       8975       9085       9086       9097       9096  
      8966       8967       8978       8977       9087       9088       9099       9098  
      8967       8968       8979       8978       9088       9089       9100       9099  
      8968       8969       8980       8979       9089       9090       9101       9100  
      8969       8970       8981       8980       9090       9091       9102       9101  
      8970       8971       8982       8981       9091       9092       9103       9102  
      8971       8972       8983       8982       9092       9093       9104       9103  
      8972       8973       8984       8983       9093       9094       9105       9104  
      8973       8974       8985       8984       9094       9095       9106       9105  
      8974       8975       8986       8985       9095       9096       9107       9106  
      8975       8976       8987       8986       9096       9097       9108       9107  
      8977       8978       8989       8988       9098       9099       9110       9109  
      8978       8979       8990       8989       9099       9100       9111       9110  
      8979       8980       8991       8990       9100       9101       9112       9111  
      8980       8981       8992       8991       9101       9102       9113       9112  
      8981       8982       8993       8992       9102       9103       9114       9113  
      8982       8983       8994       8993       9103       9104       9115       9114  
      8983       8984       8995       8994       9104       9105       9116       9115  
      8984       8985       8996       8995       9105       9106       9117       9116  
      8985       8986       8997       8996       9106       9107       9118       9117  
      8986       8987       8998       8997       9107       9108       9119       9118  
      8988       8989       9000       8999       9109       9110       9121       9120  
      8989       8990       9001       9000       9110       9111       9122       9121  
      8990       8991       9002       9001       9111       9112       9123       9122  
      8991       8992       9003       9002       9112       9113       9124       9123  
      8992       8993       9004       9003       9113       9114       9125       9124  
      8993       8994       9005       9004       9114       9115       9126       9125  
      8994       8995       9006       9005       9115       9116       9127       9126  
      8995       8996       9007       9006       9116       9117       9128       9127  
      8996       8997       9008       9007       9117       9118       9129       9128  
      8997       8998       9009       9008       9118       9119       9130       9129  
      8999       9000       9011       9010       9120       9121       9132       9131  
      9000       9001       9012       9011       9121       9122       9133       9132  
      9001       9002       9013       9012       9122       9123       9134       9133  
      9002       9003       9014       9013       9123       9124       9135       9134  
      9003       9004       9015       9014       9124       9125       9136       9135  
      9004       9005       9016       9015       9125       9126       9137       9136  
      9005       9006       9017       9016       9126       9127       9138       9137  
      9006       9007       9018       9017       9127       9128       9139       9138  
      9007       9008       9019       9018       9128       9129       9140       9139  
      9008       9009       9020       9019       9129       9130       9141       9140  
      9010       9011       9022       9021       9131       9132       9143       9142  
      9011       9012       9023       9022       9132       9133       9144       9143  
      9012       9013       9024       9023       9133       9134       9145       9144  
      9013       9014       9025       9024       9134       9135       9146       9145  
      9014       9015       9026       9025       9135       9136       9147       9146  
      9015       9016       9027       9026       9136       9137       9148       9147  
      9016       9017       9028       9027       9137       9138       9149       9148  
      9017       9018       9029       9028       9138       9139       9150       9149  
      9018       9019       9030       9029       9139       9140       9151       9150  
      9019       9020       9031       9030       9140       9141       9152       9151  
      9021       9022       9033       9032       9142       9143       9154       9153  
      9022       9023       9034       9033       9143       9144       9155       9154  
      9023       9024       9035       9034       9144       9145       9156       9155  
      9024       9025       9036       9035       9145       9146       9157       9156  
      9025       9026       9037       9036       9146       9147       9158       9157  
      9026       9027       9038       9037       9147       9148       9159       9158  
      9027       9028       9039       9038       9148       9149       9160       9159  
      9028       9029       9040       9039       9149       9150       9161       9160  
      9029       9030       9041       9040       9150       9151       9162       9161  
      9030       9031       9042       9041       9151       9152       9163       9162  
      9032       9033       9044       9043       9153       9154       9165       9164  
      9033       9034       9045       9044       9154       9155       9166       9165  
      9034       9035       9046       9045       9155       9156       9167       9166  
      9035       9036       9047       9046       9156       9157       9168       9167  
      9036       9037       9048       9047       9157       9158       9169       9168  
      9037       9038       9049       9048       9158       9159       9170       9169  
      9038       9039       9050       9049       9159       9160       9171       9170  
      9039       9040       9051       9050       9160       9161       9172       9171  
      9040       9041       9052       9051       9161       9162       9173       9172  
      9041       9042       9053       9052       9162       9163       9174       9173  
      9043       9044       9055       9054       9164       9165       9176       9175  
      9044       9045       9056       9055       9165       9166       9177       9176  
      9045       9046       9057       9056       9166       9167       9178       9177  
      9046       9047       9058       9057       9167       9168       9179       9178  
      9047       9048       9059       9058       9168       9169       9180       9179  
      9048       9049       9060       9059       9169       9170       9181       9180  
      9049       9050       9061       9060       9170       9171       9182       9181  
      9050       9051       9062       9061       9171       9172       9183       9182  
      9051       9052       9063       9062       9172       9173       9184       9183  
      9052       9053       9064       9063       9173       9174       9185       9184  
      9054       9055       9066       9065       9175       9176       9187       9186  
      9055       9056       9067       9066       9176       9177       9188       9187  
      9056       9057       9068       9067       9177       9178       9189       9188  
      9057       9058       9069       9068       9178       9179       9190       9189  
      9058       9059       9070       9069       9179       9180       9191       9190  
      9059       9060       9071       9070       9180       9181       9192       9191  
      9060       9061       9072       9071       9181       9182       9193       9192  
      9061       9062       9073       9072       9182       9183       9194       9193  
      9062       9063       9074       9073       9183       9184       9195       9194  
      9063       9064       9075       9074       9184       9185       9196       9195  
      9076       9077       9088       9087       9197       9198       9209       9208  
      9077       9078       9089       9088       9198       9199       9210       9209  
      9078       9079       9090       9089       9199       9200       9211       9210  
      9079       9080       9091       9090       9200       9201       9212       9211  
      9080       9081       9092       9091       9201       9202       9213       9212  
      9081       9082       9093       9092       9202       9203       9214       9213  
      9082       9083       9094       9093       9203       9204       9215       9214  
      9083       9084       9095       9094       9204       9205       9216       9215  
      9084       9085       9096       9095       9205       9206       9217       9216  
      9085       9086       9097       9096       9206       9207       9218       9217  
      9087       9088       9099       9098       9208       9209       9220       9219  
      9088       9089       9100       9099       9209       9210       9221       9220  
      9089       9090       9101       9100       9210       9211       9222       9221  
      9090       9091       9102       9101       9211       9212       9223       9222  
      9091       9092       9103       9102       9212       9213       9224       9223  
      9092       9093       9104       9103       9213       9214       9225       9224  
      9093       9094       9105       9104       9214       9215       9226       9225  
      9094       9095       9106       9105       9215       9216       9227       9226  
      9095       9096       9107       9106       9216       9217       9228       9227  
      9096       9097       9108       9107       9217       9218       9229       9228  
      9098       9099       9110       9109       9219       9220       9231       9230  
      9099       9100       9111       9110       9220       9221       9232       9231  
      9100       9101       9112       9111       9221       9222       9233       9232  
      9101       9102       9113       9112       9222       9223       9234       9233  
      9102       9103       9114       9113       9223       9224       9235       9234  
      9103       9104       9115       9114       9224       9225       9236       9235  
      9104       9105       9116       9115       9225       9226       9237       9236  
      9105       9106       9117       9116       9226       9227       9238       9237  
      9106       9107       9118       9117       9227       9228       9239       9238  
      9107       9108       9119       9118       9228       9229       9240       9239  
      9109       9110       9121       9120       9230       9231       9242       9241  
      9110       9111       9122       9121       9231       9232       9243       9242  
      9111       9112       9123       9122       9232       9233       9244       9243  
      9112       9113       9124       9123       9233       9234       9245       9244  
      9113       9114       9125       9124       9234       9235       9246       9245  
      9114       9115       9126       9125       9235       9236       9247       9246  
      9115       9116       9127       9126       9236       9237       9248       9247  
      9116       9117       9128       9127       9237       9238       9249       9248  
      9117       9118       9129       9128       9238       9239       9250       9249  
      9118       9119       9130       9129       9239       9240       9251       9250  
      9120       9121       9132       9131       9241       9242       9253       9252  
      9121       9122       9133       9132       9242       9243       9254       9253  
      9122       9123       9134       9133       9243       9244       9255       9254  
      9123       9124       9135       9134       9244       9245       9256       9255  
      9124       9125       9136       9135       9245       9246       9257       9256  
      9125       9126       9137       9136       9246       9247       9258       9257  
      9126       9127       9138       9137       9247       9248       9259       9258  
      9127       9128       9139       9138       9248       9249       9260       9259  
      9128       9129       9140       9139       9249       9250       9261       9260  
      9129       9130       9141       9140       9250       9251       9262       9261  
      9131       9132       9143       9142       9252       9253       9264       9263  
      9132       9133       9144       9143       9253       9254       9265       9264  
      9133       9134       9145       9144       9254       9255       9266       9265  
      9134       9135       9146       9145       9255       9256       9267       9266  
      9135       9136       9147       9146       9256       9257       9268       9267  
      9136       9137       9148       9147       9257       9258       9269       9268  
      9137       9138       9149       9148       9258       9259       9270       9269  
      9138       9139       9150       9149       9259       9260       9271       9270  
      9139       9140       9151       9150       9260       9261       9272       9271  
      9140       9141       9152       9151       9261       9262       9273       9272  
      9142       9143       9154       9153       9263       9264       9275       9274  
      9143       9144       9155       9154       9264       9265       9276       9275  
      9144       9145       9156       9155       9265       9266       9277       9276  
      9145       9146       9157       9156       9266       9267       9278       9277  
      9146       9147       9158       9157       9267       9268       9279       9278  
      9147       9148       9159       9158       9268       9269       9280       9279  
      9148       9149       9160       9159       9269       9270       9281       9280  
      9149       9150       9161       9160       9270       9271       9282       9281  
      9150       9151       9162       9161       9271       9272       9283       9282  
      9151       9152       9163       9162       9272       9273       9284       9283  
      9153       9154       9165       9164       9274       9275       9286       9285  
      9154       9155       9166       9165       9275       9276       9287       9286  
      9155       9156       9167       9166       9276       9277       9288       9287  
      9156       9157       9168       9167       9277       9278       9289       9288  
      9157       9158       9169       9168       9278       9279       9290       9289  
      9158       9159       9170       9169       9279       9280       9291       9290  
      9159       9160       9171       9170       9280       9281       9292       9291  
      9160       9161       9172       9171       9281       9282       9293       9292  
      9161       9162       9173       9172       9282       9283       9294       9293  
      9162       9163       9174       9173       9283       9284       9295       9294  
      9164       9165       9176       9175       9285       9286       9297       9296  
      9165       9166       9177       9176       9286       9287       9298       9297  
      9166       9167       9178       9177       9287       9288       9299       9298  
      9167       9168       9179       9178       9288       9289       9300       9299  
      9168       9169       9180       9179       9289       9290       9301       9300  
      9169       9170       9181       9180       9290       9291       9302       9301  
      9170       9171       9182       9181       9291       9292       9303       9302  
      9171       9172       9183       9182       9292       9293       9304       9303  
      9172       9173       9184       9183       9293       9294       9305       9304  
      9173       9174       9185       9184       9294       9295       9306       9305  
      9175       9176       9187       9186       9296       9297       9308       9307  
      9176       9177       9188       9187       9297       9298       9309       9308  
      9177       9178       9189       9188       9298       9299       9310       9309  
      9178       9179       9190       9189       9299       9300       9311       9310  
      9179       9180       9191       9190       9300       9301       9312       9311  
      9180       9181       9192       9191       9301       9302       9313       9312  
      9181       9182       9193       9192       9302       9303       9314       9313  
      9182       9183       9194       9193       9303       9304       9315       9314  
      9183       9184       9195       9194       9304       9305       9316       9315  
      9184       9185       9196       9195       9305       9306       9317       9316  
      9197       9198       9209       9208       9318       9319       9330       9329  
      9198       9199       9210       9209       9319       9320       9331       9330  
      9199       9200       9211       9210       9320       9321       9332       9331  
      9200       9201       9212       9211       9321       9322       9333       9332  
      9201       9202       9213       9212       9322       9323       9334       9333  
      9202       9203       9214       9213       9323       9324       9335       9334  
      9203       9204       9215       9214       9324       9325       9336       9335  
      9204       9205       9216       9215       9325       9326       9337       9336  
      9205       9206       9217       9216       9326       9327       9338       9337  
      9206       9207       9218       9217       9327       9328       9339       9338  
      9208       9209       9220       9219       9329       9330       9341       9340  
      9209       9210       9221       9220       9330       9331       9342       9341  
      9210       9211       9222       9221       9331       9332       9343       9342  
      9211       9212       9223       9222       9332       9333       9344       9343  
      9212       9213       9224       9223       9333       9334       9345       9344  
      9213       9214       9225       9224       9334       9335       9346       9345  
      9214       9215       9226       9225       9335       9336       9347       9346  
      9215       9216       9227       9226       9336       9337       9348       9347  
      9216       9217       9228       9227       9337       9338       9349       9348  
      9217       9218       9229       9228       9338       9339       9350       9349  
      9219       9220       9231       9230       9340       9341       9352       9351  
      9220       9221       9232       9231       9341       9342       9353       9352  
      9221       9222       9233       9232       9342       9343       9354       9353  
      9222       9223       9234       9233       9343       9344       9355       9354  
      9223       9224       9235       9234       9344       9345       9356       9355  
      9224       9225       9236       9235       9345       9346       9357       9356  
      9225       9226       9237       9236       9346       9347       9358       9357  
      9226       9227       9238       9237       9347       9348       9359       9358  
      9227       9228       9239       9238       9348       9349       9360       9359  
      9228       9229       9240       9239       9349       9350       9361       9360  
      9230       9231       9242       9241       9351       9352       9363       9362  
      9231       9232       9243       9242       9352       9353       9364       9363  
      9232       9233       9244       9243       9353       9354       9365       9364  
      9233       9234       9245       9244       9354       9355       9366       9365  
      9234       9235       9246       9245       9355       9356       9367       9366  
      9235       9236       9247       9246       9356       9357       9368       9367  
      9236       9237       9248       9247       9357       9358       9369       9368  
      9237       9238       9249       9248       9358       9359       9370       9369  
      9238       9239       9250       9249       9359       9360       9371       9370  
      9239       9240       9251       9250       9360       9361       9372       9371  
      9241       9242       9253       9252       9362       9363       9374       9373  
      9242       9243       9254       9253       9363       9364       9375       9374  
      9243       9244       9255       9254       9364       9365       9376       9375  
      9244       9245       9256       9255       9365       9366       9377       9376  
      9245       9246       9257       9256       9366       9367       9378       9377  
      9246       9247       9258       9257       9367       9368       9379       9378  
      9247       9248       9259       9258       9368       9369       9380       9379  
      9248       9249       9260       9259       9369       9370       9381       9380  
      9249       9250       9261       9260       9370       9371       9382       9381  
      9250       9251       9262       9261       9371       9372       9383       9382  
      9252       9253       9264       9263       9373       9374       9385       9384  
      9253       9254       9265       9264       9374       9375       9386       9385  
      9254       9255       9266       9265       9375       9376       9387       9386  
      9255       9256       9267       9266       9376       9377       9388       9387  
      9256       9257       9268       9267       9377       9378       9389       9388  
      9257       9258       9269       9268       9378       9379       9390       9389  
      9258       9259       9270       9269       9379       9380       9391       9390  
      9259       9260       9271       9270       9380       9381       9392       9391  
      9260       9261       9272       9271       9381       9382       9393       9392  
      9261       9262       9273       9272       9382       9383       9394       9393  
      9263       9264       9275       9274       9384       9385       9396       9395  
      9264       9265       9276       9275       9385       9386       9397       9396  
      9265       9266       9277       9276       9386       9387       9398       9397  
      9266       9267       9278       9277       9387       9388       9399       9398  
      9267       9268       9279       9278       9388       9389       9400       9399  
      9268       9269       9280       9279       9389       9390       9401       9400  
      9269       9270       9281       9280       9390       9391       9402       9401  
      9270       9271       9282       9281       9391       9392       9403       9402  
      9271       9272       9283       9282       9392       9393       9404       9403  
      9272       9273       9284       9283       9393       9394       9405       9404  
      9274       9275       9286       9285       9395       9396       9407       9406  
      9275       9276       9287       9286       9396       9397       9408       9407  
      9276       9277       9288       9287       9397       9398       9409       9408  
      9277       9278       9289       9288       9398       9399       9410       9409  
      9278       9279       9290       9289       9399       9400       9411       9410  
      9279       9280       9291       9290       9400       9401       9412       9411  
      9280       9281       9292       9291       9401       9402       9413       9412  
      9281       9282       9293       9292       9402       9403       9414       9413  
      9282       9283       9294       9293       9403       9404       9415       9414  
      9283       9284       9295       9294       9404       9405       9416       9415  
      9285       9286       9297       9296       9406       9407       9418       9417  
      9286       9287       9298       9297       9407       9408       9419       9418  
      9287       9288       9299       9298       9408       9409       9420       9419  
      9288       9289       9300       9299       9409       9410       9421       9420  
      9289       9290       9301       9300       9410       9411       9422       9421  
      9290       9291       9302       9301       9411       9412       9423       9422  
      9291       9292       9303       9302       9412       9413       9424       9423  
      9292       9293       9304       9303       9413       9414       9425       9424  
      9293       9294       9305       9304       9414       9415       9426       9425  
      9294       9295       9306       9305       9415       9416       9427       9426  
      9296       9297       9308       9307       9417       9418       9429       9428  
      9297       9298       9309       9308       9418       9419       9430       9429  
      9298       9299       9310       9309       9419       9420       9431       9430  
      9299       9300       9311       9310       9420       9421       9432       9431  
      9300       9301       9312       9311       9421       9422       9433       9432  
      9301       9302       9313       9312       9422       9423       9434       9433  
      9302       9303       9314       9313       9423       9424       9435       9434  
      9303       9304       9315       9314       9424       9425       9436       9435  
      9304       9305       9316       9315       9425       9426       9437       9436  
      9305       9306       9317       9316       9426       9427       9438       9437  
      9318       9319       9330       9329       9439       9440       9451       9450  
      9319       9320       9331       9330       9440       9441       9452       9451  
      9320       9321       9332       9331       9441       9442       9453       9452  
      9321       9322       9333       9332       9442       9443       9454       9453  
      9322       9323       9334       9333       9443       9444       9455       9454  
      9323       9324       9335       9334       9444       9445       9456       9455  
      9324       9325       9336       9335       9445       9446       9457       9456  
      9325       9326       9337       9336       9446       9447       9458       9457  
      9326       9327       9338       9337       9447       9448       9459       9458  
      9327       9328       9339       9338       9448       9449       9460       9459  
      9329       9330       9341       9340       9450       9451       9462       9461  
      9330       9331       9342       9341       9451       9452       9463       9462  
      9331       9332       9343       9342       9452       9453       9464       9463  
      9332       9333       9344       9343       9453       9454       9465       9464  
      9333       9334       9345       9344       9454       9455       9466       9465  
      9334       9335       9346       9345       9455       9456       9467       9466  
      9335       9336       9347       9346       9456       9457       9468       9467  
      9336       9337       9348       9347       9457       9458       9469       9468  
      9337       9338       9349       9348       9458       9459       9470       9469  
      9338       9339       9350       9349       9459       9460       9471       9470  
      9340       9341       9352       9351       9461       9462       9473       9472  
      9341       9342       9353       9352       9462       9463       9474       9473  
      9342       9343       9354       9353       9463       9464       9475       9474  
      9343       9344       9355       9354       9464       9465       9476       9475  
      9344       9345       9356       9355       9465       9466       9477       9476  
      9345       9346       9357       9356       9466       9467       9478       9477  
      9346       9347       9358       9357       9467       9468       9479       9478  
      9347       9348       9359       9358       9468       9469       9480       9479  
      9348       9349       9360       9359       9469       9470       9481       9480  
      9349       9350       9361       9360       9470       9471       9482       9481  
      9351       9352       9363       9362       9472       9473       9484       9483  
      9352       9353       9364       9363       9473       9474       9485       9484  
      9353       9354       9365       9364       9474       9475       9486       9485  
      9354       9355       9366       9365       9475       9476       9487       9486  
      9355       9356       9367       9366       9476       9477       9488       9487  
      9356       9357       9368       9367       9477       9478       9489       9488  
      9357       9358       9369       9368       9478       9479       9490       9489  
      9358       9359       9370       9369       9479       9480       9491       9490  
      9359       9360       9371       9370       9480       9481       9492       9491  
      9360       9361       9372       9371       9481       9482       9493       9492  
      9362       9363       9374       9373       9483       9484       9495       9494  
      9363       9364       9375       9374       9484       9485       9496       9495  
      9364       9365       9376       9375       9485       9486       9497       9496  
      9365       9366       9377       9376       9486       9487       9498       9497  
      9366       9367       9378       9377       9487       9488       9499       9498  
      9367       9368       9379       9378       9488       9489       9500       9499  
      9368       9369       9380       9379       9489       9490       9501       9500  
      9369       9370       9381       9380       9490       9491       9502       9501  
      9370       9371       9382       9381       9491       9492       9503       9502  
      9371       9372       9383       9382       9492       9493       9504       9503  
      9373       9374       9385       9384       9494       9495       9506       9505  
      9374       9375       9386       9385       9495       9496       9507       9506  
      9375       9376       9387       9386       9496       9497       9508       9507  
      9376       9377       9388       9387       9497       9498       9509       9508  
      9377       9378       9389       9388       9498       9499       9510       9509  
      9378       9379       9390       9389       9499       9500       9511       9510  
      9379       9380       9391       9390       9500       9501       9512       9511  
      9380       9381       9392       9391       9501       9502       9513       9512  
      9381       9382       9393       9392       9502       9503       9514       9513  
      9382       9383       9394       9393       9503       9504       9515       9514  
      9384       9385       9396       9395       9505       9506       9517       9516  
      9385       9386       9397       9396       9506       9507       9518       9517  
      9386       9387       9398       9397       9507       9508       9519       9518  
      9387       9388       9399       9398       9508       9509       9520       9519  
      9388       9389       9400       9399       9509       9510       9521       9520  
      9389       9390       9401       9400       9510       9511       9522       9521  
      9390       9391       9402       9401       9511       9512       9523       9522  
      9391       9392       9403       9402       9512       9513       9524       9523  
      9392       9393       9404       9403       9513       9514       9525       9524  
      9393       9394       9405       9404       9514       9515       9526       9525  
      9395       9396       9407       9406       9516       9517       9528       9527  
      9396       9397       9408       9407       9517       9518       9529       9528  
      9397       9398       9409       9408       9518       9519       9530       9529  
      9398       9399       9410       9409       9519       9520       9531       9530  
      9399       9400       9411       9410       9520       9521       9532       9531  
      9400       9401       9412       9411       9521       9522       9533       9532  
      9401       9402       9413       9412       9522       9523       9534       9533  
      9402       9403       9414       9413       9523       9524       9535       9534  
      9403       9404       9415       9414       9524       9525       9536       9535  
      9404       9405       9416       9415       9525       9526       9537       9536  
      9406       9407       9418       9417       9527       9528       9539       9538  
      9407       9408       9419       9418       9528       9529       9540       9539  
      9408       9409       9420       9419       9529       9530       9541       9540  
      9409       9410       9421       9420       9530       9531       9542       9541  
      9410       9411       9422       9421       9531       9532       9543       9542  
      9411       9412       9423       9422       9532       9533       9544       9543  
      9412       9413       9424       9423       9533       9534       9545       9544  
      9413       9414       9425       9424       9534       9535       9546       9545  
      9414       9415       9426       9425       9535       9536       9547       9546  
      9415       9416       9427       9426       9536       9537       9548       9547  
      9417       9418       9429       9428       9538       9539       9550       9549  
      9418       9419       9430       9429       9539       9540       9551       9550  
      9419       9420       9431       9430       9540       9541       9552       9551  
      9420       9421       9432       9431       9541       9542       9553       9552  
      9421       9422       9433       9432       9542       9543       9554       9553  
      9422       9423       9434       9433       9543       9544       9555       9554  
      9423       9424       9435       9434       9544       9545       9556       9555  
      9424       9425       9436       9435       9545       9546       9557       9556  
      9425       9426       9437       9436       9546       9547       9558       9557  
      9426       9427       9438       9437       9547       9548       9559       9558  
      9439       9440       9451       9450       9560       9561       9572       9571  
      9440       9441       9452       9451       9561       9562       9573       9572  
      9441       9442       9453       9452       9562       9563       9574       9573  
      9442       9443       9454       9453       9563       9564       9575       9574  
      9443       9444       9455       9454       9564       9565       9576       9575  
      9444       9445       9456       9455       9565       9566       9577       9576  
      9445       9446       9457       9456       9566       9567       9578       9577  
      9446       9447       9458       9457       9567       9568       9579       9578  
      9447       9448       9459       9458       9568       9569       9580       9579  
      9448       9449       9460       9459       9569       9570       9581       9580  
      9450       9451       9462       9461       9571       9572       9583       9582  
      9451       9452       9463       9462       9572       9573       9584       9583  
      9452       9453       9464       9463       9573       9574       9585       9584  
      9453       9454       9465       9464       9574       9575       9586       9585  
      9454       9455       9466       9465       9575       9576       9587       9586  
      9455       9456       9467       9466       9576       9577       9588       9587  
      9456       9457       9468       9467       9577       9578       9589       9588  
      9457       9458       9469       9468       9578       9579       9590       9589  
      9458       9459       9470       9469       9579       9580       9591       9590  
      9459       9460       9471       9470       9580       9581       9592       9591  
      9461       9462       9473       9472       9582       9583       9594       9593  
      9462       9463       9474       9473       9583       9584       9595       9594  
      9463       9464       9475       9474       9584       9585       9596       9595  
      9464       9465       9476       9475       9585       9586       9597       9596  
      9465       9466       9477       9476       9586       9587       9598       9597  
      9466       9467       9478       9477       9587       9588       9599       9598  
      9467       9468       9479       9478       9588       9589       9600       9599  
      9468       9469       9480       9479       9589       9590       9601       9600  
      9469       9470       9481       9480       9590       9591       9602       9601  
      9470       9471       9482       9481       9591       9592       9603       9602  
      9472       9473       9484       9483       9593       9594       9605       9604  
      9473       9474       9485       9484       9594       9595       9606       9605  
      9474       9475       9486       9485       9595       9596       9607       9606  
      9475       9476       9487       9486       9596       9597       9608       9607  
      9476       9477       9488       9487       9597       9598       9609       9608  
      9477       9478       9489       9488       9598       9599       9610       9609  
      9478       9479       9490       9489       9599       9600       9611       9610  
      9479       9480       9491       9490       9600       9601       9612       9611  
      9480       9481       9492       9491       9601       9602       9613       9612  
      9481       9482       9493       9492       9602       9603       9614       9613  
      9483       9484       9495       9494       9604       9605       9616       9615  
      9484       9485       9496       9495       9605       9606       9617       9616  
      9485       9486       9497       9496       9606       9607       9618       9617  
      9486       9487       9498       9497       9607       9608       9619       9618  
      9487       9488       9499       9498       9608       9609       9620       9619  
      9488       9489       9500       9499       9609       9610       9621       9620  
      9489       9490       9501       9500       9610       9611       9622       9621  
      9490       9491       9502       9501       9611       9612       9623       9622  
      9491       9492       9503       9502       9612       9613       9624       9623  
      9492       9493       9504       9503       9613       9614       9625       9624  
      9494       9495       9506       9505       9615       9616       9627       9626  
      9495       9496       9507       9506       9616       9617       9628       9627  
      9496       9497       9508       9507       9617       9618       9629       9628  
      9497       9498       9509       9508       9618       9619       9630       9629  
      9498       9499       9510       9509       9619       9620       9631       9630  
      9499       9500       9511       9510       9620       9621       9632       9631  
      9500       9501       9512       9511       9621       9622       9633       9632  
      9501       9502       9513       9512       9622       9623       9634       9633  
      9502       9503       9514       9513       9623       9624       9635       9634  
      9503       9504       9515       9514       9624       9625       9636       9635  
      9505       9506       9517       9516       9626       9627       9638       9637  
      9506       9507       9518       9517       9627       9628       9639       9638  
      9507       9508       9519       9518       9628       9629       9640       9639  
      9508       9509       9520       9519       9629       9630       9641       9640  
      9509       9510       9521       9520       9630       9631       9642       9641  
      9510       9511       9522       9521       9631       9632       9643       9642  
      9511       9512       9523       9522       9632       9633       9644       9643  
      9512       9513       9524       9523       9633       9634       9645       9644  
      9513       9514       9525       9524       9634       9635       9646       9645  
      9514       9515       9526       9525       9635       9636       9647       9646  
      9516       9517       9528       9527       9637       9638       9649       9648  
      9517       9518       9529       9528       9638       9639       9650       9649  
      9518       9519       9530       9529       9639       9640       9651       9650  
      9519       9520       9531       9530       9640       9641       9652       9651  
      9520       9521       9532       9531       9641       9642       9653       9652  
      9521       9522       9533       9532       9642       9643       9654       9653  
      9522       9523       9534       9533       9643       9644       9655       9654  
      9523       9524       9535       9534       9644       9645       9656       9655  
      9524       9525       9536       9535       9645       9646       9657       9656  
      9525       9526       9537       9536       9646       9647       9658       9657  
      9527       9528       9539       9538       9648       9649       9660       9659  
      9528       9529       9540       9539       9649       9650       9661       9660  
      9529       9530       9541       9540       9650       9651       9662       9661  
      9530       9531       9542       9541       9651       9652       9663       9662  
      9531       9532       9543       9542       9652       9653       9664       9663  
      9532       9533       9544       9543       9653       9654       9665       9664  
      9533       9534       9545       9544       9654       9655       9666       9665  
      9534       9535       9546       9545       9655       9656       9667       9666  
      9535       9536       9547       9546       9656       9657       9668       9667  
      9536       9537       9548       9547       9657       9658       9669       9668  
      9538       9539       9550       9549       9659       9660       9671       9670  
      9539       9540       9551       9550       9660       9661       9672       9671  
      9540       9541       9552       9551       9661       9662       9673       9672  
      9541       9542       9553       9552       9662       9663       9674       9673  
      9542       9543       9554       9553       9663       9664       9675       9674  
      9543       9544       9555       9554       9664       9665       9676       9675  
      9544       9545       9556       9555       9665       9666       9677       9676  
      9545       9546       9557       9556       9666       9667       9678       9677  
      9546       9547       9558       9557       9667       9668       9679       9678  
      9547       9548       9559       9558       9668       9669       9680       9679  
      9560       9561       9572       9571       9681       9682       9693       9692  
      9561       9562       9573       9572       9682       9683       9694       9693  
      9562       9563       9574       9573       9683       9684       9695       9694  
      9563       9564       9575       9574       9684       9685       9696       9695  
      9564       9565       9576       9575       9685       9686       9697       9696  
      9565       9566       9577       9576       9686       9687       9698       9697  
      9566       9567       9578       9577       9687       9688       9699       9698  
      9567       9568       9579       9578       9688       9689       9700       9699  
      9568       9569       9580       9579       9689       9690       9701       9700  
      9569       9570       9581       9580       9690       9691       9702       9701  
      9571       9572       9583       9582       9692       9693       9704       9703  
      9572       9573       9584       9583       9693       9694       9705       9704  
      9573       9574       9585       9584       9694       9695       9706       9705  
      9574       9575       9586       9585       9695       9696       9707       9706  
      9575       9576       9587       9586       9696       9697       9708       9707  
      9576       9577       9588       9587       9697       9698       9709       9708  
      9577       9578       9589       9588       9698       9699       9710       9709  
      9578       9579       9590       9589       9699       9700       9711       9710  
      9579       9580       9591       9590       9700       9701       9712       9711  
      9580       9581       9592       9591       9701       9702       9713       9712  
      9582       9583       9594       9593       9703       9704       9715       9714  
      9583       9584       9595       9594       9704       9705       9716       9715  
      9584       9585       9596       9595       9705       9706       9717       9716  
      9585       9586       9597       9596       9706       9707       9718       9717  
      9586       9587       9598       9597       9707       9708       9719       9718  
      9587       9588       9599       9598       9708       9709       9720       9719  
      9588       9589       9600       9599       9709       9710       9721       9720  
      9589       9590       9601       9600       9710       9711       9722       9721  
      9590       9591       9602       9601       9711       9712       9723       9722  
      9591       9592       9603       9602       9712       9713       9724       9723  
      9593       9594       9605       9604       9714       9715       9726       9725  
      9594       9595       9606       9605       9715       9716       9727       9726  
      9595       9596       9607       9606       9716       9717       9728       9727  
      9596       9597       9608       9607       9717       9718       9729       9728  
      9597       9598       9609       9608       9718       9719       9730       9729  
      9598       9599       9610       9609       9719       9720       9731       9730  
      9599       9600       9611       9610       9720       9721       9732       9731  
      9600       9601       9612       9611       9721       9722       9733       9732  
      9601       9602       9613       9612       9722       9723       9734       9733  
      9602       9603       9614       9613       9723       9724       9735       9734  
      9604       9605       9616       9615       9725       9726       9737       9736  
      9605       9606       9617       9616       9726       9727       9738       9737  
      9606       9607       9618       9617       9727       9728       9739       9738  
      9607       9608       9619       9618       9728       9729       9740       9739  
      9608       9609       9620       9619       9729       9730       9741       9740  
      9609       9610       9621       9620       9730       9731       9742       9741  
      9610       9611       9622       9621       9731       9732       9743       9742  
      9611       9612       9623       9622       9732       9733       9744       9743  
      9612       9613       9624       9623       9733       9734       9745       9744  
      9613       9614       9625       9624       9734       9735       9746       9745  
      9615       9616       9627       9626       9736       9737       9748       9747  
      9616       9617       9628       9627       9737       9738       9749       9748  
      9617       9618       9629       9628       9738       9739       9750       9749  
      9618       9619       9630       9629       9739       9740       9751       9750  
      9619       9620       9631       9630       9740       9741       9752       9751  
      9620       9621       9632       9631       9741       9742       9753       9752  
      9621       9622       9633       9632       9742       9743       9754       9753  
      9622       9623       9634       9633       9743       9744       9755       9754  
      9623       9624       9635       9634       9744       9745       9756       9755  
      9624       9625       9636       9635       9745       9746       9757       9756  
      9626       9627       9638       9637       9747       9748       9759       9758  
      9627       9628       9639       9638       9748       9749       9760       9759  
      9628       9629       9640       9639       9749       9750       9761       9760  
      9629       9630       9641       9640       9750       9751       9762       9761  
      9630       9631       9642       9641       9751       9752       9763       9762  
      9631       9632       9643       9642       9752       9753       9764       9763  
      9632       9633       9644       9643       9753       9754       9765       9764  
      9633       9634       9645       9644       9754       9755       9766       9765  
      9634       9635       9646       9645       9755       9756       9767       9766  
      9635       9636       9647       9646       9756       9757       9768       9767  
      9637       9638       9649       9648       9758       9759       9770       9769  
      9638       9639       9650       9649       9759       9760       9771       9770  
      9639       9640       9651       9650       9760       9761       9772       9771  
      9640       9641       9652       9651       9761       9762       9773       9772  
      9641       9642       9653       9652       9762       9763       9774       9773  
      9642       9643       9654       9653       9763       9764       9775       9774  
      9643       9644       9655       9654       9764       9765       9776       9775  
      9644       9645       9656       9655       9765       9766       9777       9776  
      9645       9646       9657       9656       9766       9767       9778       9777  
      9646       9647       9658       9657       9767       9768       9779       9778  
      9648       9649       9660       9659       9769       9770       9781       9780  
      9649       9650       9661       9660       9770       9771       9782       9781  
      9650       9651       9662       9661       9771       9772       9783       9782  
      9651       9652       9663       9662       9772       9773       9784       9783  
      9652       9653       9664       9663       9773       9774       9785       9784  
      9653       9654       9665       9664       9774       9775       9786       9785  
      9654       9655       9666       9665       9775       9776       9787       9786  
      9655       9656       9667       9666       9776       9777       9788       9787  
      9656       9657       9668       9667       9777       9778       9789       9788  
      9657       9658       9669       9668       9778       9779       9790       9789  
      9659       9660       9671       9670       9780       9781       9792       9791  
      9660       9661       9672       9671       9781       9782       9793       9792  
      9661       9662       9673       9672       9782       9783       9794       9793  
      9662       9663       9674       9673       9783       9784       9795       9794  
      9663       9664       9675       9674       9784       9785       9796       9795  
      9664       9665       9676       9675       9785       9786       9797       9796  
      9665       9666       9677       9676       9786       9787       9798       9797  
      9666       9667       9678       9677       9787       9788       9799       9798  
      9667       9668       9679       9678       9788       9789       9800       9799  
      9668       9669       9680       9679       9789       9790       9801       9800  
      9681       9682       9693       9692       9802       9803       9814       9813  
      9682       9683       9694       9693       9803       9804       9815       9814  
      9683       9684       9695       9694       9804       9805       9816       9815  
      9684       9685       9696       9695       9805       9806       9817       9816  
      9685       9686       9697       9696       9806       9807       9818       9817  
      9686       9687       9698       9697       9807       9808       9819       9818  
      9687       9688       9699       9698       9808       9809       9820       9819  
      9688       9689       9700       9699       9809       9810       9821       9820  
      9689       9690       9701       9700       9810       9811       9822       9821  
      9690       9691       9702       9701       9811       9812       9823       9822  
      9692       9693       9704       9703       9813       9814       9825       9824  
      9693       9694       9705       9704       9814       9815       9826       9825  
      9694       9695       9706       9705       9815       9816       9827       9826  
      9695       9696       9707       9706       9816       9817       9828       9827  
      9696       9697       9708       9707       9817       9818       9829       9828  
      9697       9698       9709       9708       9818       9819       9830       9829  
      9698       9699       9710       9709       9819       9820       9831       9830  
      9699       9700       9711       9710       9820       9821       9832       9831  
      9700       9701       9712       9711       9821       9822       9833       9832  
      9701       9702       9713       9712       9822       9823       9834       9833  
      9703       9704       9715       9714       9824       9825       9836       9835  
      9704       9705       9716       9715       9825       9826       9837       9836  
      9705       9706       9717       9716       9826       9827       9838       9837  
      9706       9707       9718       9717       9827       9828       9839       9838  
      9707       9708       9719       9718       9828       9829       9840       9839  
      9708       9709       9720       9719       9829       9830       9841       9840  
      9709       9710       9721       9720       9830       9831       9842       9841  
      9710       9711       9722       9721       9831       9832       9843       9842  
      9711       9712       9723       9722       9832       9833       9844       9843  
      9712       9713       9724       9723       9833       9834       9845       9844  
      9714       9715       9726       9725       9835       9836       9847       9846  
      9715       9716       9727       9726       9836       9837       9848       9847  
      9716       9717       9728       9727       9837       9838       9849       9848  
      9717       9718       9729       9728       9838       9839       9850       9849  
      9718       9719       9730       9729       9839       9840       9851       9850  
      9719       9720       9731       9730       9840       9841       9852       9851  
      9720       9721       9732       9731       9841       9842       9853       9852  
      9721       9722       9733       9732       9842       9843       9854       9853  
      9722       9723       9734       9733       9843       9844       9855       9854  
      9723       9724       9735       9734       9844       9845       9856       9855  
      9725       9726       9737       9736       9846       9847       9858       9857  
      9726       9727       9738       9737       9847       9848       9859       9858  
      9727       9728       9739       9738       9848       9849       9860       9859  
      9728       9729       9740       9739       9849       9850       9861       9860  
      9729       9730       9741       9740       9850       9851       9862       9861  
      9730       9731       9742       9741       9851       9852       9863       9862  
      9731       9732       9743       9742       9852       9853       9864       9863  
      9732       9733       9744       9743       9853       9854       9865       9864  
      9733       9734       9745       9744       9854       9855       9866       9865  
      9734       9735       9746       9745       9855       9856       9867       9866  
      9736       9737       9748       9747       9857       9858       9869       9868  
      9737       9738       9749       9748       9858       9859       9870       9869  
      9738       9739       9750       9749       9859       9860       9871       9870  
      9739       9740       9751       9750       9860       9861       9872       9871  
      9740       9741       9752       9751       9861       9862       9873       9872  
      9741       9742       9753       9752       9862       9863       9874       9873  
      9742       9743       9754       9753       9863       9864       9875       9874  
      9743       9744       9755       9754       9864       9865       9876       9875  
      9744       9745       9756       9755       9865       9866       9877       9876  
      9745       9746       9757       9756       9866       9867       9878       9877  
      9747       9748       9759       9758       9868       9869       9880       9879  
      9748       9749       9760       9759       9869       9870       9881       9880  
      9749       9750       9761       9760       9870       9871       9882       9881  
      9750       9751       9762       9761       9871       9872       9883       9882  
      9751       9752       9763       9762       9872       9873       9884       9883  
      9752       9753       9764       9763       9873       9874       9885       9884  
      9753       9754       9765       9764       9874       9875       9886       9885  
      9754       9755       9766       9765       9875       9876       9887       9886  
      9755       9756       9767       9766       9876       9877       9888       9887  
      9756       9757       9768       9767       9877       9878       9889       9888  
      9758       9759       9770       9769       9879       9880       9891       9890  
      9759       9760       9771       9770       9880       9881       9892       9891  
      9760       9761       9772       9771       9881       9882       9893       9892  
      9761       9762       9773       9772       9882       9883       9894       9893  
      9762       9763       9774       9773       9883       9884       9895       9894  
      9763       9764       9775       9774       9884       9885       9896       9895  
      9764       9765       9776       9775       9885       9886       9897       9896  
      9765       9766       9777       9776       9886       9887       9898       9897  
      9766       9767       9778       9777       9887       9888       9899       9898  
      9767       9768       9779       9778       9888       9889       9900       9899  
      9769       9770       9781       9780       9890       9891       9902       9901  
      9770       9771       9782       9781       9891       9892       9903       9902  
      9771       9772       9783       9782       9892       9893       9904       9903  
      9772       9773       9784       9783       9893       9894       9905       9904  
      9773       9774       9785       9784       9894       9895       9906       9905  
      9774       9775       9786       9785       9895       9896       9907       9906  
      9775       9776       9787       9786       9896       9897       9908       9907  
      9776       9777       9788       9787       9897       9898       9909       9908  
      9777       9778       9789       9788       9898       9899       9910       9909  
      9778       9779       9790       9789       9899       9900       9911       9910  
      9780       9781       9792       9791       9901       9902       9913       9912  
      9781       9782       9793       9792       9902       9903       9914       9913  
      9782       9783       9794       9793       9903       9904       9915       9914  
      9783       9784       9795       9794       9904       9905       9916       9915  
      9784       9785       9796       9795       9905       9906       9917       9916  
      9785       9786       9797       9796       9906       9907       9918       9917  
      9786       9787       9798       9797       9907       9908       9919       9918  
      9787       9788       9799       9798       9908       9909       9920       9919  
      9788       9789       9800       9799       9909       9910       9921       9920  
      9789       9790       9801       9800       9910       9911       9922       9921  
      9802       9803       9814       9813       9923       9924       9935       9934  
      9803       9804       9815       9814       9924       9925       9936       9935  
      9804       9805       9816       9815       9925       9926       9937       9936  
      9805       9806       9817       9816       9926       9927       9938       9937  
      9806       9807       9818       9817       9927       9928       9939       9938  
      9807       9808       9819       9818       9928       9929       9940       9939  
      9808       9809       9820       9819       9929       9930       9941       9940  
      9809       9810       9821       9820       9930       9931       9942       9941  
      9810       9811       9822       9821       9931       9932       9943       9942  
      9811       9812       9823       9822       9932       9933       9944       9943  
      9813       9814       9825       9824       9934       9935       9946       9945  
      9814       9815       9826       9825       9935       9936       9947       9946  
      9815       9816       9827       9826       9936       9937       9948       9947  
      9816       9817       9828       9827       9937       9938       9949       9948  
      9817       9818       9829       9828       9938       9939       9950       9949  
      9818       9819       9830       9829       9939       9940       9951       9950  
      9819       9820       9831       9830       9940       9941       9952       9951  
      9820       9821       9832       9831       9941       9942       9953       9952  
      9821       9822       9833       9832       9942       9943       9954       9953  
      9822       9823       9834       9833       9943       9944       9955       9954  
      9824       9825       9836       9835       9945       9946       9957       9956  
      9825       9826       9837       9836       9946       9947       9958       9957  
      9826       9827       9838       9837       9947       9948       9959       9958  
      9827       9828       9839       9838       9948       9949       9960       9959  
      9828       9829       9840       9839       9949       9950       9961       9960  
      9829       9830       9841       9840       9950       9951       9962       9961  
      9830       9831       9842       9841       9951       9952       9963       9962  
      9831       9832       9843       9842       9952       9953       9964       9963  
      9832       9833       9844       9843       9953       9954       9965       9964  
      9833       9834       9845       9844       9954       9955       9966       9965  
      9835       9836       9847       9846       9956       9957       9968       9967  
      9836       9837       9848       9847       9957       9958       9969       9968  
      9837       9838       9849       9848       9958       9959       9970       9969  
      9838       9839       9850       9849       9959       9960       9971       9970  
      9839       9840       9851       9850       9960       9961       9972       9971  
      9840       9841       9852       9851       9961       9962       9973       9972  
      9841       9842       9853       9852       9962       9963       9974       9973  
      9842       9843       9854       9853       9963       9964       9975       9974  
      9843       9844       9855       9854       9964       9965       9976       9975  
      9844       9845       9856       9855       9965       9966       9977       9976  
      9846       9847       9858       9857       9967       9968       9979       9978  
      9847       9848       9859       9858       9968       9969       9980       9979  
      9848       9849       9860       9859       9969       9970       9981       9980  
      9849       9850       9861       9860       9970       9971       9982       9981  
      9850       9851       9862       9861       9971       9972       9983       9982  
      9851       9852       9863       9862       9972       9973       9984       9983  
      9852       9853       9864       9863       9973       9974       9985       9984  
      9853       9854       9865       9864       9974       9975       9986       9985  
      9854       9855       9866       9865       9975       9976       9987       9986  
      9855       9856       9867       9866       9976       9977       9988       9987  
      9857       9858       9869       9868       9978       9979       9990       9989  
      9858       9859       9870       9869       9979       9980       9991       9990  
      9859       9860       9871       9870       9980       9981       9992       9991  
      9860       9861       9872       9871       9981       9982       9993       9992  
      9861       9862       9873       9872       9982       9983       9994       9993  
      9862       9863       9874       9873       9983       9984       9995       9994  
      9863       9864       9875       9874       9984       9985       9996       9995  
      9864       9865       9876       9875       9985       9986       9997       9996  
      9865       9866       9877       9876       9986       9987       9998       9997  
      9866       9867       9878       9877       9987       9988       9999       9998  
      9868       9869       9880       9879       9989       9990      10001      10000  
      9869       9870       9881       9880       9990       9991      10002      10001  
      9870       9871       9882       9881       9991       9992      10003      10002  
      9871       9872       9883       9882       9992       9993      10004      10003  
      9872       9873       9884       9883       9993       9994      10005      10004  
      9873       9874       9885       9884       9994       9995      10006      10005  
      9874       9875       9886       9885       9995       9996      10007      10006  
      9875       9876       9887       9886       9996       9997      10008      10007  
      9876       9877       9888       9887       9997       9998      10009      10008  
      9877       9878       9889       9888       9998       9999      10010      10009  
      9879       9880       9891       9890      10000      10001      10012      10011  
      9880       9881       9892       9891      10001      10002      10013      10012  
      9881       9882       9893       9892      10002      10003      10014      10013  
      9882       9883       9894       9893      10003      10004      10015      10014  
      9883       9884       9895       9894      10004      10005      10016      10015  
      9884       9885       9896       9895      10005      10006      10017      10016  
      9885       9886       9897       9896      10006      10007      10018      10017  
      9886       9887       9898       9897      10007      10008      10019      10018  
      9887       9888       9899       9898      10008      10009      10020      10019  
      9888       9889       9900       9899      10009      10010      10021      10020  
      9890       9891       9902       9901      10011      10012      10023      10022  
      9891       9892       9903       9902      10012      10013      10024      10023  
      9892       9893       9904       9903      10013      10014      10025      10024  
      9893       9894       9905       9904      10014      10015      10026      10025  
      9894       9895       9906       9905      10015      10016      10027      10026  
      9895       9896       9907       9906      10016      10017      10028      10027  
      9896       9897       9908       9907      10017      10018      10029      10028  
      9897       9898       9909       9908      10018      10019      10030      10029  
      9898       9899       9910       9909      10019      10020      10031      10030  
      9899       9900       9911       9910      10020      10021      10032      10031  
      9901       9902       9913       9912      10022      10023      10034      10033  
      9902       9903       9914       9913      10023      10024      10035      10034  
      9903       9904       9915       9914      10024      10025      10036      10035  
      9904       9905       9916       9915      10025      10026      10037      10036  
      9905       9906       9917       9916      10026      10027      10038      10037  
      9906       9907       9918       9917      10027      10028      10039      10038  
      9907       9908       9919       9918      10028      10029      10040      10039  
      9908       9909       9920       9919      10029      10030      10041      10040  
      9909       9910       9921       9920      10030      10031      10042      10041  
      9910       9911       9922       9921      10031      10032      10043      10042  
      9923       9924       9935       9934      10044      10045      10056      10055  
      9924       9925       9936       9935      10045      10046      10057      10056  
      9925       9926       9937       9936      10046      10047      10058      10057  
      9926       9927       9938       9937      10047      10048      10059      10058  
      9927       9928       9939       9938      10048      10049      10060      10059  
      9928       9929       9940       9939      10049      10050      10061      10060  
      9929       9930       9941       9940      10050      10051      10062      10061  
      9930       9931       9942       9941      10051      10052      10063      10062  
      9931       9932       9943       9942      10052      10053      10064      10063  
      9932       9933       9944       9943      10053      10054      10065      10064  
      9934       9935       9946       9945      10055      10056      10067      10066  
      9935       9936       9947       9946      10056      10057      10068      10067  
      9936       9937       9948       9947      10057      10058      10069      10068  
      9937       9938       9949       9948      10058      10059      10070      10069  
      9938       9939       9950       9949      10059      10060      10071      10070  
      9939       9940       9951       9950      10060      10061      10072      10071  
      9940       9941       9952       9951      10061      10062      10073      10072  
      9941       9942       9953       9952      10062      10063      10074      10073  
      9942       9943       9954       9953      10063      10064      10075      10074  
      9943       9944       9955       9954      10064      10065      10076      10075  
      9945       9946       9957       9956      10066      10067      10078      10077  
      9946       9947       9958       9957      10067      10068      10079      10078  
      9947       9948       9959       9958      10068      10069      10080      10079  
      9948       9949       9960       9959      10069      10070      10081      10080  
      9949       9950       9961       9960      10070      10071      10082      10081  
      9950       9951       9962       9961      10071      10072      10083      10082  
      9951       9952       9963       9962      10072      10073      10084      10083  
      9952       9953       9964       9963      10073      10074      10085      10084  
      9953       9954       9965       9964      10074      10075      10086      10085  
      9954       9955       9966       9965      10075      10076      10087      10086  
      9956       9957       9968       9967      10077      10078      10089      10088  
      9957       9958       9969       9968      10078      10079      10090      10089  
      9958       9959       9970       9969      10079      10080      10091      10090  
      9959       9960       9971       9970      10080      10081      10092      10091  
      9960       9961       9972       9971      10081      10082      10093      10092  
      9961       9962       9973       9972      10082      10083      10094      10093  
      9962       9963       9974       9973      10083      10084      10095      10094  
      9963       9964       9975       9974      10084      10085      10096      10095  
      9964       9965       9976       9975      10085      10086      10097      10096  
      9965       9966       9977       9976      10086      10087      10098      10097  
      9967       9968       9979       9978      10088      10089      10100      10099  
      9968       9969       9980       9979      10089      10090      10101      10100  
      9969       9970       9981       9980      10090      10091      10102      10101  
      9970       9971       9982       9981      10091      10092      10103      10102  
      9971       9972       9983       9982      10092      10093      10104      10103  
      9972       9973       9984       9983      10093      10094      10105      10104  
      9973       9974       9985       9984      10094      10095      10106      10105  
      9974       9975       9986       9985      10095      10096      10107      10106  
      9975       9976       9987       9986      10096      10097      10108      10107  
      9976       9977       9988       9987      10097      10098      10109      10108  
      9978       9979       9990       9989      10099      10100      10111      10110  
      9979       9980       9991       9990      10100      10101      10112      10111  
      9980       9981       9992       9991      10101      10102      10113      10112  
      9981       9982       9993       9992      10102      10103      10114      10113  
      9982       9983       9994       9993      10103      10104      10115      10114  
      9983       9984       9995       9994      10104      10105      10116      10115  
      9984       9985       9996       9995      10105      10106      10117      10116  
      9985       9986       9997       9996      10106      10107      10118      10117  
      9986       9987       9998       9997      10107      10108      10119      10118  
      9987       9988       9999       9998      10108      10109      10120      10119  
      9989       9990      10001      10000      10110      10111      10122      10121  
      9990       9991      10002      10001      10111      10112      10123      10122  
      9991       9992      10003      10002      10112      10113      10124      10123  
      9992       9993      10004      10003      10113      10114      10125      10124  
      9993       9994      10005      10004      10114      10115      10126      10125  
      9994       9995      10006      10005      10115      10116      10127      10126  
      9995       9996      10007      10006      10116      10117      10128      10127  
      9996       9997      10008      10007      10117      10118      10129      10128  
      9997       9998      10009      10008      10118      10119      10130      10129  
      9998       9999      10010      10009      10119      10120      10131      10130  
     10000      10001      10012      10011      10121      10122      10133      10132  
     10001      10002      10013      10012      10122      10123      10134      10133  
     10002      10003      10014      10013      10123      10124      10135      10134  
     10003      10004      10015      10014      10124      10125      10136      10135  
     10004      10005      10016      10015      10125      10126      10137      10136  
     10005      10006      10017      10016      10126      10127      10138      10137  
     10006      10007      10018      10017      10127      10128      10139      10138  
     10007      10008      10019      10018      10128      10129      10140      10139  
     10008      10009      10020      10019      10129      10130      10141      10140  
     10009      10010      10021      10020      10130      10131      10142      10141  
     10011      10012      10023      10022      10132      10133      10144      10143  
     10012      10013      10024      10023      10133      10134      10145      10144  
     10013      10014      10025      10024      10134      10135      10146      10145  
     10014      10015      10026      10025      10135      10136      10147      10146  
     10015      10016      10027      10026      10136      10137      10148      10147  
     10016      10017      10028      10027      10137      10138      10149      10148  
     10017      10018      10029      10028      10138      10139      10150      10149  
     10018      10019      10030      10029      10139      10140      10151      10150  
     10019      10020      10031      10030      10140      10141      10152      10151  
     10020      10021      10032      10031      10141      10142      10153      10152  
     10022      10023      10034      10033      10143      10144      10155      10154  
     10023      10024      10035      10034      10144      10145      10156      10155  
     10024      10025      10036      10035      10145      10146      10157      10156  
     10025      10026      10037      10036      10146      10147      10158      10157  
     10026      10027      10038      10037      10147      10148      10159      10158  
     10027      10028      10039      10038      10148      10149      10160      10159  
     10028      10029      10040      10039      10149      10150      10161      10160  
     10029      10030      10041      10040      10150      10151      10162      10161  
     10030      10031      10042      10041      10151      10152      10163      10162  
     10031      10032      10043      10042      10152      10153      10164      10163  
     10044      10045      10056      10055      10165      10166      10177      10176  
     10045      10046      10057      10056      10166      10167      10178      10177  
     10046      10047      10058      10057      10167      10168      10179      10178  
     10047      10048      10059      10058      10168      10169      10180      10179  
     10048      10049      10060      10059      10169      10170      10181      10180  
     10049      10050      10061      10060      10170      10171      10182      10181  
     10050      10051      10062      10061      10171      10172      10183      10182  
     10051      10052      10063      10062      10172      10173      10184      10183  
     10052      10053      10064      10063      10173      10174      10185      10184  
     10053      10054      10065      10064      10174      10175      10186      10185  
     10055      10056      10067      10066      10176      10177      10188      10187  
     10056      10057      10068      10067      10177      10178      10189      10188  
     10057      10058      10069      10068      10178      10179      10190      10189  
     10058      10059      10070      10069      10179      10180      10191      10190  
     10059      10060      10071      10070      10180      10181      10192      10191  
     10060      10061      10072      10071      10181      10182      10193      10192  
     10061      10062      10073      10072      10182      10183      10194      10193  
     10062      10063      10074      10073      10183      10184      10195      10194  
     10063      10064      10075      10074      10184      10185      10196      10195  
     10064      10065      10076      10075      10185      10186      10197      10196  
     10066      10067      10078      10077      10187      10188      10199      10198  
     10067      10068      10079      10078      10188      10189      10200      10199  
     10068      10069      10080      10079      10189      10190      10201      10200  
     10069      10070      10081      10080      10190      10191      10202      10201  
     10070      10071      10082      10081      10191      10192      10203      10202  
     10071      10072      10083      10082      10192      10193      10204      10203  
     10072      10073      10084      10083      10193      10194      10205      10204  
     10073      10074      10085      10084      10194      10195      10206      10205  
     10074      10075      10086      10085      10195      10196      10207      10206  
     10075      10076      10087      10086      10196      10197      10208      10207  
     10077      10078      10089      10088      10198      10199      10210      10209  
     10078      10079      10090      10089      10199      10200      10211      10210  
     10079      10080      10091      10090      10200      10201      10212      10211  
     10080      10081      10092      10091      10201      10202      10213      10212  
     10081      10082      10093      10092      10202      10203      10214      10213  
     10082      10083      10094      10093      10203      10204      10215      10214  
     10083      10084      10095      10094      10204      10205      10216      10215  
     10084      10085      10096      10095      10205      10206      10217      10216  
     10085      10086      10097      10096      10206      10207      10218      10217  
     10086      10087      10098      10097      10207      10208      10219      10218  
     10088      10089      10100      10099      10209      10210      10221      10220  
     10089      10090      10101      10100      10210      10211      10222      10221  
     10090      10091      10102      10101      10211      10212      10223      10222  
     10091      10092      10103      10102      10212      10213      10224      10223  
     10092      10093      10104      10103      10213      10214      10225      10224  
     10093      10094      10105      10104      10214      10215      10226      10225  
     10094      10095      10106      10105      10215      10216      10227      10226  
     10095      10096      10107      10106      10216      10217      10228      10227  
     10096      10097      10108      10107      10217      10218      10229      10228  
     10097      10098      10109      10108      10218      10219      10230      10229  
     10099      10100      10111      10110      10220      10221      10232      10231  
     10100      10101      10112      10111      10221      10222      10233      10232  
     10101      10102      10113      10112      10222      10223      10234      10233  
     10102      10103      10114      10113      10223      10224      10235      10234  
     10103      10104      10115      10114      10224      10225      10236      10235  
     10104      10105      10116      10115      10225      10226      10237      10236  
     10105      10106      10117      10116      10226      10227      10238      10237  
     10106      10107      10118      10117      10227      10228      10239      10238  
     10107      10108      10119      10118      10228      10229      10240      10239  
     10108      10109      10120      10119      10229      10230      10241      10240  
     10110      10111      10122      10121      10231      10232      10243      10242  
     10111      10112      10123      10122      10232      10233      10244      10243  
     10112      10113      10124      10123      10233      10234      10245      10244  
     10113      10114      10125      10124      10234      10235      10246      10245  
     10114      10115      10126      10125      10235      10236      10247      10246  
     10115      10116      10127      10126      10236      10237      10248      10247  
     10116      10117      10128      10127      10237      10238      10249      10248  
     10117      10118      10129      10128      10238      10239      10250      10249  
     10118      10119      10130      10129      10239      10240      10251      10250  
     10119      10120      10131      10130      10240      10241      10252      10251  
     10121      10122      10133      10132      10242      10243      10254      10253  
     10122      10123      10134      10133      10243      10244      10255      10254  
     10123      10124      10135      10134      10244      10245      10256      10255  
     10124      10125      10136      10135      10245      10246      10257      10256  
     10125      10126      10137      10136      10246      10247      10258      10257  
     10126      10127      10138      10137      10247      10248      10259      10258  
     10127      10128      10139      10138      10248      10249      10260      10259  
     10128      10129      10140      10139      10249      10250      10261      10260  
     10129      10130      10141      10140      10250      10251      10262      10261  
     10130      10131      10142      10141      10251      10252      10263      10262  
     10132      10133      10144      10143      10253      10254      10265      10264  
     10133      10134      10145      10144      10254      10255      10266      10265  
     10134      10135      10146      10145      10255      10256      10267      10266  
     10135      10136      10147      10146      10256      10257      10268      10267  
     10136      10137      10148      10147      10257      10258      10269      10268  
     10137      10138      10149      10148      10258      10259      10270      10269  
     10138      10139      10150      10149      10259      10260      10271      10270  
     10139      10140      10151      10150      10260      10261      10272      10271  
     10140      10141      10152      10151      10261      10262      10273      10272  
     10141      10142      10153      10152      10262      10263      10274      10273  
     10143      10144      10155      10154      10264      10265      10276      10275  
     10144      10145      10156      10155      10265      10266      10277      10276  
     10145      10146      10157      10156      10266      10267      10278      10277  
     10146      10147      10158      10157      10267      10268      10279      10278  
     10147      10148      10159      10158      10268      10269      10280      10279  
     10148      10149      10160      10159      10269      10270      10281      10280  
     10149      10150      10161      10160      10270      10271      10282      10281  
     10150      10151      10162      10161      10271      10272      10283      10282  
     10151      10152      10163      10162      10272      10273      10284      10283  
     10152      10153      10164      10163      10273      10274      10285      10284  
     10165      10166      10177      10176      10286      10287      10298      10297  
     10166      10167      10178      10177      10287      10288      10299      10298  
     10167      10168      10179      10178      10288      10289      10300      10299  
     10168      10169      10180      10179      10289      10290      10301      10300  
     10169      10170      10181      10180      10290      10291      10302      10301  
     10170      10171      10182      10181      10291      10292      10303      10302  
     10171      10172      10183      10182      10292      10293      10304      10303  
     10172      10173      10184      10183      10293      10294      10305      10304  
     10173      10174      10185      10184      10294      10295      10306      10305  
     10174      10175      10186      10185      10295      10296      10307      10306  
     10176      10177      10188      10187      10297      10298      10309      10308  
     10177      10178      10189      10188      10298      10299      10310      10309  
     10178      10179      10190      10189      10299      10300      10311      10310  
     10179      10180      10191      10190      10300      10301      10312      10311  
     10180      10181      10192      10191      10301      10302      10313      10312  
     10181      10182      10193      10192      10302      10303      10314      10313  
     10182      10183      10194      10193      10303      10304      10315      10314  
     10183      10184      10195      10194      10304      10305      10316      10315  
     10184      10185      10196      10195      10305      10306      10317      10316  
     10185      10186      10197      10196      10306      10307      10318      10317  
     10187      10188      10199      10198      10308      10309      10320      10319  
     10188      10189      10200      10199      10309      10310      10321      10320  
     10189      10190      10201      10200      10310      10311      10322      10321  
     10190      10191      10202      10201      10311      10312      10323      10322  
     10191      10192      10203      10202      10312      10313      10324      10323  
     10192      10193      10204      10203      10313      10314      10325      10324  
     10193      10194      10205      10204      10314      10315      10326      10325  
     10194      10195      10206      10205      10315      10316      10327      10326  
     10195      10196      10207      10206      10316      10317      10328      10327  
     10196      10197      10208      10207      10317      10318      10329      10328  
     10198      10199      10210      10209      10319      10320      10331      10330  
     10199      10200      10211      10210      10320      10321      10332      10331  
     10200      10201      10212      10211      10321      10322      10333      10332  
     10201      10202      10213      10212      10322      10323      10334      10333  
     10202      10203      10214      10213      10323      10324      10335      10334  
     10203      10204      10215      10214      10324      10325      10336      10335  
     10204      10205      10216      10215      10325      10326      10337      10336  
     10205      10206      10217      10216      10326      10327      10338      10337  
     10206      10207      10218      10217      10327      10328      10339      10338  
     10207      10208      10219      10218      10328      10329      10340      10339  
     10209      10210      10221      10220      10330      10331      10342      10341  
     10210      10211      10222      10221      10331      10332      10343      10342  
     10211      10212      10223      10222      10332      10333      10344      10343  
     10212      10213      10224      10223      10333      10334      10345      10344  
     10213      10214      10225      10224      10334      10335      10346      10345  
     10214      10215      10226      10225      10335      10336      10347      10346  
     10215      10216      10227      10226      10336      10337      10348      10347  
     10216      10217      10228      10227      10337      10338      10349      10348  
     10217      10218      10229      10228      10338      10339      10350      10349  
     10218      10219      10230      10229      10339      10340      10351      10350  
     10220      10221      10232      10231      10341      10342      10353      10352  
     10221      10222      10233      10232      10342      10343      10354      10353  
     10222      10223      10234      10233      10343      10344      10355      10354  
     10223      10224      10235      10234      10344      10345      10356      10355  
     10224      10225      10236      10235      10345      10346      10357      10356  
     10225      10226      10237      10236      10346      10347      10358      10357  
     10226      10227      10238      10237      10347      10348      10359      10358  
     10227      10228      10239      10238      10348      10349      10360      10359  
     10228      10229      10240      10239      10349      10350      10361      10360  
     10229      10230      10241      10240      10350      10351      10362      10361  
     10231      10232      10243      10242      10352      10353      10364      10363  
     10232      10233      10244      10243      10353      10354      10365      10364  
     10233      10234      10245      10244      10354      10355      10366      10365  
     10234      10235      10246      10245      10355      10356      10367      10366  
     10235      10236      10247      10246      10356      10357      10368      10367  
     10236      10237      10248      10247      10357      10358      10369      10368  
     10237      10238      10249      10248      10358      10359      10370      10369  
     10238      10239      10250      10249      10359      10360      10371      10370  
     10239      10240      10251      10250      10360      10361      10372      10371  
     10240      10241      10252      10251      10361      10362      10373      10372  
     10242      10243      10254      10253      10363      10364      10375      10374  
     10243      10244      10255      10254      10364      10365      10376      10375  
     10244      10245      10256      10255      10365      10366      10377      10376  
     10245      10246      10257      10256      10366      10367      10378      10377  
     10246      10247      10258      10257      10367      10368      10379      10378  
     10247      10248      10259      10258      10368      10369      10380      10379  
     10248      10249      10260      10259      10369      10370      10381      10380  
     10249      10250      10261      10260      10370      10371      10382      10381  
     10250      10251      10262      10261      10371      10372      10383      10382  
     10251      10252      10263      10262      10372      10373      10384      10383  
     10253      10254      10265      10264      10374      10375      10386      10385  
     10254      10255      10266      10265      10375      10376      10387      10386  
     10255      10256      10267      10266      10376      10377      10388      10387  
     10256      10257      10268      10267      10377      10378      10389      10388  
     10257      10258      10269      10268      10378      10379      10390      10389  
     10258      10259      10270      10269      10379      10380      10391      10390  
     10259      10260      10271      10270      10380      10381      10392      10391  
     10260      10261      10272      10271      10381      10382      10393      10392  
     10261      10262      10273      10272      10382      10383      10394      10393  
     10262      10263      10274      10273      10383      10384      10395      10394  
     10264      10265      10276      10275      10385      10386      10397      10396  
     10265      10266      10277      10276      10386      10387      10398      10397  
     10266      10267      10278      10277      10387      10388      10399      10398  
     10267      10268      10279      10278      10388      10389      10400      10399  
     10268      10269      10280      10279      10389      10390      10401      10400  
     10269      10270      10281      10280      10390      10391      10402      10401  
     10270      10271      10282      10281      10391      10392      10403      10402  
     10271      10272      10283      10282      10392      10393      10404      10403  
     10272      10273      10284      10283      10393      10394      10405      10404  
     10273      10274      10285      10284      10394      10395      10406      10405  
     10286      10287      10298      10297      10407      10408      10419      10418  
     10287      10288      10299      10298      10408      10409      10420      10419  
     10288      10289      10300      10299      10409      10410      10421      10420  
     10289      10290      10301      10300      10410      10411      10422      10421  
     10290      10291      10302      10301      10411      10412      10423      10422  
     10291      10292      10303      10302      10412      10413      10424      10423  
     10292      10293      10304      10303      10413      10414      10425      10424  
     10293      10294      10305      10304      10414      10415      10426      10425  
     10294      10295      10306      10305      10415      10416      10427      10426  
     10295      10296      10307      10306      10416      10417      10428      10427  
     10297      10298      10309      10308      10418      10419      10430      10429  
     10298      10299      10310      10309      10419      10420      10431      10430  
     10299      10300      10311      10310      10420      10421      10432      10431  
     10300      10301      10312      10311      10421      10422      10433      10432  
     10301      10302      10313      10312      10422      10423      10434      10433  
     10302      10303      10314      10313      10423      10424      10435      10434  
     10303      10304      10315      10314      10424      10425      10436      10435  
     10304      10305      10316      10315      10425      10426      10437      10436  
     10305      10306      10317      10316      10426      10427      10438      10437  
     10306      10307      10318      10317      10427      10428      10439      10438  
     10308      10309      10320      10319      10429      10430      10441      10440  
     10309      10310      10321      10320      10430      10431      10442      10441  
     10310      10311      10322      10321      10431      10432      10443      10442  
     10311      10312      10323      10322      10432      10433      10444      10443  
     10312      10313      10324      10323      10433      10434      10445      10444  
     10313      10314      10325      10324      10434      10435      10446      10445  
     10314      10315      10326      10325      10435      10436      10447      10446  
     10315      10316      10327      10326      10436      10437      10448      10447  
     10316      10317      10328      10327      10437      10438      10449      10448  
     10317      10318      10329      10328      10438      10439      10450      10449  
     10319      10320      10331      10330      10440      10441      10452      10451  
     10320      10321      10332      10331      10441      10442      10453      10452  
     10321      10322      10333      10332      10442      10443      10454      10453  
     10322      10323      10334      10333      10443      10444      10455      10454  
     10323      10324      10335      10334      10444      10445      10456      10455  
     10324      10325      10336      10335      10445      10446      10457      10456  
     10325      10326      10337      10336      10446      10447      10458      10457  
     10326      10327      10338      10337      10447      10448      10459      10458  
     10327      10328      10339      10338      10448      10449      10460      10459  
     10328      10329      10340      10339      10449      10450      10461      10460  
     10330      10331      10342      10341      10451      10452      10463      10462  
     10331      10332      10343      10342      10452      10453      10464      10463  
     10332      10333      10344      10343      10453      10454      10465      10464  
     10333      10334      10345      10344      10454      10455      10466      10465  
     10334      10335      10346      10345      10455      10456      10467      10466  
     10335      10336      10347      10346      10456      10457      10468      10467  
     10336      10337      10348      10347      10457      10458      10469      10468  
     10337      10338      10349      10348      10458      10459      10470      10469  
     10338      10339      10350      10349      10459      10460      10471      10470  
     10339      10340      10351      10350      10460      10461      10472      10471  
     10341      10342      10353      10352      10462      10463      10474      10473  
     10342      10343      10354      10353      10463      10464      10475      10474  
     10343      10344      10355      10354      10464      10465      10476      10475  
     10344      10345      10356      10355      10465      10466      10477      10476  
     10345      10346      10357      10356      10466      10467      10478      10477  
     10346      10347      10358      10357      10467      10468      10479      10478  
     10347      10348      10359      10358      10468      10469      10480      10479  
     10348      10349      10360      10359      10469      10470      10481      10480  
     10349      10350      10361      10360      10470      10471      10482      10481  
     10350      10351      10362      10361      10471      10472      10483      10482  
     10352      10353      10364      10363      10473      10474      10485      10484  
     10353      10354      10365      10364      10474      10475      10486      10485  
     10354      10355      10366      10365      10475      10476      10487      10486  
     10355      10356      10367      10366      10476      10477      10488      10487  
     10356      10357      10368      10367      10477      10478      10489      10488  
     10357      10358      10369      10368      10478      10479      10490      10489  
     10358      10359      10370      10369      10479      10480      10491      10490  
     10359      10360      10371      10370      10480      10481      10492      10491  
     10360      10361      10372      10371      10481      10482      10493      10492  
     10361      10362      10373      10372      10482      10483      10494      10493  
     10363      10364      10375      10374      10484      10485      10496      10495  
     10364      10365      10376      10375      10485      10486      10497      10496  
     10365      10366      10377      10376      10486      10487      10498      10497  
     10366      10367      10378      10377      10487      10488      10499      10498  
     10367      10368      10379      10378      10488      10489      10500      10499  
     10368      10369      10380      10379      10489      10490      10501      10500  
     10369      10370      10381      10380      10490      10491      10502      10501  
     10370      10371      10382      10381      10491      10492      10503      10502  
     10371      10372      10383      10382      10492      10493      10504      10503  
     10372      10373      10384      10383      10493      10494      10505      10504  
     10374      10375      10386      10385      10495      10496      10507      10506  
     10375      10376      10387      10386      10496      10497      10508      10507  
     10376      10377      10388      10387      10497      10498      10509      10508  
     10377      10378      10389      10388      10498      10499      10510      10509  
     10378      10379      10390      10389      10499      10500      10511      10510  
     10379      10380      10391      10390      10500      10501      10512      10511  
     10380      10381      10392      10391      10501      10502      10513      10512  
     10381      10382      10393      10392      10502      10503      10514      10513  
     10382      10383      10394      10393      10503      10504      10515      10514  
     10383      10384      10395      10394      10504      10505      10516      10515  
     10385      10386      10397      10396      10506      10507      10518      10517  
     10386      10387      10398      10397      10507      10508      10519      10518  
     10387      10388      10399      10398      10508      10509      10520      10519  
     10388      10389      10400      10399      10509      10510      10521      10520  
     10389      10390      10401      10400      10510      10511      10522      10521  
     10390      10391      10402      10401      10511      10512      10523      10522  
     10391      10392      10403      10402      10512      10513      10524      10523  
     10392      10393      10404      10403      10513      10514      10525      10524  
     10393      10394      10405      10404      10514      10515      10526      10525  
     10394      10395      10406      10405      10515      10516      10527      10526  
     10407      10408      10419      10418      10528      10529      10540      10539  
     10408      10409      10420      10419      10529      10530      10541      10540  
     10409      10410      10421      10420      10530      10531      10542      10541  
     10410      10411      10422      10421      10531      10532      10543      10542  
     10411      10412      10423      10422      10532      10533      10544      10543  
     10412      10413      10424      10423      10533      10534      10545      10544  
     10413      10414      10425      10424      10534      10535      10546      10545  
     10414      10415      10426      10425      10535      10536      10547      10546  
     10415      10416      10427      10426      10536      10537      10548      10547  
     10416      10417      10428      10427      10537      10538      10549      10548  
     10418      10419      10430      10429      10539      10540      10551      10550  
     10419      10420      10431      10430      10540      10541      10552      10551  
     10420      10421      10432      10431      10541      10542      10553      10552  
     10421      10422      10433      10432      10542      10543      10554      10553  
     10422      10423      10434      10433      10543      10544      10555      10554  
     10423      10424      10435      10434      10544      10545      10556      10555  
     10424      10425      10436      10435      10545      10546      10557      10556  
     10425      10426      10437      10436      10546      10547      10558      10557  
     10426      10427      10438      10437      10547      10548      10559      10558  
     10427      10428      10439      10438      10548      10549      10560      10559  
     10429      10430      10441      10440      10550      10551      10562      10561  
     10430      10431      10442      10441      10551      10552      10563      10562  
     10431      10432      10443      10442      10552      10553      10564      10563  
     10432      10433      10444      10443      10553      10554      10565      10564  
     10433      10434      10445      10444      10554      10555      10566      10565  
     10434      10435      10446      10445      10555      10556      10567      10566  
     10435      10436      10447      10446      10556      10557      10568      10567  
     10436      10437      10448      10447      10557      10558      10569      10568  
     10437      10438      10449      10448      10558      10559      10570      10569  
     10438      10439      10450      10449      10559      10560      10571      10570  
     10440      10441      10452      10451      10561      10562      10573      10572  
     10441      10442      10453      10452      10562      10563      10574      10573  
     10442      10443      10454      10453      10563      10564      10575      10574  
     10443      10444      10455      10454      10564      10565      10576      10575  
     10444      10445      10456      10455      10565      10566      10577      10576  
     10445      10446      10457      10456      10566      10567      10578      10577  
     10446      10447      10458      10457      10567      10568      10579      10578  
     10447      10448      10459      10458      10568      10569      10580      10579  
     10448      10449      10460      10459      10569      10570      10581      10580  
     10449      10450      10461      10460      10570      10571      10582      10581  
     10451      10452      10463      10462      10572      10573      10584      10583  
     10452      10453      10464      10463      10573      10574      10585      10584  
     10453      10454      10465      10464      10574      10575      10586      10585  
     10454      10455      10466      10465      10575      10576      10587      10586  
     10455      10456      10467      10466      10576      10577      10588      10587  
     10456      10457      10468      10467      10577      10578      10589      10588  
     10457      10458      10469      10468      10578      10579      10590      10589  
     10458      10459      10470      10469      10579      10580      10591      10590  
     10459      10460      10471      10470      10580      10581      10592      10591  
     10460      10461      10472      10471      10581      10582      10593      10592  
     10462      10463      10474      10473      10583      10584      10595      10594  
     10463      10464      10475      10474      10584      10585      10596      10595  
     10464      10465      10476      10475      10585      10586      10597      10596  
     10465      10466      10477      10476      10586      10587      10598      10597  
     10466      10467      10478      10477      10587      10588      10599      10598  
     10467      10468      10479      10478      10588      10589      10600      10599  
     10468      10469      10480      10479      10589      10590      10601      10600  
     10469      10470      10481      10480      10590      10591      10602      10601  
     10470      10471      10482      10481      10591      10592      10603      10602  
     10471      10472      10483      10482      10592      10593      10604      10603  
     10473      10474      10485      10484      10594      10595      10606      10605  
     10474      10475      10486      10485      10595      10596      10607      10606  
     10475      10476      10487      10486      10596      10597      10608      10607  
     10476      10477      10488      10487      10597      10598      10609      10608  
     10477      10478      10489      10488      10598      10599      10610      10609  
     10478      10479      10490      10489      10599      10600      10611      10610  
     10479      10480      10491      10490      10600      10601      10612      10611  
     10480      10481      10492      10491      10601      10602      10613      10612  
     10481      10482      10493      10492      10602      10603      10614      10613  
     10482      10483      10494      10493      10603      10604      10615      10614  
     10484      10485      10496      10495      10605      10606      10617      10616  
     10485      10486      10497      10496      10606      10607      10618      10617  
     10486      10487      10498      10497      10607      10608      10619      10618  
     10487      10488      10499      10498      10608      10609      10620      10619  
     10488      10489      10500      10499      10609      10610      10621      10620  
     10489      10490      10501      10500      10610      10611      10622      10621  
     10490      10491      10502      10501      10611      10612      10623      10622  
     10491      10492      10503      10502      10612      10613      10624      10623  
     10492      10493      10504      10503      10613      10614      10625      10624  
     10493      10494      10505      10504      10614      10615      10626      10625  
     10495      10496      10507      10506      10616      10617      10628      10627  
     10496      10497      10508      10507      10617      10618      10629      10628  
     10497      10498      10509      10508      10618      10619      10630      10629  
     10498      10499      10510      10509      10619      10620      10631      10630  
     10499      10500      10511      10510      10620      10621      10632      10631  
     10500      10501      10512      10511      10621      10622      10633      10632  
     10501      10502      10513      10512      10622      10623      10634      10633  
     10502      10503      10514      10513      10623      10624      10635      10634  
     10503      10504      10515      10514      10624      10625      10636      10635  
     10504      10505      10516      10515      10625      10626      10637      10636  
     10506      10507      10518      10517      10627      10628      10639      10638  
     10507      10508      10519      10518      10628      10629      10640      10639  
     10508      10509      10520      10519      10629      10630      10641      10640  
     10509      10510      10521      10520      10630      10631      10642      10641  
     10510      10511      10522      10521      10631      10632      10643      10642  
     10511      10512      10523      10522      10632      10633      10644      10643  
     10512      10513      10524      10523      10633      10634      10645      10644  
     10513      10514      10525      10524      10634      10635      10646      10645  
     10514      10515      10526      10525      10635      10636      10647      10646  
     10515      10516      10527      10526      10636      10637      10648      10647  
     10528      10529      10540      10539      10649      10650      10661      10660  
     10529      10530      10541      10540      10650      10651      10662      10661  
     10530      10531      10542      10541      10651      10652      10663      10662  
     10531      10532      10543      10542      10652      10653      10664      10663  
     10532      10533      10544      10543      10653      10654      10665      10664  
     10533      10534      10545      10544      10654      10655      10666      10665  
     10534      10535      10546      10545      10655      10656      10667      10666  
     10535      10536      10547      10546      10656      10657      10668      10667  
     10536      10537      10548      10547      10657      10658      10669      10668  
     10537      10538      10549      10548      10658      10659      10670      10669  
     10539      10540      10551      10550      10660      10661      10672      10671  
     10540      10541      10552      10551      10661      10662      10673      10672  
     10541      10542      10553      10552      10662      10663      10674      10673  
     10542      10543      10554      10553      10663      10664      10675      10674  
     10543      10544      10555      10554      10664      10665      10676      10675  
     10544      10545      10556      10555      10665      10666      10677      10676  
     10545      10546      10557      10556      10666      10667      10678      10677  
     10546      10547      10558      10557      10667      10668      10679      10678  
     10547      10548      10559      10558      10668      10669      10680      10679  
     10548      10549      10560      10559      10669      10670      10681      10680  
     10550      10551      10562      10561      10671      10672      10683      10682  
     10551      10552      10563      10562      10672      10673      10684      10683  
     10552      10553      10564      10563      10673      10674      10685      10684  
     10553      10554      10565      10564      10674      10675      10686      10685  
     10554      10555      10566      10565      10675      10676      10687      10686  
     10555      10556      10567      10566      10676      10677      10688      10687  
     10556      10557      10568      10567      10677      10678      10689      10688  
     10557      10558      10569      10568      10678      10679      10690      10689  
     10558      10559      10570      10569      10679      10680      10691      10690  
     10559      10560      10571      10570      10680      10681      10692      10691  
     10561      10562      10573      10572      10682      10683      10694      10693  
     10562      10563      10574      10573      10683      10684      10695      10694  
     10563      10564      10575      10574      10684      10685      10696      10695  
     10564      10565      10576      10575      10685      10686      10697      10696  
     10565      10566      10577      10576      10686      10687      10698      10697  
     10566      10567      10578      10577      10687      10688      10699      10698  
     10567      10568      10579      10578      10688      10689      10700      10699  
     10568      10569      10580      10579      10689      10690      10701      10700  
     10569      10570      10581      10580      10690      10691      10702      10701  
     10570      10571      10582      10581      10691      10692      10703      10702  
     10572      10573      10584      10583      10693      10694      10705      10704  
     10573      10574      10585      10584      10694      10695      10706      10705  
     10574      10575      10586      10585      10695      10696      10707      10706  
     10575      10576      10587      10586      10696      10697      10708      10707  
     10576      10577      10588      10587      10697      10698      10709      10708  
     10577      10578      10589      10588      10698      10699      10710      10709  
     10578      10579      10590      10589      10699      10700      10711      10710  
     10579      10580      10591      10590      10700      10701      10712      10711  
     10580      10581      10592      10591      10701      10702      10713      10712  
     10581      10582      10593      10592      10702      10703      10714      10713  
     10583      10584      10595      10594      10704      10705      10716      10715  
     10584      10585      10596      10595      10705      10706      10717      10716  
     10585      10586      10597      10596      10706      10707      10718      10717  
     10586      10587      10598      10597      10707      10708      10719      10718  
     10587      10588      10599      10598      10708      10709      10720      10719  
     10588      10589      10600      10599      10709      10710      10721      10720  
     10589      10590      10601      10600      10710      10711      10722      10721  
     10590      10591      10602      10601      10711      10712      10723      10722  
     10591      10592      10603      10602      10712      10713      10724      10723  
     10592      10593      10604      10603      10713      10714      10725      10724  
     10594      10595      10606      10605      10715      10716      10727      10726  
     10595      10596      10607      10606      10716      10717      10728      10727  
     10596      10597      10608      10607      10717      10718      10729      10728  
     10597      10598      10609      10608      10718      10719      10730      10729  
     10598      10599      10610      10609      10719      10720      10731      10730  
     10599      10600      10611      10610      10720      10721      10732      10731  
     10600      10601      10612      10611      10721      10722      10733      10732  
     10601      10602      10613      10612      10722      10723      10734      10733  
     10602      10603      10614      10613      10723      10724      10735      10734  
     10603      10604      10615      10614      10724      10725      10736      10735  
     10605      10606      10617      10616      10726      10727      10738      10737  
     10606      10607      10618      10617      10727      10728      10739      10738  
     10607      10608      10619      10618      10728      10729      10740      10739  
     10608      10609      10620      10619      10729      10730      10741      10740  
     10609      10610      10621      10620      10730      10731      10742      10741  
     10610      10611      10622      10621      10731      10732      10743      10742  
     10611      10612      10623      10622      10732      10733      10744      10743  
     10612      10613      10624      10623      10733      10734      10745      10744  
     10613      10614      10625      10624      10734      10735      10746      10745  
     10614      10615      10626      10625      10735      10736      10747      10746  
     10616      10617      10628      10627      10737      10738      10749      10748  
     10617      10618      10629      10628      10738      10739      10750      10749  
     10618      10619      10630      10629      10739      10740      10751      10750  
     10619      10620      10631      10630      10740      10741      10752      10751  
     10620      10621      10632      10631      10741      10742      10753      10752  
     10621      10622      10633      10632      10742      10743      10754      10753  
     10622      10623      10634      10633      10743      10744      10755      10754  
     10623      10624      10635      10634      10744      10745      10756      10755  
     10624      10625      10636      10635      10745      10746      10757      10756  
     10625      10626      10637      10636      10746      10747      10758      10757  
     10627      10628      10639      10638      10748      10749      10760      10759  
     10628      10629      10640      10639      10749      10750      10761      10760  
     10629      10630      10641      10640      10750      10751      10762      10761  
     10630      10631      10642      10641      10751      10752      10763      10762  
     10631      10632      10643      10642      10752      10753      10764      10763  
     10632      10633      10644      10643      10753      10754      10765      10764  
     10633      10634      10645      10644      10754      10755      10766      10765  
     10634      10635      10646      10645      10755      10756      10767      10766  
     10635      10636      10647      10646      10756      10757      10768      10767  
     10636      10637      10648      10647      10757      10758      10769      10768  
     10649      10650      10661      10660      10770      10771      10782      10781  
     10650      10651      10662      10661      10771      10772      10783      10782  
     10651      10652      10663      10662      10772      10773      10784      10783  
     10652      10653      10664      10663      10773      10774      10785      10784  
     10653      10654      10665      10664      10774      10775      10786      10785  
     10654      10655      10666      10665      10775      10776      10787      10786  
     10655      10656      10667      10666      10776      10777      10788      10787  
     10656      10657      10668      10667      10777      10778      10789      10788  
     10657      10658      10669      10668      10778      10779      10790      10789  
     10658      10659      10670      10669      10779      10780      10791      10790  
     10660      10661      10672      10671      10781      10782      10793      10792  
     10661      10662      10673      10672      10782      10783      10794      10793  
     10662      10663      10674      10673      10783      10784      10795      10794  
     10663      10664      10675      10674      10784      10785      10796      10795  
     10664      10665      10676      10675      10785      10786      10797      10796  
     10665      10666      10677      10676      10786      10787      10798      10797  
     10666      10667      10678      10677      10787      10788      10799      10798  
     10667      10668      10679      10678      10788      10789      10800      10799  
     10668      10669      10680      10679      10789      10790      10801      10800  
     10669      10670      10681      10680      10790      10791      10802      10801  
     10671      10672      10683      10682      10792      10793      10804      10803  
     10672      10673      10684      10683      10793      10794      10805      10804  
     10673      10674      10685      10684      10794      10795      10806      10805  
     10674      10675      10686      10685      10795      10796      10807      10806  
     10675      10676      10687      10686      10796      10797      10808      10807  
     10676      10677      10688      10687      10797      10798      10809      10808  
     10677      10678      10689      10688      10798      10799      10810      10809  
     10678      10679      10690      10689      10799      10800      10811      10810  
     10679      10680      10691      10690      10800      10801      10812      10811  
     10680      10681      10692      10691      10801      10802      10813      10812  
     10682      10683      10694      10693      10803      10804      10815      10814  
     10683      10684      10695      10694      10804      10805      10816      10815  
     10684      10685      10696      10695      10805      10806      10817      10816  
     10685      10686      10697      10696      10806      10807      10818      10817  
     10686      10687      10698      10697      10807      10808      10819      10818  
     10687      10688      10699      10698      10808      10809      10820      10819  
     10688      10689      10700      10699      10809      10810      10821      10820  
     10689      10690      10701      10700      10810      10811      10822      10821  
     10690      10691      10702      10701      10811      10812      10823      10822  
     10691      10692      10703      10702      10812      10813      10824      10823  
     10693      10694      10705      10704      10814      10815      10826      10825  
     10694      10695      10706      10705      10815      10816      10827      10826  
     10695      10696      10707      10706      10816      10817      10828      10827  
     10696      10697      10708      10707      10817      10818      10829      10828  
     10697      10698      10709      10708      10818      10819      10830      10829  
     10698      10699      10710      10709      10819      10820      10831      10830  
     10699      10700      10711      10710      10820      10821      10832      10831  
     10700      10701      10712      10711      10821      10822      10833      10832  
     10701      10702      10713      10712      10822      10823      10834      10833  
     10702      10703      10714      10713      10823      10824      10835      10834  
     10704      10705      10716      10715      10825      10826      10837      10836  
     10705      10706      10717      10716      10826      10827      10838      10837  
     10706      10707      10718      10717      10827      10828      10839      10838  
     10707      10708      10719      10718      10828      10829      10840      10839  
     10708      10709      10720      10719      10829      10830      10841      10840  
     10709      10710      10721      10720      10830      10831      10842      10841  
     10710      10711      10722      10721      10831      10832      10843      10842  
     10711      10712      10723      10722      10832      10833      10844      10843  
     10712      10713      10724      10723      10833      10834      10845      10844  
     10713      10714      10725      10724      10834      10835      10846      10845  
     10715      10716      10727      10726      10836      10837      10848      10847  
     10716      10717      10728      10727      10837      10838      10849      10848  
     10717      10718      10729      10728      10838      10839      10850      10849  
     10718      10719      10730      10729      10839      10840      10851      10850  
     10719      10720      10731      10730      10840      10841      10852      10851  
     10720      10721      10732      10731      10841      10842      10853      10852  
     10721      10722      10733      10732      10842      10843      10854      10853  
     10722      10723      10734      10733      10843      10844      10855      10854  
     10723      10724      10735      10734      10844      10845      10856      10855  
     10724      10725      10736      10735      10845      10846      10857      10856  
     10726      10727      10738      10737      10847      10848      10859      10858  
     10727      10728      10739      10738      10848      10849      10860      10859  
     10728      10729      10740      10739      10849      10850      10861      10860  
     10729      10730      10741      10740      10850      10851      10862      10861  
     10730      10731      10742      10741      10851      10852      10863      10862  
     10731      10732      10743      10742      10852      10853      10864      10863  
     10732      10733      10744      10743      10853      10854      10865      10864  
     10733      10734      10745      10744      10854      10855      10866      10865  
     10734      10735      10746      10745      10855      10856      10867      10866  
     10735      10736      10747      10746      10856      10857      10868      10867  
     10737      10738      10749      10748      10858      10859      10870      10869  
     10738      10739      10750      10749      10859      10860      10871      10870  
     10739      10740      10751      10750      10860      10861      10872      10871  
     10740      10741      10752      10751      10861      10862      10873      10872  
     10741      10742      10753      10752      10862      10863      10874      10873  
     10742      10743      10754      10753      10863      10864      10875      10874  
     10743      10744      10755      10754      10864      10865      10876      10875  
     10744      10745      10756      10755      10865      10866      10877      10876  
     10745      10746      10757      10756      10866      10867      10878      10877  
     10746      10747      10758      10757      10867      10868      10879      10878  
     10748      10749      10760      10759      10869      10870      10881      10880  
     10749      10750      10761      10760      10870      10871      10882      10881  
     10750      10751      10762      10761      10871      10872      10883      10882  
     10751      10752      10763      10762      10872      10873      10884      10883  
     10752      10753      10764      10763      10873      10874      10885      10884  
     10753      10754      10765      10764      10874      10875      10886      10885  
     10754      10755      10766      10765      10875      10876      10887      10886  
     10755      10756      10767      10766      10876      10877      10888      10887  
     10756      10757      10768      10767      10877      10878      10889      10888  
     10757      10758      10769      10768      10878      10879      10890      10889  
     10770      10771      10782      10781      10891      10892      10903      10902  
     10771      10772      10783      10782      10892      10893      10904      10903  
     10772      10773      10784      10783      10893      10894      10905      10904  
     10773      10774      10785      10784      10894      10895      10906      10905  
     10774      10775      10786      10785      10895      10896      10907      10906  
     10775      10776      10787      10786      10896      10897      10908      10907  
     10776      10777      10788      10787      10897      10898      10909      10908  
     10777      10778      10789      10788      10898      10899      10910      10909  
     10778      10779      10790      10789      10899      10900      10911      10910  
     10779      10780      10791      10790      10900      10901      10912      10911  
     10781      10782      10793      10792      10902      10903      10914      10913  
     10782      10783      10794      10793      10903      10904      10915      10914  
     10783      10784      10795      10794      10904      10905      10916      10915  
     10784      10785      10796      10795      10905      10906      10917      10916  
     10785      10786      10797      10796      10906      10907      10918      10917  
     10786      10787      10798      10797      10907      10908      10919      10918  
     10787      10788      10799      10798      10908      10909      10920      10919  
     10788      10789      10800      10799      10909      10910      10921      10920  
     10789      10790      10801      10800      10910      10911      10922      10921  
     10790      10791      10802      10801      10911      10912      10923      10922  
     10792      10793      10804      10803      10913      10914      10925      10924  
     10793      10794      10805      10804      10914      10915      10926      10925  
     10794      10795      10806      10805      10915      10916      10927      10926  
     10795      10796      10807      10806      10916      10917      10928      10927  
     10796      10797      10808      10807      10917      10918      10929      10928  
     10797      10798      10809      10808      10918      10919      10930      10929  
     10798      10799      10810      10809      10919      10920      10931      10930  
     10799      10800      10811      10810      10920      10921      10932      10931  
     10800      10801      10812      10811      10921      10922      10933      10932  
     10801      10802      10813      10812      10922      10923      10934      10933  
     10803      10804      10815      10814      10924      10925      10936      10935  
     10804      10805      10816      10815      10925      10926      10937      10936  
     10805      10806      10817      10816      10926      10927      10938      10937  
     10806      10807      10818      10817      10927      10928      10939      10938  
     10807      10808      10819      10818      10928      10929      10940      10939  
     10808      10809      10820      10819      10929      10930      10941      10940  
     10809      10810      10821      10820      10930      10931      10942      10941  
     10810      10811      10822      10821      10931      10932      10943      10942  
     10811      10812      10823      10822      10932      10933      10944      10943  
     10812      10813      10824      10823      10933      10934      10945      10944  
     10814      10815      10826      10825      10935      10936      10947      10946  
     10815      10816      10827      10826      10936      10937      10948      10947  
     10816      10817      10828      10827      10937      10938      10949      10948  
     10817      10818      10829      10828      10938      10939      10950      10949  
     10818      10819      10830      10829      10939      10940      10951      10950  
     10819      10820      10831      10830      10940      10941      10952      10951  
     10820      10821      10832      10831      10941      10942      10953      10952  
     10821      10822      10833      10832      10942      10943      10954      10953  
     10822      10823      10834      10833      10943      10944      10955      10954  
     10823      10824      10835      10834      10944      10945      10956      10955  
     10825      10826      10837      10836      10946      10947      10958      10957  
     10826      10827      10838      10837      10947      10948      10959      10958  
     10827      10828      10839      10838      10948      10949      10960      10959  
     10828      10829      10840      10839      10949      10950      10961      10960  
     10829      10830      10841      10840      10950      10951      10962      10961  
     10830      10831      10842      10841      10951      10952      10963      10962  
     10831      10832      10843      10842      10952      10953      10964      10963  
     10832      10833      10844      10843      10953      10954      10965      10964  
     10833      10834      10845      10844      10954      10955      10966      10965  
     10834      10835      10846      10845      10955      10956      10967      10966  
     10836      10837      10848      10847      10957      10958      10969      10968  
     10837      10838      10849      10848      10958      10959      10970      10969  
     10838      10839      10850      10849      10959      10960      10971      10970  
     10839      10840      10851      10850      10960      10961      10972      10971  
     10840      10841      10852      10851      10961      10962      10973      10972  
     10841      10842      10853      10852      10962      10963      10974      10973  
     10842      10843      10854      10853      10963      10964      10975      10974  
     10843      10844      10855      10854      10964      10965      10976      10975  
     10844      10845      10856      10855      10965      10966      10977      10976  
     10845      10846      10857      10856      10966      10967      10978      10977  
     10847      10848      10859      10858      10968      10969      10980      10979  
     10848      10849      10860      10859      10969      10970      10981      10980  
     10849      10850      10861      10860      10970      10971      10982      10981  
     10850      10851      10862      10861      10971      10972      10983      10982  
     10851      10852      10863      10862      10972      10973      10984      10983  
     10852      10853      10864      10863      10973      10974      10985      10984  
     10853      10854      10865      10864      10974      10975      10986      10985  
     10854      10855      10866      10865      10975      10976      10987      10986  
     10855      10856      10867      10866      10976      10977      10988      10987  
     10856      10857      10868      10867      10977      10978      10989      10988  
     10858      10859      10870      10869      10979      10980      10991      10990  
     10859      10860      10871      10870      10980      10981      10992      10991  
     10860      10861      10872      10871      10981      10982      10993      10992  
     10861      10862      10873      10872      10982      10983      10994      10993  
     10862      10863      10874      10873      10983      10984      10995      10994  
     10863      10864      10875      10874      10984      10985      10996      10995  
     10864      10865      10876      10875      10985      10986      10997      10996  
     10865      10866      10877      10876      10986      10987      10998      10997  
     10866      10867      10878      10877      10987      10988      10999      10998  
     10867      10868      10879      10878      10988      10989      11000      10999  
     10869      10870      10881      10880      10990      10991      11002      11001  
     10870      10871      10882      10881      10991      10992      11003      11002  
     10871      10872      10883      10882      10992      10993      11004      11003  
     10872      10873      10884      10883      10993      10994      11005      11004  
     10873      10874      10885      10884      10994      10995      11006      11005  
     10874      10875      10886      10885      10995      10996      11007      11006  
     10875      10876      10887      10886      10996      10997      11008      11007  
     10876      10877      10888      10887      10997      10998      11009      11008  
     10877      10878      10889      10888      10998      10999      11010      11009  
     10878      10879      10890      10889      10999      11000      11011      11010  
     10891      10892      10903      10902      11012      11013      11024      11023  
     10892      10893      10904      10903      11013      11014      11025      11024  
     10893      10894      10905      10904      11014      11015      11026      11025  
     10894      10895      10906      10905      11015      11016      11027      11026  
     10895      10896      10907      10906      11016      11017      11028      11027  
     10896      10897      10908      10907      11017      11018      11029      11028  
     10897      10898      10909      10908      11018      11019      11030      11029  
     10898      10899      10910      10909      11019      11020      11031      11030  
     10899      10900      10911      10910      11020      11021      11032      11031  
     10900      10901      10912      10911      11021      11022      11033      11032  
     10902      10903      10914      10913      11023      11024      11035      11034  
     10903      10904      10915      10914      11024      11025      11036      11035  
     10904      10905      10916      10915      11025      11026      11037      11036  
     10905      10906      10917      10916      11026      11027      11038      11037  
     10906      10907      10918      10917      11027      11028      11039      11038  
     10907      10908      10919      10918      11028      11029      11040      11039  
     10908      10909      10920      10919      11029      11030      11041      11040  
     10909      10910      10921      10920      11030      11031      11042      11041  
     10910      10911      10922      10921      11031      11032      11043      11042  
     10911      10912      10923      10922      11032      11033      11044      11043  
     10913      10914      10925      10924      11034      11035      11046      11045  
     10914      10915      10926      10925      11035      11036      11047      11046  
     10915      10916      10927      10926      11036      11037      11048      11047  
     10916      10917      10928      10927      11037      11038      11049      11048  
     10917      10918      10929      10928      11038      11039      11050      11049  
     10918      10919      10930      10929      11039      11040      11051      11050  
     10919      10920      10931      10930      11040      11041      11052      11051  
     10920      10921      10932      10931      11041      11042      11053      11052  
     10921      10922      10933      10932      11042      11043      11054      11053  
     10922      10923      10934      10933      11043      11044      11055      11054  
     10924      10925      10936      10935      11045      11046      11057      11056  
     10925      10926      10937      10936      11046      11047      11058      11057  
     10926      10927      10938      10937      11047      11048      11059      11058  
     10927      10928      10939      10938      11048      11049      11060      11059  
     10928      10929      10940      10939      11049      11050      11061      11060  
     10929      10930      10941      10940      11050      11051      11062      11061  
     10930      10931      10942      10941      11051      11052      11063      11062  
     10931      10932      10943      10942      11052      11053      11064      11063  
     10932      10933      10944      10943      11053      11054      11065      11064  
     10933      10934      10945      10944      11054      11055      11066      11065  
     10935      10936      10947      10946      11056      11057      11068      11067  
     10936      10937      10948      10947      11057      11058      11069      11068  
     10937      10938      10949      10948      11058      11059      11070      11069  
     10938      10939      10950      10949      11059      11060      11071      11070  
     10939      10940      10951      10950      11060      11061      11072      11071  
     10940      10941      10952      10951      11061      11062      11073      11072  
     10941      10942      10953      10952      11062      11063      11074      11073  
     10942      10943      10954      10953      11063      11064      11075      11074  
     10943      10944      10955      10954      11064      11065      11076      11075  
     10944      10945      10956      10955      11065      11066      11077      11076  
     10946      10947      10958      10957      11067      11068      11079      11078  
     10947      10948      10959      10958      11068      11069      11080      11079  
     10948      10949      10960      10959      11069      11070      11081      11080  
     10949      10950      10961      10960      11070      11071      11082      11081  
     10950      10951      10962      10961      11071      11072      11083      11082  
     10951      10952      10963      10962      11072      11073      11084      11083  
     10952      10953      10964      10963      11073      11074      11085      11084  
     10953      10954      10965      10964      11074      11075      11086      11085  
     10954      10955      10966      10965      11075      11076      11087      11086  
     10955      10956      10967      10966      11076      11077      11088      11087  
     10957      10958      10969      10968      11078      11079      11090      11089  
     10958      10959      10970      10969      11079      11080      11091      11090  
     10959      10960      10971      10970      11080      11081      11092      11091  
     10960      10961      10972      10971      11081      11082      11093      11092  
     10961      10962      10973      10972      11082      11083      11094      11093  
     10962      10963      10974      10973      11083      11084      11095      11094  
     10963      10964      10975      10974      11084      11085      11096      11095  
     10964      10965      10976      10975      11085      11086      11097      11096  
     10965      10966      10977      10976      11086      11087      11098      11097  
     10966      10967      10978      10977      11087      11088      11099      11098  
     10968      10969      10980      10979      11089      11090      11101      11100  
     10969      10970      10981      10980      11090      11091      11102      11101  
     10970      10971      10982      10981      11091      11092      11103      11102  
     10971      10972      10983      10982      11092      11093      11104      11103  
     10972      10973      10984      10983      11093      11094      11105      11104  
     10973      10974      10985      10984      11094      11095      11106      11105  
     10974      10975      10986      10985      11095      11096      11107      11106  
     10975      10976      10987      10986      11096      11097      11108      11107  
     10976      10977      10988      10987      11097      11098      11109      11108  
     10977      10978      10989      10988      11098      11099      11110      11109  
     10979      10980      10991      10990      11100      11101      11112      11111  
     10980      10981      10992      10991      11101      11102      11113      11112  
     10981      10982      10993      10992      11102      11103      11114      11113  
     10982      10983      10994      10993      11103      11104      11115      11114  
     10983      10984      10995      10994      11104      11105      11116      11115  
     10984      10985      10996      10995      11105      11106      11117      11116  
     10985      10986      10997      10996      11106      11107      11118      11117  
     10986      10987      10998      10997      11107      11108      11119      11118  
     10987      10988      10999      10998      11108      11109      11120      11119  
     10988      10989      11000      10999      11109      11110      11121      11120  
     10990      10991      11002      11001      11111      11112      11123      11122  
     10991      10992      11003      11002      11112      11113      11124      11123  
     10992      10993      11004      11003      11113      11114      11125      11124  
     10993      10994      11005      11004      11114      11115      11126      11125  
     10994      10995      11006      11005      11115      11116      11127      11126  
     10995      10996      11007      11006      11116      11117      11128      11127  
     10996      10997      11008      11007      11117      11118      11129      11128  
     10997      10998      11009      11008      11118      11119      11130      11129  
     10998      10999      11010      11009      11119      11120      11131      11130  
     10999      11000      11011      11010      11120      11121      11132      11131  
     11012      11013      11024      11023      11133      11134      11145      11144  
     11013      11014      11025      11024      11134      11135      11146      11145  
     11014      11015      11026      11025      11135      11136      11147      11146  
     11015      11016      11027      11026      11136      11137      11148      11147  
     11016      11017      11028      11027      11137      11138      11149      11148  
     11017      11018      11029      11028      11138      11139      11150      11149  
     11018      11019      11030      11029      11139      11140      11151      11150  
     11019      11020      11031      11030      11140      11141      11152      11151  
     11020      11021      11032      11031      11141      11142      11153      11152  
     11021      11022      11033      11032      11142      11143      11154      11153  
     11023      11024      11035      11034      11144      11145      11156      11155  
     11024      11025      11036      11035      11145      11146      11157      11156  
     11025      11026      11037      11036      11146      11147      11158      11157  
     11026      11027      11038      11037      11147      11148      11159      11158  
     11027      11028      11039      11038      11148      11149      11160      11159  
     11028      11029      11040      11039      11149      11150      11161      11160  
     11029      11030      11041      11040      11150      11151      11162      11161  
     11030      11031      11042      11041      11151      11152      11163      11162  
     11031      11032      11043      11042      11152      11153      11164      11163  
     11032      11033      11044      11043      11153      11154      11165      11164  
     11034      11035      11046      11045      11155      11156      11167      11166  
     11035      11036      11047      11046      11156      11157      11168      11167  
     11036      11037      11048      11047      11157      11158      11169      11168  
     11037      11038      11049      11048      11158      11159      11170      11169  
     11038      11039      11050      11049      11159      11160      11171      11170  
     11039      11040      11051      11050      11160      11161      11172      11171  
     11040      11041      11052      11051      11161      11162      11173      11172  
     11041      11042      11053      11052      11162      11163      11174      11173  
     11042      11043      11054      11053      11163      11164      11175      11174  
     11043      11044      11055      11054      11164      11165      11176      11175  
     11045      11046      11057      11056      11166      11167      11178      11177  
     11046      11047      11058      11057      11167      11168      11179      11178  
     11047      11048      11059      11058      11168      11169      11180      11179  
     11048      11049      11060      11059      11169      11170      11181      11180  
     11049      11050      11061      11060      11170      11171      11182      11181  
     11050      11051      11062      11061      11171      11172      11183      11182  
     11051      11052      11063      11062      11172      11173      11184      11183  
     11052      11053      11064      11063      11173      11174      11185      11184  
     11053      11054      11065      11064      11174      11175      11186      11185  
     11054      11055      11066      11065      11175      11176      11187      11186  
     11056      11057      11068      11067      11177      11178      11189      11188  
     11057      11058      11069      11068      11178      11179      11190      11189  
     11058      11059      11070      11069      11179      11180      11191      11190  
     11059      11060      11071      11070      11180      11181      11192      11191  
     11060      11061      11072      11071      11181      11182      11193      11192  
     11061      11062      11073      11072      11182      11183      11194      11193  
     11062      11063      11074      11073      11183      11184      11195      11194  
     11063      11064      11075      11074      11184      11185      11196      11195  
     11064      11065      11076      11075      11185      11186      11197      11196  
     11065      11066      11077      11076      11186      11187      11198      11197  
     11067      11068      11079      11078      11188      11189      11200      11199  
     11068      11069      11080      11079      11189      11190      11201      11200  
     11069      11070      11081      11080      11190      11191      11202      11201  
     11070      11071      11082      11081      11191      11192      11203      11202  
     11071      11072      11083      11082      11192      11193      11204      11203  
     11072      11073      11084      11083      11193      11194      11205      11204  
     11073      11074      11085      11084      11194      11195      11206      11205  
     11074      11075      11086      11085      11195      11196      11207      11206  
     11075      11076      11087      11086      11196      11197      11208      11207  
     11076      11077      11088      11087      11197      11198      11209      11208  
     11078      11079      11090      11089      11199      11200      11211      11210  
     11079      11080      11091      11090      11200      11201      11212      11211  
     11080      11081      11092      11091      11201      11202      11213      11212  
     11081      11082      11093      11092      11202      11203      11214      11213  
     11082      11083      11094      11093      11203      11204      11215      11214  
     11083      11084      11095      11094      11204      11205      11216      11215  
     11084      11085      11096      11095      11205      11206      11217      11216  
     11085      11086      11097      11096      11206      11207      11218      11217  
     11086      11087      11098      11097      11207      11208      11219      11218  
     11087      11088      11099      11098      11208      11209      11220      11219  
     11089      11090      11101      11100      11210      11211      11222      11221  
     11090      11091      11102      11101      11211      11212      11223      11222  
     11091      11092      11103      11102      11212      11213      11224      11223  
     11092      11093      11104      11103      11213      11214      11225      11224  
     11093      11094      11105      11104      11214      11215      11226      11225  
     11094      11095      11106      11105      11215      11216      11227      11226  
     11095      11096      11107      11106      11216      11217      11228      11227  
     11096      11097      11108      11107      11217      11218      11229      11228  
     11097      11098      11109      11108      11218      11219      11230      11229  
     11098      11099      11110      11109      11219      11220      11231      11230  
     11100      11101      11112      11111      11221      11222      11233      11232  
     11101      11102      11113      11112      11222      11223      11234      11233  
     11102      11103      11114      11113      11223      11224      11235      11234  
     11103      11104      11115      11114      11224      11225      11236      11235  
     11104      11105      11116      11115      11225      11226      11237      11236  
     11105      11106      11117      11116      11226      11227      11238      11237  
     11106      11107      11118      11117      11227      11228      11239      11238  
     11107      11108      11119      11118      11228      11229      11240      11239  
     11108      11109      11120      11119      11229      11230      11241      11240  
     11109      11110      11121      11120      11230      11231      11242      11241  
     11111      11112      11123      11122      11232      11233      11244      11243  
     11112      11113      11124      11123      11233      11234      11245      11244  
     11113      11114      11125      11124      11234      11235      11246      11245  
     11114      11115      11126      11125      11235      11236      11247      11246  
     11115      11116      11127      11126      11236      11237      11248      11247  
     11116      11117      11128      11127      11237      11238      11249      11248  
     11117      11118      11129      11128      11238      11239      11250      11249  
     11118      11119      11130      11129      11239      11240      11251      11250  
     11119      11120      11131      11130      11240      11241      11252      11251  
     11120      11121      11132      11131      11241      11242      11253      11252  
     11133      11134      11145      11144      11254      11255      11266      11265  
     11134      11135      11146      11145      11255      11256      11267      11266  
     11135      11136      11147      11146      11256      11257      11268      11267  
     11136      11137      11148      11147      11257      11258      11269      11268  
     11137      11138      11149      11148      11258      11259      11270      11269  
     11138      11139      11150      11149      11259      11260      11271      11270  
     11139      11140      11151      11150      11260      11261      11272      11271  
     11140      11141      11152      11151      11261      11262      11273      11272  
     11141      11142      11153      11152      11262      11263      11274      11273  
     11142      11143      11154      11153      11263      11264      11275      11274  
     11144      11145      11156      11155      11265      11266      11277      11276  
     11145      11146      11157      11156      11266      11267      11278      11277  
     11146      11147      11158      11157      11267      11268      11279      11278  
     11147      11148      11159      11158      11268      11269      11280      11279  
     11148      11149      11160      11159      11269      11270      11281      11280  
     11149      11150      11161      11160      11270      11271      11282      11281  
     11150      11151      11162      11161      11271      11272      11283      11282  
     11151      11152      11163      11162      11272      11273      11284      11283  
     11152      11153      11164      11163      11273      11274      11285      11284  
     11153      11154      11165      11164      11274      11275      11286      11285  
     11155      11156      11167      11166      11276      11277      11288      11287  
     11156      11157      11168      11167      11277      11278      11289      11288  
     11157      11158      11169      11168      11278      11279      11290      11289  
     11158      11159      11170      11169      11279      11280      11291      11290  
     11159      11160      11171      11170      11280      11281      11292      11291  
     11160      11161      11172      11171      11281      11282      11293      11292  
     11161      11162      11173      11172      11282      11283      11294      11293  
     11162      11163      11174      11173      11283      11284      11295      11294  
     11163      11164      11175      11174      11284      11285      11296      11295  
     11164      11165      11176      11175      11285      11286      11297      11296  
     11166      11167      11178      11177      11287      11288      11299      11298  
     11167      11168      11179      11178      11288      11289      11300      11299  
     11168      11169      11180      11179      11289      11290      11301      11300  
     11169      11170      11181      11180      11290      11291      11302      11301  
     11170      11171      11182      11181      11291      11292      11303      11302  
     11171      11172      11183      11182      11292      11293      11304      11303  
     11172      11173      11184      11183      11293      11294      11305      11304  
     11173      11174      11185      11184      11294      11295      11306      11305  
     11174      11175      11186      11185      11295      11296      11307      11306  
     11175      11176      11187      11186      11296      11297      11308      11307  
     11177      11178      11189      11188      11298      11299      11310      11309  
     11178      11179      11190      11189      11299      11300      11311      11310  
     11179      11180      11191      11190      11300      11301      11312      11311  
     11180      11181      11192      11191      11301      11302      11313      11312  
     11181      11182      11193      11192      11302      11303      11314      11313  
     11182      11183      11194      11193      11303      11304      11315      11314  
     11183      11184      11195      11194      11304      11305      11316      11315  
     11184      11185      11196      11195      11305      11306      11317      11316  
     11185      11186      11197      11196      11306      11307      11318      11317  
     11186      11187      11198      11197      11307      11308      11319      11318  
     11188      11189      11200      11199      11309      11310      11321      11320  
     11189      11190      11201      11200      11310      11311      11322      11321  
     11190      11191      11202      11201      11311      11312      11323      11322  
     11191      11192      11203      11202      11312      11313      11324      11323  
     11192      11193      11204      11203      11313      11314      11325      11324  
     11193      11194      11205      11204      11314      11315      11326      11325  
     11194      11195      11206      11205      11315      11316      11327      11326  
     11195      11196      11207      11206      11316      11317      11328      11327  
     11196      11197      11208      11207      11317      11318      11329      11328  
     11197      11198      11209      11208      11318      11319      11330      11329  
     11199      11200      11211      11210      11320      11321      11332      11331  
     11200      11201      11212      11211      11321      11322      11333      11332  
     11201      11202      11213      11212      11322      11323      11334      11333  
     11202      11203      11214      11213      11323      11324      11335      11334  
     11203      11204      11215      11214      11324      11325      11336      11335  
     11204      11205      11216      11215      11325      11326      11337      11336  
     11205      11206      11217      11216      11326      11327      11338      11337  
     11206      11207      11218      11217      11327      11328      11339      11338  
     11207      11208      11219      11218      11328      11329      11340      11339  
     11208      11209      11220      11219      11329      11330      11341      11340  
     11210      11211      11222      11221      11331      11332      11343      11342  
     11211      11212      11223      11222      11332      11333      11344      11343  
     11212      11213      11224      11223      11333      11334      11345      11344  
     11213      11214      11225      11224      11334      11335      11346      11345  
     11214      11215      11226      11225      11335      11336      11347      11346  
     11215      11216      11227      11226      11336      11337      11348      11347  
     11216      11217      11228      11227      11337      11338      11349      11348  
     11217      11218      11229      11228      11338      11339      11350      11349  
     11218      11219      11230      11229      11339      11340      11351      11350  
     11219      11220      11231      11230      11340      11341      11352      11351  
     11221      11222      11233      11232      11342      11343      11354      11353  
     11222      11223      11234      11233      11343      11344      11355      11354  
     11223      11224      11235      11234      11344      11345      11356      11355  
     11224      11225      11236      11235      11345      11346      11357      11356  
     11225      11226      11237      11236      11346      11347      11358      11357  
     11226      11227      11238      11237      11347      11348      11359      11358  
     11227      11228      11239      11238      11348      11349      11360      11359  
     11228      11229      11240      11239      11349      11350      11361      11360  
     11229      11230      11241      11240      11350      11351      11362      11361  
     11230      11231      11242      11241      11351      11352      11363      11362  
     11232      11233      11244      11243      11353      11354      11365      11364  
     11233      11234      11245      11244      11354      11355      11366      11365  
     11234      11235      11246      11245      11355      11356      11367      11366  
     11235      11236      11247      11246      11356      11357      11368      11367  
     11236      11237      11248      11247      11357      11358      11369      11368  
     11237      11238      11249      11248      11358      11359      11370      11369  
     11238      11239      11250      11249      11359      11360      11371      11370  
     11239      11240      11251      11250      11360      11361      11372      11371  
     11240      11241      11252      11251      11361      11362      11373      11372  
     11241      11242      11253      11252      11362      11363      11374      11373  
     11254      11255      11266      11265      11375      11376      11387      11386  
     11255      11256      11267      11266      11376      11377      11388      11387  
     11256      11257      11268      11267      11377      11378      11389      11388  
     11257      11258      11269      11268      11378      11379      11390      11389  
     11258      11259      11270      11269      11379      11380      11391      11390  
     11259      11260      11271      11270      11380      11381      11392      11391  
     11260      11261      11272      11271      11381      11382      11393      11392  
     11261      11262      11273      11272      11382      11383      11394      11393  
     11262      11263      11274      11273      11383      11384      11395      11394  
     11263      11264      11275      11274      11384      11385      11396      11395  
     11265      11266      11277      11276      11386      11387      11398      11397  
     11266      11267      11278      11277      11387      11388      11399      11398  
     11267      11268      11279      11278      11388      11389      11400      11399  
     11268      11269      11280      11279      11389      11390      11401      11400  
     11269      11270      11281      11280      11390      11391      11402      11401  
     11270      11271      11282      11281      11391      11392      11403      11402  
     11271      11272      11283      11282      11392      11393      11404      11403  
     11272      11273      11284      11283      11393      11394      11405      11404  
     11273      11274      11285      11284      11394      11395      11406      11405  
     11274      11275      11286      11285      11395      11396      11407      11406  
     11276      11277      11288      11287      11397      11398      11409      11408  
     11277      11278      11289      11288      11398      11399      11410      11409  
     11278      11279      11290      11289      11399      11400      11411      11410  
     11279      11280      11291      11290      11400      11401      11412      11411  
     11280      11281      11292      11291      11401      11402      11413      11412  
     11281      11282      11293      11292      11402      11403      11414      11413  
     11282      11283      11294      11293      11403      11404      11415      11414  
     11283      11284      11295      11294      11404      11405      11416      11415  
     11284      11285      11296      11295      11405      11406      11417      11416  
     11285      11286      11297      11296      11406      11407      11418      11417  
     11287      11288      11299      11298      11408      11409      11420      11419  
     11288      11289      11300      11299      11409      11410      11421      11420  
     11289      11290      11301      11300      11410      11411      11422      11421  
     11290      11291      11302      11301      11411      11412      11423      11422  
     11291      11292      11303      11302      11412      11413      11424      11423  
     11292      11293      11304      11303      11413      11414      11425      11424  
     11293      11294      11305      11304      11414      11415      11426      11425  
     11294      11295      11306      11305      11415      11416      11427      11426  
     11295      11296      11307      11306      11416      11417      11428      11427  
     11296      11297      11308      11307      11417      11418      11429      11428  
     11298      11299      11310      11309      11419      11420      11431      11430  
     11299      11300      11311      11310      11420      11421      11432      11431  
     11300      11301      11312      11311      11421      11422      11433      11432  
     11301      11302      11313      11312      11422      11423      11434      11433  
     11302      11303      11314      11313      11423      11424      11435      11434  
     11303      11304      11315      11314      11424      11425      11436      11435  
     11304      11305      11316      11315      11425      11426      11437      11436  
     11305      11306      11317      11316      11426      11427      11438      11437  
     11306      11307      11318      11317      11427      11428      11439      11438  
     11307      11308      11319      11318      11428      11429      11440      11439  
     11309      11310      11321      11320      11430      11431      11442      11441  
     11310      11311      11322      11321      11431      11432      11443      11442  
     11311      11312      11323      11322      11432      11433      11444      11443  
     11312      11313      11324      11323      11433      11434      11445      11444  
     11313      11314      11325      11324      11434      11435      11446      11445  
     11314      11315      11326      11325      11435      11436      11447      11446  
     11315      11316      11327      11326      11436      11437      11448      11447  
     11316      11317      11328      11327      11437      11438      11449      11448  
     11317      11318      11329      11328      11438      11439      11450      11449  
     11318      11319      11330      11329      11439      11440      11451      11450  
     11320      11321      11332      11331      11441      11442      11453      11452  
     11321      11322      11333      11332      11442      11443      11454      11453  
     11322      11323      11334      11333      11443      11444      11455      11454  
     11323      11324      11335      11334      11444      11445      11456      11455  
     11324      11325      11336      11335      11445      11446      11457      11456  
     11325      11326      11337      11336      11446      11447      11458      11457  
     11326      11327      11338      11337      11447      11448      11459      11458  
     11327      11328      11339      11338      11448      11449      11460      11459  
     11328      11329      11340      11339      11449      11450      11461      11460  
     11329      11330      11341      11340      11450      11451      11462      11461  
     11331      11332      11343      11342      11452      11453      11464      11463  
     11332      11333      11344      11343      11453      11454      11465      11464  
     11333      11334      11345      11344      11454      11455      11466      11465  
     11334      11335      11346      11345      11455      11456      11467      11466  
     11335      11336      11347      11346      11456      11457      11468      11467  
     11336      11337      11348      11347      11457      11458      11469      11468  
     11337      11338      11349      11348      11458      11459      11470      11469  
     11338      11339      11350      11349      11459      11460      11471      11470  
     11339      11340      11351      11350      11460      11461      11472      11471  
     11340      11341      11352      11351      11461      11462      11473      11472  
     11342      11343      11354      11353      11463      11464      11475      11474  
     11343      11344      11355      11354      11464      11465      11476      11475  
     11344      11345      11356      11355      11465      11466      11477      11476  
     11345      11346      11357      11356      11466      11467      11478      11477  
     11346      11347      11358      11357      11467      11468      11479      11478  
     11347      11348      11359      11358      11468      11469      11480      11479  
     11348      11349      11360      11359      11469      11470      11481      11480  
     11349      11350      11361      11360      11470      11471      11482      11481  
     11350      11351      11362      11361      11471      11472      11483      11482  
     11351      11352      11363      11362      11472      11473      11484      11483  
     11353      11354      11365      11364      11474      11475      11486      11485  
     11354      11355      11366      11365      11475      11476      11487      11486  
     11355      11356      11367      11366      11476      11477      11488      11487  
     11356      11357      11368      11367      11477      11478      11489      11488  
     11357      11358      11369      11368      11478      11479      11490      11489  
     11358      11359      11370      11369      11479      11480      11491      11490  
     11359      11360      11371      11370      11480      11481      11492      11491  
     11360      11361      11372      11371      11481      11482      11493      11492  
     11361      11362      11373      11372      11482      11483      11494      11493  
     11362      11363      11374      11373      11483      11484      11495      11494  
     11375      11376      11387      11386      11496      11497      11508      11507  
     11376      11377      11388      11387      11497      11498      11509      11508  
     11377      11378      11389      11388      11498      11499      11510      11509  
     11378      11379      11390      11389      11499      11500      11511      11510  
     11379      11380      11391      11390      11500      11501      11512      11511  
     11380      11381      11392      11391      11501      11502      11513      11512  
     11381      11382      11393      11392      11502      11503      11514      11513  
     11382      11383      11394      11393      11503      11504      11515      11514  
     11383      11384      11395      11394      11504      11505      11516      11515  
     11384      11385      11396      11395      11505      11506      11517      11516  
     11386      11387      11398      11397      11507      11508      11519      11518  
     11387      11388      11399      11398      11508      11509      11520      11519  
     11388      11389      11400      11399      11509      11510      11521      11520  
     11389      11390      11401      11400      11510      11511      11522      11521  
     11390      11391      11402      11401      11511      11512      11523      11522  
     11391      11392      11403      11402      11512      11513      11524      11523  
     11392      11393      11404      11403      11513      11514      11525      11524  
     11393      11394      11405      11404      11514      11515      11526      11525  
     11394      11395      11406      11405      11515      11516      11527      11526  
     11395      11396      11407      11406      11516      11517      11528      11527  
     11397      11398      11409      11408      11518      11519      11530      11529  
     11398      11399      11410      11409      11519      11520      11531      11530  
     11399      11400      11411      11410      11520      11521      11532      11531  
     11400      11401      11412      11411      11521      11522      11533      11532  
     11401      11402      11413      11412      11522      11523      11534      11533  
     11402      11403      11414      11413      11523      11524      11535      11534  
     11403      11404      11415      11414      11524      11525      11536      11535  
     11404      11405      11416      11415      11525      11526      11537      11536  
     11405      11406      11417      11416      11526      11527      11538      11537  
     11406      11407      11418      11417      11527      11528      11539      11538  
     11408      11409      11420      11419      11529      11530      11541      11540  
     11409      11410      11421      11420      11530      11531      11542      11541  
     11410      11411      11422      11421      11531      11532      11543      11542  
     11411      11412      11423      11422      11532      11533      11544      11543  
     11412      11413      11424      11423      11533      11534      11545      11544  
     11413      11414      11425      11424      11534      11535      11546      11545  
     11414      11415      11426      11425      11535      11536      11547      11546  
     11415      11416      11427      11426      11536      11537      11548      11547  
     11416      11417      11428      11427      11537      11538      11549      11548  
     11417      11418      11429      11428      11538      11539      11550      11549  
     11419      11420      11431      11430      11540      11541      11552      11551  
     11420      11421      11432      11431      11541      11542      11553      11552  
     11421      11422      11433      11432      11542      11543      11554      11553  
     11422      11423      11434      11433      11543      11544      11555      11554  
     11423      11424      11435      11434      11544      11545      11556      11555  
     11424      11425      11436      11435      11545      11546      11557      11556  
     11425      11426      11437      11436      11546      11547      11558      11557  
     11426      11427      11438      11437      11547      11548      11559      11558  
     11427      11428      11439      11438      11548      11549      11560      11559  
     11428      11429      11440      11439      11549      11550      11561      11560  
     11430      11431      11442      11441      11551      11552      11563      11562  
     11431      11432      11443      11442      11552      11553      11564      11563  
     11432      11433      11444      11443      11553      11554      11565      11564  
     11433      11434      11445      11444      11554      11555      11566      11565  
     11434      11435      11446      11445      11555      11556      11567      11566  
     11435      11436      11447      11446      11556      11557      11568      11567  
     11436      11437      11448      11447      11557      11558      11569      11568  
     11437      11438      11449      11448      11558      11559      11570      11569  
     11438      11439      11450      11449      11559      11560      11571      11570  
     11439      11440      11451      11450      11560      11561      11572      11571  
     11441      11442      11453      11452      11562      11563      11574      11573  
     11442      11443      11454      11453      11563      11564      11575      11574  
     11443      11444      11455      11454      11564      11565      11576      11575  
     11444      11445      11456      11455      11565      11566      11577      11576  
     11445      11446      11457      11456      11566      11567      11578      11577  
     11446      11447      11458      11457      11567      11568      11579      11578  
     11447      11448      11459      11458      11568      11569      11580      11579  
     11448      11449      11460      11459      11569      11570      11581      11580  
     11449      11450      11461      11460      11570      11571      11582      11581  
     11450      11451      11462      11461      11571      11572      11583      11582  
     11452      11453      11464      11463      11573      11574      11585      11584  
     11453      11454      11465      11464      11574      11575      11586      11585  
     11454      11455      11466      11465      11575      11576      11587      11586  
     11455      11456      11467      11466      11576      11577      11588      11587  
     11456      11457      11468      11467      11577      11578      11589      11588  
     11457      11458      11469      11468      11578      11579      11590      11589  
     11458      11459      11470      11469      11579      11580      11591      11590  
     11459      11460      11471      11470      11580      11581      11592      11591  
     11460      11461      11472      11471      11581      11582      11593      11592  
     11461      11462      11473      11472      11582      11583      11594      11593  
     11463      11464      11475      11474      11584      11585      11596      11595  
     11464      11465      11476      11475      11585      11586      11597      11596  
     11465      11466      11477      11476      11586      11587      11598      11597  
     11466      11467      11478      11477      11587      11588      11599      11598  
     11467      11468      11479      11478      11588      11589      11600      11599  
     11468      11469      11480      11479      11589      11590      11601      11600  
     11469      11470      11481      11480      11590      11591      11602      11601  
     11470      11471      11482      11481      11591      11592      11603      11602  
     11471      11472      11483      11482      11592      11593      11604      11603  
     11472      11473      11484      11483      11593      11594      11605      11604  
     11474      11475      11486      11485      11595      11596      11607      11606  
     11475      11476      11487      11486      11596      11597      11608      11607  
     11476      11477      11488      11487      11597      11598      11609      11608  
     11477      11478      11489      11488      11598      11599      11610      11609  
     11478      11479      11490      11489      11599      11600      11611      11610  
     11479      11480      11491      11490      11600      11601      11612      11611  
     11480      11481      11492      11491      11601      11602      11613      11612  
     11481      11482      11493      11492      11602      11603      11614      11613  
     11482      11483      11494      11493      11603      11604      11615      11614  
     11483      11484      11495      11494      11604      11605      11616      11615  
     11496      11497      11508      11507      11617      11618      11629      11628  
     11497      11498      11509      11508      11618      11619      11630      11629  
     11498      11499      11510      11509      11619      11620      11631      11630  
     11499      11500      11511      11510      11620      11621      11632      11631  
     11500      11501      11512      11511      11621      11622      11633      11632  
     11501      11502      11513      11512      11622      11623      11634      11633  
     11502      11503      11514      11513      11623      11624      11635      11634  
     11503      11504      11515      11514      11624      11625      11636      11635  
     11504      11505      11516      11515      11625      11626      11637      11636  
     11505      11506      11517      11516      11626      11627      11638      11637  
     11507      11508      11519      11518      11628      11629      11640      11639  
     11508      11509      11520      11519      11629      11630      11641      11640  
     11509      11510      11521      11520      11630      11631      11642      11641  
     11510      11511      11522      11521      11631      11632      11643      11642  
     11511      11512      11523      11522      11632      11633      11644      11643  
     11512      11513      11524      11523      11633      11634      11645      11644  
     11513      11514      11525      11524      11634      11635      11646      11645  
     11514      11515      11526      11525      11635      11636      11647      11646  
     11515      11516      11527      11526      11636      11637      11648      11647  
     11516      11517      11528      11527      11637      11638      11649      11648  
     11518      11519      11530      11529      11639      11640      11651      11650  
     11519      11520      11531      11530      11640      11641      11652      11651  
     11520      11521      11532      11531      11641      11642      11653      11652  
     11521      11522      11533      11532      11642      11643      11654      11653  
     11522      11523      11534      11533      11643      11644      11655      11654  
     11523      11524      11535      11534      11644      11645      11656      11655  
     11524      11525      11536      11535      11645      11646      11657      11656  
     11525      11526      11537      11536      11646      11647      11658      11657  
     11526      11527      11538      11537      11647      11648      11659      11658  
     11527      11528      11539      11538      11648      11649      11660      11659  
     11529      11530      11541      11540      11650      11651      11662      11661  
     11530      11531      11542      11541      11651      11652      11663      11662  
     11531      11532      11543      11542      11652      11653      11664      11663  
     11532      11533      11544      11543      11653      11654      11665      11664  
     11533      11534      11545      11544      11654      11655      11666      11665  
     11534      11535      11546      11545      11655      11656      11667      11666  
     11535      11536      11547      11546      11656      11657      11668      11667  
     11536      11537      11548      11547      11657      11658      11669      11668  
     11537      11538      11549      11548      11658      11659      11670      11669  
     11538      11539      11550      11549      11659      11660      11671      11670  
     11540      11541      11552      11551      11661      11662      11673      11672  
     11541      11542      11553      11552      11662      11663      11674      11673  
     11542      11543      11554      11553      11663      11664      11675      11674  
     11543      11544      11555      11554      11664      11665      11676      11675  
     11544      11545      11556      11555      11665      11666      11677      11676  
     11545      11546      11557      11556      11666      11667      11678      11677  
     11546      11547      11558      11557      11667      11668      11679      11678  
     11547      11548      11559      11558      11668      11669      11680      11679  
     11548      11549      11560      11559      11669      11670      11681      11680  
     11549      11550      11561      11560      11670      11671      11682      11681  
     11551      11552      11563      11562      11672      11673      11684      11683  
     11552      11553      11564      11563      11673      11674      11685      11684  
     11553      11554      11565      11564      11674      11675      11686      11685  
     11554      11555      11566      11565      11675      11676      11687      11686  
     11555      11556      11567      11566      11676      11677      11688      11687  
     11556      11557      11568      11567      11677      11678      11689      11688  
     11557      11558      11569      11568      11678      11679      11690      11689  
     11558      11559      11570      11569      11679      11680      11691      11690  
     11559      11560      11571      11570      11680      11681      11692      11691  
     11560      11561      11572      11571      11681      11682      11693      11692  
     11562      11563      11574      11573      11683      11684      11695      11694  
     11563      11564      11575      11574      11684      11685      11696      11695  
     11564      11565      11576      11575      11685      11686      11697      11696  
     11565      11566      11577      11576      11686      11687      11698      11697  
     11566      11567      11578      11577      11687      11688      11699      11698  
     11567      11568      11579      11578      11688      11689      11700      11699  
     11568      11569      11580      11579      11689      11690      11701      11700  
     11569      11570      11581      11580      11690      11691      11702      11701  
     11570      11571      11582      11581      11691      11692      11703      11702  
     11571      11572      11583      11582      11692      11693      11704      11703  
     11573      11574      11585      11584      11694      11695      11706      11705  
     11574      11575      11586      11585      11695      11696      11707      11706  
     11575      11576      11587      11586      11696      11697      11708      11707  
     11576      11577      11588      11587      11697      11698      11709      11708  
     11577      11578      11589      11588      11698      11699      11710      11709  
     11578      11579      11590      11589      11699      11700      11711      11710  
     11579      11580      11591      11590      11700      11701      11712      11711  
     11580      11581      11592      11591      11701      11702      11713      11712  
     11581      11582      11593      11592      11702      11703      11714      11713  
     11582      11583      11594      11593      11703      11704      11715      11714  
     11584      11585      11596      11595      11705      11706      11717      11716  
     11585      11586      11597      11596      11706      11707      11718      11717  
     11586      11587      11598      11597      11707      11708      11719      11718  
     11587      11588      11599      11598      11708      11709      11720      11719  
     11588      11589      11600      11599      11709      11710      11721      11720  
     11589      11590      11601      11600      11710      11711      11722      11721  
     11590      11591      11602      11601      11711      11712      11723      11722  
     11591      11592      11603      11602      11712      11713      11724      11723  
     11592      11593      11604      11603      11713      11714      11725      11724  
     11593      11594      11605      11604      11714      11715      11726      11725  
     11595      11596      11607      11606      11716      11717      11728      11727  
     11596      11597      11608      11607      11717      11718      11729      11728  
     11597      11598      11609      11608      11718      11719      11730      11729  
     11598      11599      11610      11609      11719      11720      11731      11730  
     11599      11600      11611      11610      11720      11721      11732      11731  
     11600      11601      11612      11611      11721      11722      11733      11732  
     11601      11602      11613      11612      11722      11723      11734      11733  
     11602      11603      11614      11613      11723      11724      11735      11734  
     11603      11604      11615      11614      11724      11725      11736      11735  
     11604      11605      11616      11615      11725      11726      11737      11736  
     11617      11618      11629      11628      11738      11739      11750      11749  
     11618      11619      11630      11629      11739      11740      11751      11750  
     11619      11620      11631      11630      11740      11741      11752      11751  
     11620      11621      11632      11631      11741      11742      11753      11752  
     11621      11622      11633      11632      11742      11743      11754      11753  
     11622      11623      11634      11633      11743      11744      11755      11754  
     11623      11624      11635      11634      11744      11745      11756      11755  
     11624      11625      11636      11635      11745      11746      11757      11756  
     11625      11626      11637      11636      11746      11747      11758      11757  
     11626      11627      11638      11637      11747      11748      11759      11758  
     11628      11629      11640      11639      11749      11750      11761      11760  
     11629      11630      11641      11640      11750      11751      11762      11761  
     11630      11631      11642      11641      11751      11752      11763      11762  
     11631      11632      11643      11642      11752      11753      11764      11763  
     11632      11633      11644      11643      11753      11754      11765      11764  
     11633      11634      11645      11644      11754      11755      11766      11765  
     11634      11635      11646      11645      11755      11756      11767      11766  
     11635      11636      11647      11646      11756      11757      11768      11767  
     11636      11637      11648      11647      11757      11758      11769      11768  
     11637      11638      11649      11648      11758      11759      11770      11769  
     11639      11640      11651      11650      11760      11761      11772      11771  
     11640      11641      11652      11651      11761      11762      11773      11772  
     11641      11642      11653      11652      11762      11763      11774      11773  
     11642      11643      11654      11653      11763      11764      11775      11774  
     11643      11644      11655      11654      11764      11765      11776      11775  
     11644      11645      11656      11655      11765      11766      11777      11776  
     11645      11646      11657      11656      11766      11767      11778      11777  
     11646      11647      11658      11657      11767      11768      11779      11778  
     11647      11648      11659      11658      11768      11769      11780      11779  
     11648      11649      11660      11659      11769      11770      11781      11780  
     11650      11651      11662      11661      11771      11772      11783      11782  
     11651      11652      11663      11662      11772      11773      11784      11783  
     11652      11653      11664      11663      11773      11774      11785      11784  
     11653      11654      11665      11664      11774      11775      11786      11785  
     11654      11655      11666      11665      11775      11776      11787      11786  
     11655      11656      11667      11666      11776      11777      11788      11787  
     11656      11657      11668      11667      11777      11778      11789      11788  
     11657      11658      11669      11668      11778      11779      11790      11789  
     11658      11659      11670      11669      11779      11780      11791      11790  
     11659      11660      11671      11670      11780      11781      11792      11791  
     11661      11662      11673      11672      11782      11783      11794      11793  
     11662      11663      11674      11673      11783      11784      11795      11794  
     11663      11664      11675      11674      11784      11785      11796      11795  
     11664      11665      11676      11675      11785      11786      11797      11796  
     11665      11666      11677      11676      11786      11787      11798      11797  
     11666      11667      11678      11677      11787      11788      11799      11798  
     11667      11668      11679      11678      11788      11789      11800      11799  
     11668      11669      11680      11679      11789      11790      11801      11800  
     11669      11670      11681      11680      11790      11791      11802      11801  
     11670      11671      11682      11681      11791      11792      11803      11802  
     11672      11673      11684      11683      11793      11794      11805      11804  
     11673      11674      11685      11684      11794      11795      11806      11805  
     11674      11675      11686      11685      11795      11796      11807      11806  
     11675      11676      11687      11686      11796      11797      11808      11807  
     11676      11677      11688      11687      11797      11798      11809      11808  
     11677      11678      11689      11688      11798      11799      11810      11809  
     11678      11679      11690      11689      11799      11800      11811      11810  
     11679      11680      11691      11690      11800      11801      11812      11811  
     11680      11681      11692      11691      11801      11802      11813      11812  
     11681      11682      11693      11692      11802      11803      11814      11813  
     11683      11684      11695      11694      11804      11805      11816      11815  
     11684      11685      11696      11695      11805      11806      11817      11816  
     11685      11686      11697      11696      11806      11807      11818      11817  
     11686      11687      11698      11697      11807      11808      11819      11818  
     11687      11688      11699      11698      11808      11809      11820      11819  
     11688      11689      11700      11699      11809      11810      11821      11820  
     11689      11690      11701      11700      11810      11811      11822      11821  
     11690      11691      11702      11701      11811      11812      11823      11822  
     11691      11692      11703      11702      11812      11813      11824      11823  
     11692      11693      11704      11703      11813      11814      11825      11824  
     11694      11695      11706      11705      11815      11816      11827      11826  
     11695      11696      11707      11706      11816      11817      11828      11827  
     11696      11697      11708      11707      11817      11818      11829      11828  
     11697      11698      11709      11708      11818      11819      11830      11829  
     11698      11699      11710      11709      11819      11820      11831      11830  
     11699      11700      11711      11710      11820      11821      11832      11831  
     11700      11701      11712      11711      11821      11822      11833      11832  
     11701      11702      11713      11712      11822      11823      11834      11833  
     11702      11703      11714      11713      11823      11824      11835      11834  
     11703      11704      11715      11714      11824      11825      11836      11835  
     11705      11706      11717      11716      11826      11827      11838      11837  
     11706      11707      11718      11717      11827      11828      11839      11838  
     11707      11708      11719      11718      11828      11829      11840      11839  
     11708      11709      11720      11719      11829      11830      11841      11840  
     11709      11710      11721      11720      11830      11831      11842      11841  
     11710      11711      11722      11721      11831      11832      11843      11842  
     11711      11712      11723      11722      11832      11833      11844      11843  
     11712      11713      11724      11723      11833      11834      11845      11844  
     11713      11714      11725      11724      11834      11835      11846      11845  
     11714      11715      11726      11725      11835      11836      11847      11846  
     11716      11717      11728      11727      11837      11838      11849      11848  
     11717      11718      11729      11728      11838      11839      11850      11849  
     11718      11719      11730      11729      11839      11840      11851      11850  
     11719      11720      11731      11730      11840      11841      11852      11851  
     11720      11721      11732      11731      11841      11842      11853      11852  
     11721      11722      11733      11732      11842      11843      11854      11853  
     11722      11723      11734      11733      11843      11844      11855      11854  
     11723      11724      11735      11734      11844      11845      11856      11855  
     11724      11725      11736      11735      11845      11846      11857      11856  
     11725      11726      11737      11736      11846      11847      11858      11857  
     11738      11739      11750      11749      11859      11860      11871      11870  
     11739      11740      11751      11750      11860      11861      11872      11871  
     11740      11741      11752      11751      11861      11862      11873      11872  
     11741      11742      11753      11752      11862      11863      11874      11873  
     11742      11743      11754      11753      11863      11864      11875      11874  
     11743      11744      11755      11754      11864      11865      11876      11875  
     11744      11745      11756      11755      11865      11866      11877      11876  
     11745      11746      11757      11756      11866      11867      11878      11877  
     11746      11747      11758      11757      11867      11868      11879      11878  
     11747      11748      11759      11758      11868      11869      11880      11879  
     11749      11750      11761      11760      11870      11871      11882      11881  
     11750      11751      11762      11761      11871      11872      11883      11882  
     11751      11752      11763      11762      11872      11873      11884      11883  
     11752      11753      11764      11763      11873      11874      11885      11884  
     11753      11754      11765      11764      11874      11875      11886      11885  
     11754      11755      11766      11765      11875      11876      11887      11886  
     11755      11756      11767      11766      11876      11877      11888      11887  
     11756      11757      11768      11767      11877      11878      11889      11888  
     11757      11758      11769      11768      11878      11879      11890      11889  
     11758      11759      11770      11769      11879      11880      11891      11890  
     11760      11761      11772      11771      11881      11882      11893      11892  
     11761      11762      11773      11772      11882      11883      11894      11893  
     11762      11763      11774      11773      11883      11884      11895      11894  
     11763      11764      11775      11774      11884      11885      11896      11895  
     11764      11765      11776      11775      11885      11886      11897      11896  
     11765      11766      11777      11776      11886      11887      11898      11897  
     11766      11767      11778      11777      11887      11888      11899      11898  
     11767      11768      11779      11778      11888      11889      11900      11899  
     11768      11769      11780      11779      11889      11890      11901      11900  
     11769      11770      11781      11780      11890      11891      11902      11901  
     11771      11772      11783      11782      11892      11893      11904      11903  
     11772      11773      11784      11783      11893      11894      11905      11904  
     11773      11774      11785      11784      11894      11895      11906      11905  
     11774      11775      11786      11785      11895      11896      11907      11906  
     11775      11776      11787      11786      11896      11897      11908      11907  
     11776      11777      11788      11787      11897      11898      11909      11908  
     11777      11778      11789      11788      11898      11899      11910      11909  
     11778      11779      11790      11789      11899      11900      11911      11910  
     11779      11780      11791      11790      11900      11901      11912      11911  
     11780      11781      11792      11791      11901      11902      11913      11912  
     11782      11783      11794      11793      11903      11904      11915      11914  
     11783      11784      11795      11794      11904      11905      11916      11915  
     11784      11785      11796      11795      11905      11906      11917      11916  
     11785      11786      11797      11796      11906      11907      11918      11917  
     11786      11787      11798      11797      11907      11908      11919      11918  
     11787      11788      11799      11798      11908      11909      11920      11919  
     11788      11789      11800      11799      11909      11910      11921      11920  
     11789      11790      11801      11800      11910      11911      11922      11921  
     11790      11791      11802      11801      11911      11912      11923      11922  
     11791      11792      11803      11802      11912      11913      11924      11923  
     11793      11794      11805      11804      11914      11915      11926      11925  
     11794      11795      11806      11805      11915      11916      11927      11926  
     11795      11796      11807      11806      11916      11917      11928      11927  
     11796      11797      11808      11807      11917      11918      11929      11928  
     11797      11798      11809      11808      11918      11919      11930      11929  
     11798      11799      11810      11809      11919      11920      11931      11930  
     11799      11800      11811      11810      11920      11921      11932      11931  
     11800      11801      11812      11811      11921      11922      11933      11932  
     11801      11802      11813      11812      11922      11923      11934      11933  
     11802      11803      11814      11813      11923      11924      11935      11934  
     11804      11805      11816      11815      11925      11926      11937      11936  
     11805      11806      11817      11816      11926      11927      11938      11937  
     11806      11807      11818      11817      11927      11928      11939      11938  
     11807      11808      11819      11818      11928      11929      11940      11939  
     11808      11809      11820      11819      11929      11930      11941      11940  
     11809      11810      11821      11820      11930      11931      11942      11941  
     11810      11811      11822      11821      11931      11932      11943      11942  
     11811      11812      11823      11822      11932      11933      11944      11943  
     11812      11813      11824      11823      11933      11934      11945      11944  
     11813      11814      11825      11824      11934      11935      11946      11945  
     11815      11816      11827      11826      11936      11937      11948      11947  
     11816      11817      11828      11827      11937      11938      11949      11948  
     11817      11818      11829      11828      11938      11939      11950      11949  
     11818      11819      11830      11829      11939      11940      11951      11950  
     11819      11820      11831      11830      11940      11941      11952      11951  
     11820      11821      11832      11831      11941      11942      11953      11952  
     11821      11822      11833      11832      11942      11943      11954      11953  
     11822      11823      11834      11833      11943      11944      11955      11954  
     11823      11824      11835      11834      11944      11945      11956      11955  
     11824      11825      11836      11835      11945      11946      11957      11956  
     11826      11827      11838      11837      11947      11948      11959      11958  
     11827      11828      11839      11838      11948      11949      11960      11959  
     11828      11829      11840      11839      11949      11950      11961      11960  
     11829      11830      11841      11840      11950      11951      11962      11961  
     11830      11831      11842      11841      11951      11952      11963      11962  
     11831      11832      11843      11842      11952      11953      11964      11963  
     11832      11833      11844      11843      11953      11954      11965      11964  
     11833      11834      11845      11844      11954      11955      11966      11965  
     11834      11835      11846      11845      11955      11956      11967      11966  
     11835      11836      11847      11846      11956      11957      11968      11967  
     11837      11838      11849      11848      11958      11959      11970      11969  
     11838      11839      11850      11849      11959      11960      11971      11970  
     11839      11840      11851      11850      11960      11961      11972      11971  
     11840      11841      11852      11851      11961      11962      11973      11972  
     11841      11842      11853      11852      11962      11963      11974      11973  
     11842      11843      11854      11853      11963      11964      11975      11974  
     11843      11844      11855      11854      11964      11965      11976      11975  
     11844      11845      11856      11855      11965      11966      11977      11976  
     11845      11846      11857      11856      11966      11967      11978      11977  
     11846      11847      11858      11857      11967      11968      11979      11978  
     11859      11860      11871      11870      11980      11981      11992      11991  
     11860      11861      11872      11871      11981      11982      11993      11992  
     11861      11862      11873      11872      11982      11983      11994      11993  
     11862      11863      11874      11873      11983      11984      11995      11994  
     11863      11864      11875      11874      11984      11985      11996      11995  
     11864      11865      11876      11875      11985      11986      11997      11996  
     11865      11866      11877      11876      11986      11987      11998      11997  
     11866      11867      11878      11877      11987      11988      11999      11998  
     11867      11868      11879      11878      11988      11989      12000      11999  
     11868      11869      11880      11879      11989      11990      12001      12000  
     11870      11871      11882      11881      11991      11992      12003      12002  
     11871      11872      11883      11882      11992      11993      12004      12003  
     11872      11873      11884      11883      11993      11994      12005      12004  
     11873      11874      11885      11884      11994      11995      12006      12005  
     11874      11875      11886      11885      11995      11996      12007      12006  
     11875      11876      11887      11886      11996      11997      12008      12007  
     11876      11877      11888      11887      11997      11998      12009      12008  
     11877      11878      11889      11888      11998      11999      12010      12009  
     11878      11879      11890      11889      11999      12000      12011      12010  
     11879      11880      11891      11890      12000      12001      12012      12011  
     11881      11882      11893      11892      12002      12003      12014      12013  
     11882      11883      11894      11893      12003      12004      12015      12014  
     11883      11884      11895      11894      12004      12005      12016      12015  
     11884      11885      11896      11895      12005      12006      12017      12016  
     11885      11886      11897      11896      12006      12007      12018      12017  
     11886      11887      11898      11897      12007      12008      12019      12018  
     11887      11888      11899      11898      12008      12009      12020      12019  
     11888      11889      11900      11899      12009      12010      12021      12020  
     11889      11890      11901      11900      12010      12011      12022      12021  
     11890      11891      11902      11901      12011      12012      12023      12022  
     11892      11893      11904      11903      12013      12014      12025      12024  
     11893      11894      11905      11904      12014      12015      12026      12025  
     11894      11895      11906      11905      12015      12016      12027      12026  
     11895      11896      11907      11906      12016      12017      12028      12027  
     11896      11897      11908      11907      12017      12018      12029      12028  
     11897      11898      11909      11908      12018      12019      12030      12029  
     11898      11899      11910      11909      12019      12020      12031      12030  
     11899      11900      11911      11910      12020      12021      12032      12031  
     11900      11901      11912      11911      12021      12022      12033      12032  
     11901      11902      11913      11912      12022      12023      12034      12033  
     11903      11904      11915      11914      12024      12025      12036      12035  
     11904      11905      11916      11915      12025      12026      12037      12036  
     11905      11906      11917      11916      12026      12027      12038      12037  
     11906      11907      11918      11917      12027      12028      12039      12038  
     11907      11908      11919      11918      12028      12029      12040      12039  
     11908      11909      11920      11919      12029      12030      12041      12040  
     11909      11910      11921      11920      12030      12031      12042      12041  
     11910      11911      11922      11921      12031      12032      12043      12042  
     11911      11912      11923      11922      12032      12033      12044      12043  
     11912      11913      11924      11923      12033      12034      12045      12044  
     11914      11915      11926      11925      12035      12036      12047      12046  
     11915      11916      11927      11926      12036      12037      12048      12047  
     11916      11917      11928      11927      12037      12038      12049      12048  
     11917      11918      11929      11928      12038      12039      12050      12049  
     11918      11919      11930      11929      12039      12040      12051      12050  
     11919      11920      11931      11930      12040      12041      12052      12051  
     11920      11921      11932      11931      12041      12042      12053      12052  
     11921      11922      11933      11932      12042      12043      12054      12053  
     11922      11923      11934      11933      12043      12044      12055      12054  
     11923      11924      11935      11934      12044      12045      12056      12055  
     11925      11926      11937      11936      12046      12047      12058      12057  
     11926      11927      11938      11937      12047      12048      12059      12058  
     11927      11928      11939      11938      12048      12049      12060      12059  
     11928      11929      11940      11939      12049      12050      12061      12060  
     11929      11930      11941      11940      12050      12051      12062      12061  
     11930      11931      11942      11941      12051      12052      12063      12062  
     11931      11932      11943      11942      12052      12053      12064      12063  
     11932      11933      11944      11943      12053      12054      12065      12064  
     11933      11934      11945      11944      12054      12055      12066      12065  
     11934      11935      11946      11945      12055      12056      12067      12066  
     11936      11937      11948      11947      12057      12058      12069      12068  
     11937      11938      11949      11948      12058      12059      12070      12069  
     11938      11939      11950      11949      12059      12060      12071      12070  
     11939      11940      11951      11950      12060      12061      12072      12071  
     11940      11941      11952      11951      12061      12062      12073      12072  
     11941      11942      11953      11952      12062      12063      12074      12073  
     11942      11943      11954      11953      12063      12064      12075      12074  
     11943      11944      11955      11954      12064      12065      12076      12075  
     11944      11945      11956      11955      12065      12066      12077      12076  
     11945      11946      11957      11956      12066      12067      12078      12077  
     11947      11948      11959      11958      12068      12069      12080      12079  
     11948      11949      11960      11959      12069      12070      12081      12080  
     11949      11950      11961      11960      12070      12071      12082      12081  
     11950      11951      11962      11961      12071      12072      12083      12082  
     11951      11952      11963      11962      12072      12073      12084      12083  
     11952      11953      11964      11963      12073      12074      12085      12084  
     11953      11954      11965      11964      12074      12075      12086      12085  
     11954      11955      11966      11965      12075      12076      12087      12086  
     11955      11956      11967      11966      12076      12077      12088      12087  
     11956      11957      11968      11967      12077      12078      12089      12088  
     11958      11959      11970      11969      12079      12080      12091      12090  
     11959      11960      11971      11970      12080      12081      12092      12091  
     11960      11961      11972      11971      12081      12082      12093      12092  
     11961      11962      11973      11972      12082      12083      12094      12093  
     11962      11963      11974      11973      12083      12084      12095      12094  
     11963      11964      11975      11974      12084      12085      12096      12095  
     11964      11965      11976      11975      12085      12086      12097      12096  
     11965      11966      11977      11976      12086      12087      12098      12097  
     11966      11967      11978      11977      12087      12088      12099      12098  
     11967      11968      11979      11978      12088      12089      12100      12099  
     11980      11981      11992      11991      12101      12102      12113      12112  
     11981      11982      11993      11992      12102      12103      12114      12113  
     11982      11983      11994      11993      12103      12104      12115      12114  
     11983      11984      11995      11994      12104      12105      12116      12115  
     11984      11985      11996      11995      12105      12106      12117      12116  
     11985      11986      11997      11996      12106      12107      12118      12117  
     11986      11987      11998      11997      12107      12108      12119      12118  
     11987      11988      11999      11998      12108      12109      12120      12119  
     11988      11989      12000      11999      12109      12110      12121      12120  
     11989      11990      12001      12000      12110      12111      12122      12121  
     11991      11992      12003      12002      12112      12113      12124      12123  
     11992      11993      12004      12003      12113      12114      12125      12124  
     11993      11994      12005      12004      12114      12115      12126      12125  
     11994      11995      12006      12005      12115      12116      12127      12126  
     11995      11996      12007      12006      12116      12117      12128      12127  
     11996      11997      12008      12007      12117      12118      12129      12128  
     11997      11998      12009      12008      12118      12119      12130      12129  
     11998      11999      12010      12009      12119      12120      12131      12130  
     11999      12000      12011      12010      12120      12121      12132      12131  
     12000      12001      12012      12011      12121      12122      12133      12132  
     12002      12003      12014      12013      12123      12124      12135      12134  
     12003      12004      12015      12014      12124      12125      12136      12135  
     12004      12005      12016      12015      12125      12126      12137      12136  
     12005      12006      12017      12016      12126      12127      12138      12137  
     12006      12007      12018      12017      12127      12128      12139      12138  
     12007      12008      12019      12018      12128      12129      12140      12139  
     12008      12009      12020      12019      12129      12130      12141      12140  
     12009      12010      12021      12020      12130      12131      12142      12141  
     12010      12011      12022      12021      12131      12132      12143      12142  
     12011      12012      12023      12022      12132      12133      12144      12143  
     12013      12014      12025      12024      12134      12135      12146      12145  
     12014      12015      12026      12025      12135      12136      12147      12146  
     12015      12016      12027      12026      12136      12137      12148      12147  
     12016      12017      12028      12027      12137      12138      12149      12148  
     12017      12018      12029      12028      12138      12139      12150      12149  
     12018      12019      12030      12029      12139      12140      12151      12150  
     12019      12020      12031      12030      12140      12141      12152      12151  
     12020      12021      12032      12031      12141      12142      12153      12152  
     12021      12022      12033      12032      12142      12143      12154      12153  
     12022      12023      12034      12033      12143      12144      12155      12154  
     12024      12025      12036      12035      12145      12146      12157      12156  
     12025      12026      12037      12036      12146      12147      12158      12157  
     12026      12027      12038      12037      12147      12148      12159      12158  
     12027      12028      12039      12038      12148      12149      12160      12159  
     12028      12029      12040      12039      12149      12150      12161      12160  
     12029      12030      12041      12040      12150      12151      12162      12161  
     12030      12031      12042      12041      12151      12152      12163      12162  
     12031      12032      12043      12042      12152      12153      12164      12163  
     12032      12033      12044      12043      12153      12154      12165      12164  
     12033      12034      12045      12044      12154      12155      12166      12165  
     12035      12036      12047      12046      12156      12157      12168      12167  
     12036      12037      12048      12047      12157      12158      12169      12168  
     12037      12038      12049      12048      12158      12159      12170      12169  
     12038      12039      12050      12049      12159      12160      12171      12170  
     12039      12040      12051      12050      12160      12161      12172      12171  
     12040      12041      12052      12051      12161      12162      12173      12172  
     12041      12042      12053      12052      12162      12163      12174      12173  
     12042      12043      12054      12053      12163      12164      12175      12174  
     12043      12044      12055      12054      12164      12165      12176      12175  
     12044      12045      12056      12055      12165      12166      12177      12176  
     12046      12047      12058      12057      12167      12168      12179      12178  
     12047      12048      12059      12058      12168      12169      12180      12179  
     12048      12049      12060      12059      12169      12170      12181      12180  
     12049      12050      12061      12060      12170      12171      12182      12181  
     12050      12051      12062      12061      12171      12172      12183      12182  
     12051      12052      12063      12062      12172      12173      12184      12183  
     12052      12053      12064      12063      12173      12174      12185      12184  
     12053      12054      12065      12064      12174      12175      12186      12185  
     12054      12055      12066      12065      12175      12176      12187      12186  
     12055      12056      12067      12066      12176      12177      12188      12187  
     12057      12058      12069      12068      12178      12179      12190      12189  
     12058      12059      12070      12069      12179      12180      12191      12190  
     12059      12060      12071      12070      12180      12181      12192      12191  
     12060      12061      12072      12071      12181      12182      12193      12192  
     12061      12062      12073      12072      12182      12183      12194      12193  
     12062      12063      12074      12073      12183      12184      12195      12194  
     12063      12064      12075      12074      12184      12185      12196      12195  
     12064      12065      12076      12075      12185      12186      12197      12196  
     12065      12066      12077      12076      12186      12187      12198      12197  
     12066      12067      12078      12077      12187      12188      12199      12198  
     12068      12069      12080      12079      12189      12190      12201      12200  
     12069      12070      12081      12080      12190      12191      12202      12201  
     12070      12071      12082      12081      12191      12192      12203      12202  
     12071      12072      12083      12082      12192      12193      12204      12203  
     12072      12073      12084      12083      12193      12194      12205      12204  
     12073      12074      12085      12084      12194      12195      12206      12205  
     12074      12075      12086      12085      12195      12196      12207      12206  
     12075      12076      12087      12086      12196      12197      12208      12207  
     12076      12077      12088      12087      12197      12198      12209      12208  
     12077      12078      12089      12088      12198      12199      12210      12209  
     12079      12080      12091      12090      12200      12201      12212      12211  
     12080      12081      12092      12091      12201      12202      12213      12212  
     12081      12082      12093      12092      12202      12203      12214      12213  
     12082      12083      12094      12093      12203      12204      12215      12214  
     12083      12084      12095      12094      12204      12205      12216      12215  
     12084      12085      12096      12095      12205      12206      12217      12216  
     12085      12086      12097      12096      12206      12207      12218      12217  
     12086      12087      12098      12097      12207      12208      12219      12218  
     12087      12088      12099      12098      12208      12209      12220      12219  
     12088      12089      12100      12099      12209      12210      12221      12220  
